*SPEF "ieee 1481-1999"
*DESIGN "peripherals_macro"
*DATE "22:30:49 Thursday September 17, 2026"
*VENDOR "The OpenROAD Project"
*PROGRAM "OpenROAD"
*VERSION "dcf36133a369abc8f3c5e5738cd4d82e4903c0e0"
*DESIGN_FLOW "NAME_SCOPE LOCAL" "PIN_CAP NONE"
*DIVIDER /
*DELIMITER :
*BUS_DELIMITER []
*T_UNIT 1 NS
*C_UNIT 1 PF
*R_UNIT 1 OHM
*L_UNIT 1 HENRY

*NAME_MAP
*3 clk_i
*4 gpio_dir[0]
*5 gpio_dir[10]
*6 gpio_dir[11]
*7 gpio_dir[12]
*8 gpio_dir[13]
*9 gpio_dir[14]
*10 gpio_dir[15]
*11 gpio_dir[16]
*12 gpio_dir[17]
*13 gpio_dir[18]
*14 gpio_dir[19]
*15 gpio_dir[1]
*16 gpio_dir[20]
*17 gpio_dir[21]
*18 gpio_dir[22]
*19 gpio_dir[23]
*20 gpio_dir[24]
*21 gpio_dir[25]
*22 gpio_dir[26]
*23 gpio_dir[27]
*24 gpio_dir[28]
*25 gpio_dir[29]
*26 gpio_dir[2]
*27 gpio_dir[30]
*28 gpio_dir[31]
*29 gpio_dir[3]
*30 gpio_dir[4]
*31 gpio_dir[5]
*32 gpio_dir[6]
*33 gpio_dir[7]
*34 gpio_dir[8]
*35 gpio_dir[9]
*36 gpio_in[0]
*37 gpio_in[10]
*38 gpio_in[11]
*39 gpio_in[12]
*40 gpio_in[13]
*41 gpio_in[14]
*42 gpio_in[15]
*43 gpio_in[16]
*44 gpio_in[17]
*45 gpio_in[18]
*46 gpio_in[19]
*47 gpio_in[1]
*48 gpio_in[20]
*49 gpio_in[21]
*50 gpio_in[22]
*51 gpio_in[23]
*52 gpio_in[24]
*53 gpio_in[25]
*54 gpio_in[26]
*55 gpio_in[27]
*56 gpio_in[28]
*57 gpio_in[29]
*58 gpio_in[2]
*59 gpio_in[30]
*60 gpio_in[31]
*61 gpio_in[3]
*62 gpio_in[4]
*63 gpio_in[5]
*64 gpio_in[6]
*65 gpio_in[7]
*66 gpio_in[8]
*67 gpio_in[9]
*68 gpio_out[0]
*69 gpio_out[10]
*70 gpio_out[11]
*71 gpio_out[12]
*72 gpio_out[13]
*73 gpio_out[14]
*74 gpio_out[15]
*75 gpio_out[16]
*76 gpio_out[17]
*77 gpio_out[18]
*78 gpio_out[19]
*79 gpio_out[1]
*80 gpio_out[20]
*81 gpio_out[21]
*82 gpio_out[22]
*83 gpio_out[23]
*84 gpio_out[24]
*85 gpio_out[25]
*86 gpio_out[26]
*87 gpio_out[27]
*88 gpio_out[28]
*89 gpio_out[29]
*90 gpio_out[2]
*91 gpio_out[30]
*92 gpio_out[31]
*93 gpio_out[3]
*94 gpio_out[4]
*95 gpio_out[5]
*96 gpio_out[6]
*97 gpio_out[7]
*98 gpio_out[8]
*99 gpio_out[9]
*100 rst_ni
*101 s_axil_araddr[0]
*102 s_axil_araddr[10]
*103 s_axil_araddr[11]
*104 s_axil_araddr[12]
*105 s_axil_araddr[13]
*106 s_axil_araddr[14]
*107 s_axil_araddr[15]
*108 s_axil_araddr[16]
*109 s_axil_araddr[17]
*110 s_axil_araddr[18]
*111 s_axil_araddr[19]
*112 s_axil_araddr[1]
*113 s_axil_araddr[20]
*114 s_axil_araddr[21]
*115 s_axil_araddr[22]
*116 s_axil_araddr[23]
*117 s_axil_araddr[24]
*118 s_axil_araddr[25]
*119 s_axil_araddr[26]
*120 s_axil_araddr[27]
*121 s_axil_araddr[28]
*122 s_axil_araddr[29]
*123 s_axil_araddr[2]
*124 s_axil_araddr[30]
*125 s_axil_araddr[31]
*126 s_axil_araddr[3]
*127 s_axil_araddr[4]
*128 s_axil_araddr[5]
*129 s_axil_araddr[6]
*130 s_axil_araddr[7]
*131 s_axil_araddr[8]
*132 s_axil_araddr[9]
*133 s_axil_arready
*134 s_axil_arvalid
*135 s_axil_awaddr[0]
*136 s_axil_awaddr[10]
*137 s_axil_awaddr[11]
*138 s_axil_awaddr[12]
*139 s_axil_awaddr[13]
*140 s_axil_awaddr[14]
*141 s_axil_awaddr[15]
*142 s_axil_awaddr[16]
*143 s_axil_awaddr[17]
*144 s_axil_awaddr[18]
*145 s_axil_awaddr[19]
*146 s_axil_awaddr[1]
*147 s_axil_awaddr[20]
*148 s_axil_awaddr[21]
*149 s_axil_awaddr[22]
*150 s_axil_awaddr[23]
*151 s_axil_awaddr[24]
*152 s_axil_awaddr[25]
*153 s_axil_awaddr[26]
*154 s_axil_awaddr[27]
*155 s_axil_awaddr[28]
*156 s_axil_awaddr[29]
*157 s_axil_awaddr[2]
*158 s_axil_awaddr[30]
*159 s_axil_awaddr[31]
*160 s_axil_awaddr[3]
*161 s_axil_awaddr[4]
*162 s_axil_awaddr[5]
*163 s_axil_awaddr[6]
*164 s_axil_awaddr[7]
*165 s_axil_awaddr[8]
*166 s_axil_awaddr[9]
*167 s_axil_awready
*168 s_axil_awvalid
*169 s_axil_bready
*170 net
*171 net275
*172 s_axil_bvalid
*173 s_axil_rdata[0]
*174 s_axil_rdata[10]
*175 s_axil_rdata[11]
*176 s_axil_rdata[12]
*177 s_axil_rdata[13]
*178 s_axil_rdata[14]
*179 s_axil_rdata[15]
*180 s_axil_rdata[16]
*181 s_axil_rdata[17]
*182 s_axil_rdata[18]
*183 s_axil_rdata[19]
*184 s_axil_rdata[1]
*185 s_axil_rdata[20]
*186 s_axil_rdata[21]
*187 s_axil_rdata[22]
*188 s_axil_rdata[23]
*189 s_axil_rdata[24]
*190 s_axil_rdata[25]
*191 s_axil_rdata[26]
*192 s_axil_rdata[27]
*193 s_axil_rdata[28]
*194 s_axil_rdata[29]
*195 s_axil_rdata[2]
*196 s_axil_rdata[30]
*197 s_axil_rdata[31]
*198 s_axil_rdata[3]
*199 s_axil_rdata[4]
*200 s_axil_rdata[5]
*201 s_axil_rdata[6]
*202 s_axil_rdata[7]
*203 s_axil_rdata[8]
*204 s_axil_rdata[9]
*205 s_axil_rready
*206 net276
*207 net277
*208 s_axil_rvalid
*209 s_axil_wdata[0]
*210 s_axil_wdata[10]
*211 s_axil_wdata[11]
*212 s_axil_wdata[12]
*213 s_axil_wdata[13]
*214 s_axil_wdata[14]
*215 s_axil_wdata[15]
*216 s_axil_wdata[16]
*217 s_axil_wdata[17]
*218 s_axil_wdata[18]
*219 s_axil_wdata[19]
*220 s_axil_wdata[1]
*221 s_axil_wdata[20]
*222 s_axil_wdata[21]
*223 s_axil_wdata[22]
*224 s_axil_wdata[23]
*225 s_axil_wdata[24]
*226 s_axil_wdata[25]
*227 s_axil_wdata[26]
*228 s_axil_wdata[27]
*229 s_axil_wdata[28]
*230 s_axil_wdata[29]
*231 s_axil_wdata[2]
*232 s_axil_wdata[30]
*233 s_axil_wdata[31]
*234 s_axil_wdata[3]
*235 s_axil_wdata[4]
*236 s_axil_wdata[5]
*237 s_axil_wdata[6]
*238 s_axil_wdata[7]
*239 s_axil_wdata[8]
*240 s_axil_wdata[9]
*241 s_axil_wready
*242 s_axil_wstrb[0]
*243 s_axil_wstrb[1]
*244 s_axil_wstrb[2]
*245 s_axil_wstrb[3]
*246 s_axil_wvalid
*247 _0000_
*248 _0001_
*249 _0002_
*250 _0003_
*251 _0004_
*252 _0005_
*253 _0006_
*254 _0007_
*255 _0008_
*256 _0009_
*257 _0010_
*258 _0011_
*259 _0012_
*260 _0013_
*261 _0014_
*262 _0015_
*263 _0016_
*264 _0017_
*265 _0018_
*266 _0019_
*267 _0020_
*268 _0021_
*269 _0022_
*270 _0023_
*271 _0024_
*272 _0025_
*273 _0026_
*274 _0027_
*275 _0028_
*276 _0029_
*277 _0030_
*278 _0031_
*279 _0032_
*280 _0033_
*281 _0034_
*282 _0035_
*283 _0036_
*284 _0037_
*285 _0038_
*286 _0039_
*287 _0040_
*288 _0041_
*289 _0042_
*290 _0043_
*291 _0044_
*292 _0045_
*293 _0046_
*294 _0047_
*295 _0048_
*296 _0049_
*297 _0050_
*298 _0051_
*299 _0052_
*300 _0053_
*301 _0054_
*302 _0055_
*303 _0056_
*304 _0057_
*305 _0058_
*306 _0059_
*307 _0060_
*308 _0061_
*309 _0062_
*310 _0063_
*311 _0064_
*312 _0065_
*313 _0066_
*314 _0067_
*315 _0068_
*316 _0069_
*317 _0070_
*318 _0071_
*319 _0072_
*320 _0073_
*321 _0074_
*322 _0075_
*323 _0076_
*324 _0077_
*325 _0078_
*326 _0079_
*327 _0080_
*328 _0081_
*329 _0082_
*330 _0083_
*331 _0084_
*332 _0085_
*333 _0086_
*334 _0087_
*335 _0088_
*336 _0089_
*337 _0090_
*338 _0091_
*339 _0092_
*340 _0093_
*341 _0094_
*342 _0095_
*343 _0096_
*344 _0097_
*345 _0098_
*346 _0099_
*347 _0100_
*348 _0101_
*349 _0102_
*350 _0103_
*351 _0104_
*352 _0105_
*353 _0106_
*354 _0107_
*355 _0108_
*356 _0109_
*357 _0110_
*358 _0111_
*359 _0112_
*360 _0113_
*361 _0114_
*362 _0115_
*363 _0116_
*364 _0117_
*365 _0118_
*366 _0119_
*367 _0120_
*368 _0121_
*369 _0122_
*370 _0123_
*371 _0124_
*372 _0125_
*373 _0126_
*374 _0127_
*375 _0128_
*376 _0129_
*377 _0130_
*378 _0131_
*379 _0132_
*380 _0133_
*381 _0134_
*382 _0135_
*383 _0136_
*384 _0137_
*385 _0138_
*386 _0139_
*387 _0140_
*388 _0141_
*389 _0142_
*390 _0143_
*391 _0144_
*392 _0145_
*393 _0146_
*394 _0147_
*395 _0148_
*396 _0149_
*397 _0150_
*398 _0151_
*399 _0152_
*400 _0153_
*401 _0154_
*402 _0155_
*403 _0156_
*404 _0157_
*405 _0158_
*406 _0159_
*407 _0160_
*408 _0161_
*409 _0162_
*410 _0163_
*411 _0164_
*412 _0165_
*413 _0166_
*414 _0167_
*415 _0168_
*416 _0169_
*417 _0170_
*418 _0171_
*419 _0172_
*420 _0173_
*421 _0174_
*422 _0175_
*423 _0176_
*424 _0177_
*425 _0178_
*426 _0179_
*427 _0180_
*428 _0181_
*429 _0182_
*430 _0183_
*431 _0184_
*432 _0185_
*433 _0186_
*434 _0187_
*435 _0188_
*436 _0189_
*437 _0190_
*438 _0191_
*439 _0192_
*440 _0193_
*441 _0194_
*442 _0195_
*443 _0196_
*444 _0197_
*445 _0198_
*446 _0199_
*447 _0200_
*448 _0201_
*449 _0202_
*450 _0203_
*451 _0204_
*452 _0205_
*453 _0206_
*454 _0207_
*455 _0208_
*456 _0209_
*457 _0210_
*458 _0211_
*459 _0212_
*460 _0213_
*461 _0214_
*462 _0215_
*463 _0216_
*464 _0217_
*465 _0218_
*466 _0219_
*467 _0220_
*468 _0221_
*469 _0222_
*470 _0223_
*471 _0224_
*472 _0225_
*473 _0226_
*474 _0227_
*475 _0228_
*476 _0229_
*477 _0230_
*478 _0231_
*479 _0232_
*480 _0233_
*481 _0234_
*482 _0235_
*483 _0236_
*484 _0237_
*485 _0238_
*486 _0239_
*487 _0240_
*488 _0241_
*489 _0242_
*490 _0243_
*491 _0244_
*492 _0245_
*493 _0246_
*494 _0247_
*495 _0248_
*496 _0249_
*497 _0250_
*498 _0251_
*499 _0252_
*500 _0253_
*501 _0254_
*502 _0255_
*503 _0256_
*504 _0257_
*505 _0258_
*506 _0259_
*507 _0260_
*508 _0261_
*509 _0262_
*510 _0263_
*511 _0264_
*512 _0265_
*513 _0266_
*514 _0267_
*515 _0268_
*516 _0269_
*517 _0270_
*518 _0271_
*519 _0272_
*520 _0273_
*521 _0274_
*522 _0275_
*523 _0276_
*524 _0277_
*525 _0278_
*526 _0279_
*527 _0280_
*528 _0281_
*529 _0282_
*530 _0283_
*531 _0284_
*532 _0285_
*533 _0286_
*534 _0287_
*535 _0288_
*536 _0289_
*537 _0290_
*538 _0291_
*539 _0292_
*540 _0293_
*541 _0294_
*542 _0295_
*543 _0296_
*544 _0297_
*545 _0298_
*546 _0299_
*547 _0300_
*548 _0301_
*549 _0302_
*550 _0303_
*551 _0304_
*552 _0305_
*553 _0306_
*554 _0307_
*555 _0308_
*556 _0309_
*557 _0310_
*558 _0311_
*559 _0312_
*560 _0313_
*561 _0314_
*562 _0315_
*563 _0316_
*564 _0317_
*565 _0318_
*566 _0319_
*567 _0320_
*568 _0321_
*569 _0322_
*570 _0323_
*571 _0324_
*572 _0325_
*573 _0326_
*574 _0327_
*575 _0328_
*576 _0329_
*577 _0330_
*578 _0331_
*579 _0332_
*580 _0333_
*581 _0334_
*582 _0335_
*583 _0336_
*584 _0337_
*585 _0338_
*586 _0339_
*587 _0340_
*588 _0341_
*589 _0342_
*590 _0343_
*591 _0344_
*592 _0345_
*593 _0346_
*594 _0347_
*595 _0348_
*596 _0349_
*597 _0350_
*598 _0351_
*599 _0352_
*600 _0353_
*601 _0354_
*602 _0355_
*603 _0356_
*604 _0357_
*605 _0358_
*606 _0359_
*607 _0360_
*608 _0361_
*609 _0362_
*610 _0363_
*611 _0364_
*612 _0365_
*613 _0366_
*614 _0367_
*615 _0368_
*616 _0369_
*617 _0370_
*618 _0371_
*619 _0372_
*620 _0373_
*621 _0374_
*622 _0375_
*623 _0376_
*624 _0377_
*625 _0378_
*626 _0379_
*627 _0380_
*628 _0381_
*629 _0382_
*630 _0383_
*631 _0384_
*632 _0385_
*633 _0386_
*634 _0387_
*635 _0388_
*636 _0389_
*637 _0390_
*638 _0391_
*639 _0392_
*640 _0393_
*641 _0394_
*642 _0395_
*643 _0396_
*644 _0397_
*645 _0398_
*646 _0399_
*647 _0400_
*648 _0401_
*649 _0402_
*650 _0403_
*651 _0404_
*652 _0405_
*653 _0406_
*654 _0407_
*655 _0408_
*656 _0409_
*657 _0410_
*658 _0411_
*659 _0412_
*660 _0413_
*661 _0414_
*662 _0415_
*663 _0416_
*664 _0417_
*665 _0418_
*666 _0419_
*667 _0420_
*668 _0421_
*669 _0422_
*670 _0423_
*671 _0424_
*672 _0425_
*673 _0426_
*674 _0427_
*675 _0428_
*676 _0429_
*677 _0430_
*678 _0431_
*679 _0432_
*680 _0433_
*681 _0434_
*682 _0435_
*683 _0436_
*684 _0437_
*685 _0438_
*686 _0439_
*687 _0440_
*688 _0441_
*689 _0442_
*690 _0443_
*691 _0444_
*692 _0445_
*693 _0446_
*694 _0447_
*695 _0448_
*696 _0449_
*697 clknet_0_clk_i
*698 clknet_4_0_0_clk_i
*699 clknet_4_10_0_clk_i
*700 clknet_4_11_0_clk_i
*701 clknet_4_12_0_clk_i
*702 clknet_4_13_0_clk_i
*703 clknet_4_14_0_clk_i
*704 clknet_4_15_0_clk_i
*705 clknet_4_1_0_clk_i
*706 clknet_4_2_0_clk_i
*707 clknet_4_3_0_clk_i
*708 clknet_4_4_0_clk_i
*709 clknet_4_5_0_clk_i
*710 clknet_4_6_0_clk_i
*711 clknet_4_7_0_clk_i
*712 clknet_4_8_0_clk_i
*713 clknet_4_9_0_clk_i
*714 i_gpio\.aw_en
*715 net1
*716 net10
*717 net100
*718 net101
*719 net102
*720 net103
*721 net104
*722 net105
*723 net106
*724 net107
*725 net108
*726 net109
*727 net11
*728 net110
*729 net111
*730 net112
*731 net113
*732 net114
*733 net115
*734 net116
*735 net117
*736 net118
*737 net119
*738 net12
*739 net120
*740 net121
*741 net122
*742 net123
*743 net124
*744 net125
*745 net126
*746 net127
*747 net128
*748 net129
*749 net13
*750 net130
*751 net131
*752 net132
*753 net133
*754 net134
*755 net135
*756 net136
*757 net137
*758 net138
*759 net139
*760 net14
*761 net140
*762 net141
*763 net142
*764 net143
*765 net144
*766 net145
*767 net146
*768 net147
*769 net148
*770 net149
*771 net15
*772 net150
*773 net151
*774 net152
*775 net153
*776 net154
*777 net155
*778 net156
*779 net157
*780 net158
*781 net159
*782 net16
*783 net160
*784 net161
*785 net162
*786 net163
*787 net164
*788 net165
*789 net166
*790 net167
*791 net168
*792 net169
*793 net17
*794 net170
*795 net171
*796 net172
*797 net173
*798 net174
*799 net175
*800 net176
*801 net177
*802 net178
*803 net179
*804 net18
*805 net180
*806 net181
*807 net182
*808 net183
*809 net184
*810 net185
*811 net186
*812 net187
*813 net188
*814 net189
*815 net19
*816 net190
*817 net191
*818 net192
*819 net193
*820 net194
*821 net195
*822 net196
*823 net197
*824 net198
*825 net199
*826 net2
*827 net20
*828 net200
*829 net201
*830 net202
*831 net203
*832 net204
*833 net205
*834 net206
*835 net207
*836 net208
*837 net209
*838 net21
*839 net210
*840 net211
*841 net212
*842 net213
*843 net214
*844 net215
*845 net216
*846 net217
*847 net218
*848 net219
*849 net22
*850 net220
*851 net221
*852 net222
*853 net223
*854 net224
*855 net225
*856 net226
*857 net227
*858 net228
*859 net229
*860 net23
*861 net230
*862 net231
*863 net232
*864 net233
*865 net234
*866 net235
*867 net236
*868 net237
*869 net238
*870 net239
*871 net24
*872 net240
*873 net241
*874 net242
*875 net243
*876 net244
*877 net245
*878 net246
*879 net247
*880 net248
*881 net249
*882 net25
*883 net250
*884 net251
*885 net252
*886 net253
*887 net254
*888 net255
*889 net256
*890 net257
*891 net258
*892 net259
*893 net26
*894 net260
*895 net261
*896 net262
*897 net263
*898 net264
*899 net265
*900 net266
*901 net267
*902 net268
*903 net269
*904 net27
*905 net270
*906 net271
*907 net272
*908 net273
*909 net274
*910 net278
*911 net279
*912 net28
*913 net280
*914 net281
*915 net282
*916 net283
*917 net284
*918 net285
*919 net286
*920 net287
*921 net288
*922 net289
*923 net29
*924 net290
*925 net291
*926 net292
*927 net293
*928 net294
*929 net295
*930 net296
*931 net297
*932 net298
*933 net299
*934 net3
*935 net30
*936 net300
*937 net301
*938 net302
*939 net303
*940 net304
*941 net305
*942 net306
*943 net307
*944 net308
*945 net309
*946 net31
*947 net310
*948 net311
*949 net312
*950 net313
*951 net314
*952 net315
*953 net316
*954 net317
*955 net318
*956 net319
*957 net32
*958 net320
*959 net321
*960 net322
*961 net323
*962 net324
*963 net325
*964 net326
*965 net327
*966 net328
*967 net329
*968 net33
*969 net330
*970 net331
*971 net332
*972 net333
*973 net334
*974 net335
*975 net336
*976 net337
*977 net338
*978 net339
*979 net34
*980 net340
*981 net341
*982 net342
*983 net343
*984 net344
*985 net345
*986 net346
*987 net347
*988 net348
*989 net349
*990 net35
*991 net350
*992 net351
*993 net352
*994 net353
*995 net354
*996 net355
*997 net356
*998 net357
*999 net358
*1000 net359
*1001 net36
*1002 net360
*1003 net361
*1004 net362
*1005 net363
*1006 net364
*1007 net365
*1008 net366
*1009 net367
*1010 net368
*1011 net369
*1012 net37
*1013 net370
*1014 net371
*1015 net372
*1016 net373
*1017 net374
*1018 net375
*1019 net376
*1020 net377
*1021 net378
*1022 net379
*1023 net38
*1024 net380
*1025 net381
*1026 net382
*1027 net383
*1028 net384
*1029 net385
*1030 net386
*1031 net387
*1032 net388
*1033 net389
*1034 net39
*1035 net390
*1036 net391
*1037 net392
*1038 net393
*1039 net394
*1040 net395
*1041 net396
*1042 net397
*1043 net398
*1044 net399
*1045 net4
*1046 net40
*1047 net400
*1048 net401
*1049 net402
*1050 net403
*1051 net404
*1052 net405
*1053 net406
*1054 net407
*1055 net408
*1056 net409
*1057 net41
*1058 net410
*1059 net411
*1060 net412
*1061 net413
*1062 net414
*1063 net415
*1064 net416
*1065 net417
*1066 net418
*1067 net419
*1068 net42
*1069 net420
*1070 net421
*1071 net422
*1072 net423
*1073 net424
*1074 net425
*1075 net426
*1076 net427
*1077 net428
*1078 net429
*1079 net43
*1080 net430
*1081 net431
*1082 net432
*1083 net433
*1084 net434
*1085 net435
*1086 net436
*1087 net437
*1088 net438
*1089 net439
*1090 net44
*1091 net440
*1092 net441
*1093 net442
*1094 net443
*1095 net444
*1096 net445
*1097 net446
*1098 net447
*1099 net448
*1100 net449
*1101 net45
*1102 net450
*1103 net451
*1104 net452
*1105 net453
*1106 net454
*1107 net455
*1108 net456
*1109 net457
*1110 net458
*1111 net459
*1112 net46
*1113 net460
*1114 net461
*1115 net462
*1116 net463
*1117 net464
*1118 net465
*1119 net466
*1120 net467
*1121 net468
*1122 net469
*1123 net47
*1124 net470
*1125 net471
*1126 net472
*1127 net473
*1128 net474
*1129 net475
*1130 net476
*1131 net477
*1132 net478
*1133 net479
*1134 net48
*1135 net480
*1136 net481
*1137 net49
*1138 net5
*1139 net50
*1140 net51
*1141 net52
*1142 net53
*1143 net54
*1144 net55
*1145 net56
*1146 net57
*1147 net58
*1148 net59
*1149 net6
*1150 net60
*1151 net61
*1152 net62
*1153 net63
*1154 net64
*1155 net65
*1156 net66
*1157 net67
*1158 net68
*1159 net69
*1160 net7
*1161 net70
*1162 net71
*1163 net72
*1164 net73
*1165 net74
*1166 net75
*1167 net76
*1168 net77
*1169 net78
*1170 net79
*1171 net8
*1172 net80
*1173 net81
*1174 net82
*1175 net83
*1176 net84
*1177 net85
*1178 net86
*1179 net87
*1180 net88
*1181 net89
*1182 net9
*1183 net90
*1184 net91
*1185 net92
*1186 net93
*1187 net94
*1188 net95
*1189 net96
*1190 net97
*1191 net98
*1192 net99
*1193 FILLER_0_0
*1194 FILLER_0_102
*1195 FILLER_0_109
*1196 FILLER_0_116
*1197 FILLER_0_123
*1198 FILLER_0_130
*1199 FILLER_0_14
*1200 FILLER_0_21
*1201 FILLER_0_28
*1202 FILLER_0_30
*1203 FILLER_0_345
*1204 FILLER_0_39
*1205 FILLER_0_46
*1206 FILLER_0_53
*1207 FILLER_0_60
*1208 FILLER_0_67
*1209 FILLER_0_7
*1210 FILLER_0_74
*1211 FILLER_0_81
*1212 FILLER_0_88
*1213 FILLER_0_95
*1214 FILLER_10_0
*1215 FILLER_10_104
*1216 FILLER_10_111
*1217 FILLER_10_118
*1218 FILLER_10_125
*1219 FILLER_10_14
*1220 FILLER_10_140
*1221 FILLER_10_144
*1222 FILLER_10_151
*1223 FILLER_10_158
*1224 FILLER_10_165
*1225 FILLER_10_172
*1226 FILLER_10_179
*1227 FILLER_10_186
*1228 FILLER_10_193
*1229 FILLER_10_200
*1230 FILLER_10_207
*1231 FILLER_10_21
*1232 FILLER_10_214
*1233 FILLER_10_224
*1234 FILLER_10_237
*1235 FILLER_10_239
*1236 FILLER_10_259
*1237 FILLER_10_28
*1238 FILLER_10_301
*1239 FILLER_10_308
*1240 FILLER_10_315
*1241 FILLER_10_322
*1242 FILLER_10_329
*1243 FILLER_10_336
*1244 FILLER_10_343
*1245 FILLER_10_35
*1246 FILLER_10_42
*1247 FILLER_10_50
*1248 FILLER_10_57
*1249 FILLER_10_61
*1250 FILLER_10_69
*1251 FILLER_10_7
*1252 FILLER_10_76
*1253 FILLER_10_83
*1254 FILLER_10_90
*1255 FILLER_10_97
*1256 FILLER_11_0
*1257 FILLER_11_103
*1258 FILLER_11_110
*1259 FILLER_11_117
*1260 FILLER_11_124
*1261 FILLER_11_131
*1262 FILLER_11_138
*1263 FILLER_11_14
*1264 FILLER_11_145
*1265 FILLER_11_152
*1266 FILLER_11_159
*1267 FILLER_11_166
*1268 FILLER_11_191
*1269 FILLER_11_198
*1270 FILLER_11_21
*1271 FILLER_11_210
*1272 FILLER_11_216
*1273 FILLER_11_243
*1274 FILLER_11_250
*1275 FILLER_11_257
*1276 FILLER_11_264
*1277 FILLER_11_28
*1278 FILLER_11_312
*1279 FILLER_11_319
*1280 FILLER_11_326
*1281 FILLER_11_333
*1282 FILLER_11_340
*1283 FILLER_11_35
*1284 FILLER_11_42
*1285 FILLER_11_50
*1286 FILLER_11_58
*1287 FILLER_11_68
*1288 FILLER_11_7
*1289 FILLER_11_75
*1290 FILLER_11_82
*1291 FILLER_11_89
*1292 FILLER_11_96
*1293 FILLER_12_0
*1294 FILLER_12_110
*1295 FILLER_12_117
*1296 FILLER_12_128
*1297 FILLER_12_134
*1298 FILLER_12_14
*1299 FILLER_12_141
*1300 FILLER_12_148
*1301 FILLER_12_155
*1302 FILLER_12_159
*1303 FILLER_12_192
*1304 FILLER_12_204
*1305 FILLER_12_21
*1306 FILLER_12_213
*1307 FILLER_12_220
*1308 FILLER_12_224
*1309 FILLER_12_256
*1310 FILLER_12_263
*1311 FILLER_12_270
*1312 FILLER_12_277
*1313 FILLER_12_28
*1314 FILLER_12_283
*1315 FILLER_12_287
*1316 FILLER_12_315
*1317 FILLER_12_322
*1318 FILLER_12_329
*1319 FILLER_12_336
*1320 FILLER_12_343
*1321 FILLER_12_35
*1322 FILLER_12_39
*1323 FILLER_12_7
*1324 FILLER_12_73
*1325 FILLER_12_83
*1326 FILLER_12_90
*1327 FILLER_12_97
*1328 FILLER_13_0
*1329 FILLER_13_118
*1330 FILLER_13_14
*1331 FILLER_13_152
*1332 FILLER_13_156
*1333 FILLER_13_189
*1334 FILLER_13_196
*1335 FILLER_13_21
*1336 FILLER_13_227
*1337 FILLER_13_238
*1338 FILLER_13_245
*1339 FILLER_13_252
*1340 FILLER_13_259
*1341 FILLER_13_268
*1342 FILLER_13_275
*1343 FILLER_13_279
*1344 FILLER_13_28
*1345 FILLER_13_284
*1346 FILLER_13_291
*1347 FILLER_13_293
*1348 FILLER_13_298
*1349 FILLER_13_305
*1350 FILLER_13_312
*1351 FILLER_13_319
*1352 FILLER_13_326
*1353 FILLER_13_333
*1354 FILLER_13_340
*1355 FILLER_13_35
*1356 FILLER_13_42
*1357 FILLER_13_49
*1358 FILLER_13_56
*1359 FILLER_13_60
*1360 FILLER_13_7
*1361 FILLER_13_76
*1362 FILLER_13_83
*1363 FILLER_13_90
*1364 FILLER_13_97
*1365 FILLER_14_0
*1366 FILLER_14_107
*1367 FILLER_14_135
*1368 FILLER_14_14
*1369 FILLER_14_142
*1370 FILLER_14_149
*1371 FILLER_14_156
*1372 FILLER_14_163
*1373 FILLER_14_171
*1374 FILLER_14_178
*1375 FILLER_14_185
*1376 FILLER_14_192
*1377 FILLER_14_199
*1378 FILLER_14_206
*1379 FILLER_14_21
*1380 FILLER_14_213
*1381 FILLER_14_220
*1382 FILLER_14_227
*1383 FILLER_14_234
*1384 FILLER_14_239
*1385 FILLER_14_246
*1386 FILLER_14_250
*1387 FILLER_14_266
*1388 FILLER_14_274
*1389 FILLER_14_276
*1390 FILLER_14_28
*1391 FILLER_14_289
*1392 FILLER_14_296
*1393 FILLER_14_303
*1394 FILLER_14_310
*1395 FILLER_14_317
*1396 FILLER_14_324
*1397 FILLER_14_331
*1398 FILLER_14_338
*1399 FILLER_14_345
*1400 FILLER_14_35
*1401 FILLER_14_42
*1402 FILLER_14_49
*1403 FILLER_14_68
*1404 FILLER_14_7
*1405 FILLER_14_70
*1406 FILLER_15_0
*1407 FILLER_15_108
*1408 FILLER_15_112
*1409 FILLER_15_117
*1410 FILLER_15_124
*1411 FILLER_15_131
*1412 FILLER_15_138
*1413 FILLER_15_14
*1414 FILLER_15_150
*1415 FILLER_15_162
*1416 FILLER_15_169
*1417 FILLER_15_176
*1418 FILLER_15_183
*1419 FILLER_15_190
*1420 FILLER_15_197
*1421 FILLER_15_201
*1422 FILLER_15_21
*1423 FILLER_15_211
*1424 FILLER_15_218
*1425 FILLER_15_225
*1426 FILLER_15_229
*1427 FILLER_15_234
*1428 FILLER_15_244
*1429 FILLER_15_251
*1430 FILLER_15_258
*1431 FILLER_15_262
*1432 FILLER_15_268
*1433 FILLER_15_275
*1434 FILLER_15_279
*1435 FILLER_15_28
*1436 FILLER_15_285
*1437 FILLER_15_309
*1438 FILLER_15_340
*1439 FILLER_15_35
*1440 FILLER_15_42
*1441 FILLER_15_67
*1442 FILLER_15_7
*1443 FILLER_15_74
*1444 FILLER_15_89
*1445 FILLER_15_96
*1446 FILLER_15_98
*1447 FILLER_16_0
*1448 FILLER_16_103
*1449 FILLER_16_110
*1450 FILLER_16_117
*1451 FILLER_16_124
*1452 FILLER_16_136
*1453 FILLER_16_14
*1454 FILLER_16_142
*1455 FILLER_16_146
*1456 FILLER_16_160
*1457 FILLER_16_166
*1458 FILLER_16_173
*1459 FILLER_16_180
*1460 FILLER_16_187
*1461 FILLER_16_189
*1462 FILLER_16_21
*1463 FILLER_16_217
*1464 FILLER_16_224
*1465 FILLER_16_260
*1466 FILLER_16_267
*1467 FILLER_16_274
*1468 FILLER_16_28
*1469 FILLER_16_281
*1470 FILLER_16_306
*1471 FILLER_16_337
*1472 FILLER_16_344
*1473 FILLER_16_346
*1474 FILLER_16_35
*1475 FILLER_16_68
*1476 FILLER_16_7
*1477 FILLER_16_75
*1478 FILLER_16_82
*1479 FILLER_16_89
*1480 FILLER_16_96
*1481 FILLER_17_0
*1482 FILLER_17_106
*1483 FILLER_17_113
*1484 FILLER_17_14
*1485 FILLER_17_141
*1486 FILLER_17_148
*1487 FILLER_17_156
*1488 FILLER_17_184
*1489 FILLER_17_191
*1490 FILLER_17_199
*1491 FILLER_17_207
*1492 FILLER_17_21
*1493 FILLER_17_214
*1494 FILLER_17_221
*1495 FILLER_17_228
*1496 FILLER_17_235
*1497 FILLER_17_250
*1498 FILLER_17_257
*1499 FILLER_17_28
*1500 FILLER_17_288
*1501 FILLER_17_295
*1502 FILLER_17_299
*1503 FILLER_17_309
*1504 FILLER_17_313
*1505 FILLER_17_323
*1506 FILLER_17_330
*1507 FILLER_17_337
*1508 FILLER_17_344
*1509 FILLER_17_346
*1510 FILLER_17_35
*1511 FILLER_17_39
*1512 FILLER_17_45
*1513 FILLER_17_52
*1514 FILLER_17_56
*1515 FILLER_17_62
*1516 FILLER_17_7
*1517 FILLER_17_71
*1518 FILLER_17_78
*1519 FILLER_17_82
*1520 FILLER_18_0
*1521 FILLER_18_122
*1522 FILLER_18_14
*1523 FILLER_18_150
*1524 FILLER_18_157
*1525 FILLER_18_164
*1526 FILLER_18_171
*1527 FILLER_18_178
*1528 FILLER_18_182
*1529 FILLER_18_21
*1530 FILLER_18_216
*1531 FILLER_18_218
*1532 FILLER_18_223
*1533 FILLER_18_241
*1534 FILLER_18_245
*1535 FILLER_18_250
*1536 FILLER_18_265
*1537 FILLER_18_28
*1538 FILLER_18_280
*1539 FILLER_18_287
*1540 FILLER_18_294
*1541 FILLER_18_300
*1542 FILLER_18_304
*1543 FILLER_18_310
*1544 FILLER_18_317
*1545 FILLER_18_328
*1546 FILLER_18_335
*1547 FILLER_18_342
*1548 FILLER_18_346
*1549 FILLER_18_35
*1550 FILLER_18_42
*1551 FILLER_18_49
*1552 FILLER_18_7
*1553 FILLER_18_81
*1554 FILLER_18_85
*1555 FILLER_19_0
*1556 FILLER_19_108
*1557 FILLER_19_115
*1558 FILLER_19_122
*1559 FILLER_19_129
*1560 FILLER_19_136
*1561 FILLER_19_14
*1562 FILLER_19_143
*1563 FILLER_19_149
*1564 FILLER_19_163
*1565 FILLER_19_173
*1566 FILLER_19_180
*1567 FILLER_19_187
*1568 FILLER_19_193
*1569 FILLER_19_200
*1570 FILLER_19_206
*1571 FILLER_19_208
*1572 FILLER_19_21
*1573 FILLER_19_218
*1574 FILLER_19_225
*1575 FILLER_19_232
*1576 FILLER_19_239
*1577 FILLER_19_246
*1578 FILLER_19_253
*1579 FILLER_19_260
*1580 FILLER_19_264
*1581 FILLER_19_271
*1582 FILLER_19_278
*1583 FILLER_19_28
*1584 FILLER_19_285
*1585 FILLER_19_297
*1586 FILLER_19_309
*1587 FILLER_19_316
*1588 FILLER_19_345
*1589 FILLER_19_35
*1590 FILLER_19_42
*1591 FILLER_19_49
*1592 FILLER_19_63
*1593 FILLER_19_7
*1594 FILLER_19_73
*1595 FILLER_19_80
*1596 FILLER_19_87
*1597 FILLER_19_99
*1598 FILLER_1_0
*1599 FILLER_1_100
*1600 FILLER_1_102
*1601 FILLER_1_106
*1602 FILLER_1_113
*1603 FILLER_1_120
*1604 FILLER_1_14
*1605 FILLER_1_157
*1606 FILLER_1_21
*1607 FILLER_1_28
*1608 FILLER_1_346
*1609 FILLER_1_35
*1610 FILLER_1_42
*1611 FILLER_1_49
*1612 FILLER_1_56
*1613 FILLER_1_63
*1614 FILLER_1_67
*1615 FILLER_1_7
*1616 FILLER_1_80
*1617 FILLER_1_93
*1618 FILLER_20_0
*1619 FILLER_20_102
*1620 FILLER_20_109
*1621 FILLER_20_116
*1622 FILLER_20_123
*1623 FILLER_20_130
*1624 FILLER_20_137
*1625 FILLER_20_139
*1626 FILLER_20_14
*1627 FILLER_20_167
*1628 FILLER_20_173
*1629 FILLER_20_180
*1630 FILLER_20_187
*1631 FILLER_20_194
*1632 FILLER_20_196
*1633 FILLER_20_21
*1634 FILLER_20_224
*1635 FILLER_20_231
*1636 FILLER_20_238
*1637 FILLER_20_245
*1638 FILLER_20_249
*1639 FILLER_20_255
*1640 FILLER_20_272
*1641 FILLER_20_279
*1642 FILLER_20_28
*1643 FILLER_20_287
*1644 FILLER_20_294
*1645 FILLER_20_305
*1646 FILLER_20_312
*1647 FILLER_20_317
*1648 FILLER_20_32
*1649 FILLER_20_324
*1650 FILLER_20_331
*1651 FILLER_20_338
*1652 FILLER_20_342
*1653 FILLER_20_61
*1654 FILLER_20_63
*1655 FILLER_20_7
*1656 FILLER_20_74
*1657 FILLER_20_81
*1658 FILLER_20_88
*1659 FILLER_20_95
*1660 FILLER_21_0
*1661 FILLER_21_104
*1662 FILLER_21_111
*1663 FILLER_21_115
*1664 FILLER_21_122
*1665 FILLER_21_129
*1666 FILLER_21_136
*1667 FILLER_21_14
*1668 FILLER_21_143
*1669 FILLER_21_154
*1670 FILLER_21_160
*1671 FILLER_21_167
*1672 FILLER_21_174
*1673 FILLER_21_184
*1674 FILLER_21_191
*1675 FILLER_21_198
*1676 FILLER_21_205
*1677 FILLER_21_21
*1678 FILLER_21_212
*1679 FILLER_21_219
*1680 FILLER_21_226
*1681 FILLER_21_232
*1682 FILLER_21_242
*1683 FILLER_21_249
*1684 FILLER_21_251
*1685 FILLER_21_279
*1686 FILLER_21_28
*1687 FILLER_21_286
*1688 FILLER_21_288
*1689 FILLER_21_298
*1690 FILLER_21_305
*1691 FILLER_21_307
*1692 FILLER_21_335
*1693 FILLER_21_342
*1694 FILLER_21_35
*1695 FILLER_21_37
*1696 FILLER_21_69
*1697 FILLER_21_7
*1698 FILLER_21_76
*1699 FILLER_21_83
*1700 FILLER_21_90
*1701 FILLER_21_97
*1702 FILLER_22_0
*1703 FILLER_22_102
*1704 FILLER_22_109
*1705 FILLER_22_126
*1706 FILLER_22_133
*1707 FILLER_22_14
*1708 FILLER_22_140
*1709 FILLER_22_147
*1710 FILLER_22_154
*1711 FILLER_22_161
*1712 FILLER_22_168
*1713 FILLER_22_175
*1714 FILLER_22_190
*1715 FILLER_22_21
*1716 FILLER_22_217
*1717 FILLER_22_221
*1718 FILLER_22_249
*1719 FILLER_22_256
*1720 FILLER_22_261
*1721 FILLER_22_268
*1722 FILLER_22_275
*1723 FILLER_22_28
*1724 FILLER_22_282
*1725 FILLER_22_289
*1726 FILLER_22_296
*1727 FILLER_22_306
*1728 FILLER_22_308
*1729 FILLER_22_336
*1730 FILLER_22_338
*1731 FILLER_22_35
*1732 FILLER_22_42
*1733 FILLER_22_46
*1734 FILLER_22_51
*1735 FILLER_22_58
*1736 FILLER_22_65
*1737 FILLER_22_7
*1738 FILLER_22_72
*1739 FILLER_22_88
*1740 FILLER_22_95
*1741 FILLER_23_0
*1742 FILLER_23_102
*1743 FILLER_23_106
*1744 FILLER_23_139
*1745 FILLER_23_14
*1746 FILLER_23_146
*1747 FILLER_23_174
*1748 FILLER_23_181
*1749 FILLER_23_188
*1750 FILLER_23_195
*1751 FILLER_23_197
*1752 FILLER_23_21
*1753 FILLER_23_230
*1754 FILLER_23_237
*1755 FILLER_23_244
*1756 FILLER_23_251
*1757 FILLER_23_258
*1758 FILLER_23_274
*1759 FILLER_23_28
*1760 FILLER_23_284
*1761 FILLER_23_291
*1762 FILLER_23_298
*1763 FILLER_23_305
*1764 FILLER_23_312
*1765 FILLER_23_318
*1766 FILLER_23_325
*1767 FILLER_23_332
*1768 FILLER_23_35
*1769 FILLER_23_42
*1770 FILLER_23_49
*1771 FILLER_23_56
*1772 FILLER_23_63
*1773 FILLER_23_67
*1774 FILLER_23_7
*1775 FILLER_23_81
*1776 FILLER_23_88
*1777 FILLER_23_95
*1778 FILLER_24_0
*1779 FILLER_24_114
*1780 FILLER_24_126
*1781 FILLER_24_133
*1782 FILLER_24_14
*1783 FILLER_24_140
*1784 FILLER_24_166
*1785 FILLER_24_175
*1786 FILLER_24_182
*1787 FILLER_24_189
*1788 FILLER_24_193
*1789 FILLER_24_199
*1790 FILLER_24_206
*1791 FILLER_24_21
*1792 FILLER_24_212
*1793 FILLER_24_219
*1794 FILLER_24_226
*1795 FILLER_24_233
*1796 FILLER_24_240
*1797 FILLER_24_244
*1798 FILLER_24_250
*1799 FILLER_24_257
*1800 FILLER_24_264
*1801 FILLER_24_266
*1802 FILLER_24_272
*1803 FILLER_24_276
*1804 FILLER_24_28
*1805 FILLER_24_292
*1806 FILLER_24_298
*1807 FILLER_24_305
*1808 FILLER_24_312
*1809 FILLER_24_319
*1810 FILLER_24_326
*1811 FILLER_24_333
*1812 FILLER_24_337
*1813 FILLER_24_35
*1814 FILLER_24_42
*1815 FILLER_24_49
*1816 FILLER_24_56
*1817 FILLER_24_60
*1818 FILLER_24_67
*1819 FILLER_24_7
*1820 FILLER_24_74
*1821 FILLER_25_0
*1822 FILLER_25_104
*1823 FILLER_25_111
*1824 FILLER_25_118
*1825 FILLER_25_125
*1826 FILLER_25_132
*1827 FILLER_25_136
*1828 FILLER_25_14
*1829 FILLER_25_150
*1830 FILLER_25_157
*1831 FILLER_25_164
*1832 FILLER_25_171
*1833 FILLER_25_178
*1834 FILLER_25_183
*1835 FILLER_25_195
*1836 FILLER_25_202
*1837 FILLER_25_209
*1838 FILLER_25_21
*1839 FILLER_25_216
*1840 FILLER_25_223
*1841 FILLER_25_230
*1842 FILLER_25_232
*1843 FILLER_25_242
*1844 FILLER_25_249
*1845 FILLER_25_256
*1846 FILLER_25_262
*1847 FILLER_25_269
*1848 FILLER_25_28
*1849 FILLER_25_282
*1850 FILLER_25_317
*1851 FILLER_25_346
*1852 FILLER_25_35
*1853 FILLER_25_42
*1854 FILLER_25_49
*1855 FILLER_25_56
*1856 FILLER_25_58
*1857 FILLER_25_64
*1858 FILLER_25_7
*1859 FILLER_25_71
*1860 FILLER_25_78
*1861 FILLER_25_97
*1862 FILLER_26_0
*1863 FILLER_26_106
*1864 FILLER_26_113
*1865 FILLER_26_120
*1866 FILLER_26_127
*1867 FILLER_26_14
*1868 FILLER_26_156
*1869 FILLER_26_163
*1870 FILLER_26_170
*1871 FILLER_26_177
*1872 FILLER_26_181
*1873 FILLER_26_187
*1874 FILLER_26_21
*1875 FILLER_26_218
*1876 FILLER_26_225
*1877 FILLER_26_227
*1878 FILLER_26_255
*1879 FILLER_26_262
*1880 FILLER_26_269
*1881 FILLER_26_28
*1882 FILLER_26_298
*1883 FILLER_26_305
*1884 FILLER_26_312
*1885 FILLER_26_316
*1886 FILLER_26_335
*1887 FILLER_26_35
*1888 FILLER_26_42
*1889 FILLER_26_7
*1890 FILLER_26_76
*1891 FILLER_26_78
*1892 FILLER_27_0
*1893 FILLER_27_102
*1894 FILLER_27_109
*1895 FILLER_27_117
*1896 FILLER_27_124
*1897 FILLER_27_14
*1898 FILLER_27_159
*1899 FILLER_27_166
*1900 FILLER_27_173
*1901 FILLER_27_180
*1902 FILLER_27_187
*1903 FILLER_27_194
*1904 FILLER_27_200
*1905 FILLER_27_209
*1906 FILLER_27_21
*1907 FILLER_27_216
*1908 FILLER_27_223
*1909 FILLER_27_230
*1910 FILLER_27_238
*1911 FILLER_27_245
*1912 FILLER_27_249
*1913 FILLER_27_255
*1914 FILLER_27_257
*1915 FILLER_27_262
*1916 FILLER_27_268
*1917 FILLER_27_275
*1918 FILLER_27_28
*1919 FILLER_27_280
*1920 FILLER_27_287
*1921 FILLER_27_294
*1922 FILLER_27_299
*1923 FILLER_27_306
*1924 FILLER_27_313
*1925 FILLER_27_346
*1926 FILLER_27_35
*1927 FILLER_27_42
*1928 FILLER_27_53
*1929 FILLER_27_55
*1930 FILLER_27_60
*1931 FILLER_27_67
*1932 FILLER_27_7
*1933 FILLER_27_74
*1934 FILLER_27_81
*1935 FILLER_27_88
*1936 FILLER_27_95
*1937 FILLER_28_0
*1938 FILLER_28_103
*1939 FILLER_28_105
*1940 FILLER_28_119
*1941 FILLER_28_125
*1942 FILLER_28_132
*1943 FILLER_28_136
*1944 FILLER_28_14
*1945 FILLER_28_141
*1946 FILLER_28_153
*1947 FILLER_28_155
*1948 FILLER_28_165
*1949 FILLER_28_173
*1950 FILLER_28_175
*1951 FILLER_28_185
*1952 FILLER_28_192
*1953 FILLER_28_194
*1954 FILLER_28_21
*1955 FILLER_28_227
*1956 FILLER_28_234
*1957 FILLER_28_250
*1958 FILLER_28_257
*1959 FILLER_28_28
*1960 FILLER_28_286
*1961 FILLER_28_293
*1962 FILLER_28_300
*1963 FILLER_28_307
*1964 FILLER_28_314
*1965 FILLER_28_334
*1966 FILLER_28_338
*1967 FILLER_28_35
*1968 FILLER_28_42
*1969 FILLER_28_50
*1970 FILLER_28_58
*1971 FILLER_28_62
*1972 FILLER_28_68
*1973 FILLER_28_7
*1974 FILLER_28_75
*1975 FILLER_28_82
*1976 FILLER_28_89
*1977 FILLER_28_96
*1978 FILLER_29_0
*1979 FILLER_29_101
*1980 FILLER_29_108
*1981 FILLER_29_136
*1982 FILLER_29_14
*1983 FILLER_29_140
*1984 FILLER_29_162
*1985 FILLER_29_169
*1986 FILLER_29_198
*1987 FILLER_29_205
*1988 FILLER_29_21
*1989 FILLER_29_212
*1990 FILLER_29_219
*1991 FILLER_29_226
*1992 FILLER_29_260
*1993 FILLER_29_267
*1994 FILLER_29_274
*1995 FILLER_29_28
*1996 FILLER_29_281
*1997 FILLER_29_288
*1998 FILLER_29_295
*1999 FILLER_29_302
*2000 FILLER_29_306
*2001 FILLER_29_310
*2002 FILLER_29_315
*2003 FILLER_29_322
*2004 FILLER_29_328
*2005 FILLER_29_335
*2006 FILLER_29_35
*2007 FILLER_29_39
*2008 FILLER_29_68
*2009 FILLER_29_7
*2010 FILLER_29_75
*2011 FILLER_29_82
*2012 FILLER_29_86
*2013 FILLER_2_0
*2014 FILLER_2_105
*2015 FILLER_2_131
*2016 FILLER_2_139
*2017 FILLER_2_14
*2018 FILLER_2_146
*2019 FILLER_2_148
*2020 FILLER_2_21
*2021 FILLER_2_234
*2022 FILLER_2_28
*2023 FILLER_2_289
*2024 FILLER_2_35
*2025 FILLER_2_42
*2026 FILLER_2_49
*2027 FILLER_2_56
*2028 FILLER_2_65
*2029 FILLER_2_7
*2030 FILLER_2_77
*2031 FILLER_30_0
*2032 FILLER_30_110
*2033 FILLER_30_118
*2034 FILLER_30_125
*2035 FILLER_30_127
*2036 FILLER_30_132
*2037 FILLER_30_139
*2038 FILLER_30_14
*2039 FILLER_30_146
*2040 FILLER_30_174
*2041 FILLER_30_181
*2042 FILLER_30_188
*2043 FILLER_30_195
*2044 FILLER_30_202
*2045 FILLER_30_21
*2046 FILLER_30_214
*2047 FILLER_30_221
*2048 FILLER_30_228
*2049 FILLER_30_235
*2050 FILLER_30_237
*2051 FILLER_30_242
*2052 FILLER_30_249
*2053 FILLER_30_256
*2054 FILLER_30_263
*2055 FILLER_30_277
*2056 FILLER_30_28
*2057 FILLER_30_284
*2058 FILLER_30_291
*2059 FILLER_30_321
*2060 FILLER_30_328
*2061 FILLER_30_335
*2062 FILLER_30_35
*2063 FILLER_30_42
*2064 FILLER_30_49
*2065 FILLER_30_56
*2066 FILLER_30_63
*2067 FILLER_30_7
*2068 FILLER_30_70
*2069 FILLER_30_77
*2070 FILLER_31_0
*2071 FILLER_31_101
*2072 FILLER_31_108
*2073 FILLER_31_115
*2074 FILLER_31_119
*2075 FILLER_31_139
*2076 FILLER_31_14
*2077 FILLER_31_146
*2078 FILLER_31_153
*2079 FILLER_31_160
*2080 FILLER_31_167
*2081 FILLER_31_174
*2082 FILLER_31_181
*2083 FILLER_31_185
*2084 FILLER_31_191
*2085 FILLER_31_198
*2086 FILLER_31_202
*2087 FILLER_31_21
*2088 FILLER_31_235
*2089 FILLER_31_242
*2090 FILLER_31_249
*2091 FILLER_31_256
*2092 FILLER_31_263
*2093 FILLER_31_270
*2094 FILLER_31_272
*2095 FILLER_31_28
*2096 FILLER_31_282
*2097 FILLER_31_289
*2098 FILLER_31_306
*2099 FILLER_31_334
*2100 FILLER_31_341
*2101 FILLER_31_35
*2102 FILLER_31_42
*2103 FILLER_31_46
*2104 FILLER_31_51
*2105 FILLER_31_58
*2106 FILLER_31_62
*2107 FILLER_31_7
*2108 FILLER_32_0
*2109 FILLER_32_101
*2110 FILLER_32_108
*2111 FILLER_32_115
*2112 FILLER_32_117
*2113 FILLER_32_14
*2114 FILLER_32_150
*2115 FILLER_32_157
*2116 FILLER_32_164
*2117 FILLER_32_171
*2118 FILLER_32_202
*2119 FILLER_32_206
*2120 FILLER_32_21
*2121 FILLER_32_225
*2122 FILLER_32_232
*2123 FILLER_32_239
*2124 FILLER_32_246
*2125 FILLER_32_253
*2126 FILLER_32_257
*2127 FILLER_32_268
*2128 FILLER_32_28
*2129 FILLER_32_296
*2130 FILLER_32_313
*2131 FILLER_32_320
*2132 FILLER_32_322
*2133 FILLER_32_328
*2134 FILLER_32_335
*2135 FILLER_32_35
*2136 FILLER_32_7
*2137 FILLER_32_74
*2138 FILLER_32_94
*2139 FILLER_33_0
*2140 FILLER_33_106
*2141 FILLER_33_115
*2142 FILLER_33_122
*2143 FILLER_33_124
*2144 FILLER_33_133
*2145 FILLER_33_139
*2146 FILLER_33_14
*2147 FILLER_33_160
*2148 FILLER_33_167
*2149 FILLER_33_200
*2150 FILLER_33_207
*2151 FILLER_33_21
*2152 FILLER_33_214
*2153 FILLER_33_221
*2154 FILLER_33_225
*2155 FILLER_33_240
*2156 FILLER_33_28
*2157 FILLER_33_281
*2158 FILLER_33_288
*2159 FILLER_33_295
*2160 FILLER_33_302
*2161 FILLER_33_306
*2162 FILLER_33_318
*2163 FILLER_33_346
*2164 FILLER_33_35
*2165 FILLER_33_42
*2166 FILLER_33_49
*2167 FILLER_33_56
*2168 FILLER_33_63
*2169 FILLER_33_67
*2170 FILLER_33_7
*2171 FILLER_33_73
*2172 FILLER_33_78
*2173 FILLER_33_85
*2174 FILLER_33_92
*2175 FILLER_33_99
*2176 FILLER_34_0
*2177 FILLER_34_127
*2178 FILLER_34_134
*2179 FILLER_34_14
*2180 FILLER_34_168
*2181 FILLER_34_175
*2182 FILLER_34_21
*2183 FILLER_34_212
*2184 FILLER_34_219
*2185 FILLER_34_253
*2186 FILLER_34_257
*2187 FILLER_34_272
*2188 FILLER_34_276
*2189 FILLER_34_28
*2190 FILLER_34_287
*2191 FILLER_34_294
*2192 FILLER_34_301
*2193 FILLER_34_308
*2194 FILLER_34_314
*2195 FILLER_34_320
*2196 FILLER_34_328
*2197 FILLER_34_335
*2198 FILLER_34_35
*2199 FILLER_34_42
*2200 FILLER_34_49
*2201 FILLER_34_56
*2202 FILLER_34_63
*2203 FILLER_34_7
*2204 FILLER_34_70
*2205 FILLER_34_77
*2206 FILLER_34_84
*2207 FILLER_34_91
*2208 FILLER_34_98
*2209 FILLER_35_11
*2210 FILLER_35_122
*2211 FILLER_35_129
*2212 FILLER_35_136
*2213 FILLER_35_162
*2214 FILLER_35_169
*2215 FILLER_35_173
*2216 FILLER_35_18
*2217 FILLER_35_181
*2218 FILLER_35_206
*2219 FILLER_35_213
*2220 FILLER_35_220
*2221 FILLER_35_227
*2222 FILLER_35_240
*2223 FILLER_35_247
*2224 FILLER_35_25
*2225 FILLER_35_257
*2226 FILLER_35_264
*2227 FILLER_35_271
*2228 FILLER_35_278
*2229 FILLER_35_285
*2230 FILLER_35_292
*2231 FILLER_35_294
*2232 FILLER_35_32
*2233 FILLER_35_332
*2234 FILLER_35_39
*2235 FILLER_35_4
*2236 FILLER_35_46
*2237 FILLER_35_48
*2238 FILLER_35_53
*2239 FILLER_35_60
*2240 FILLER_35_67
*2241 FILLER_35_74
*2242 FILLER_35_81
*2243 FILLER_35_85
*2244 FILLER_36_0
*2245 FILLER_36_120
*2246 FILLER_36_124
*2247 FILLER_36_14
*2248 FILLER_36_141
*2249 FILLER_36_148
*2250 FILLER_36_155
*2251 FILLER_36_162
*2252 FILLER_36_164
*2253 FILLER_36_171
*2254 FILLER_36_197
*2255 FILLER_36_204
*2256 FILLER_36_21
*2257 FILLER_36_211
*2258 FILLER_36_218
*2259 FILLER_36_222
*2260 FILLER_36_229
*2261 FILLER_36_236
*2262 FILLER_36_243
*2263 FILLER_36_247
*2264 FILLER_36_28
*2265 FILLER_36_289
*2266 FILLER_36_306
*2267 FILLER_36_312
*2268 FILLER_36_346
*2269 FILLER_36_35
*2270 FILLER_36_42
*2271 FILLER_36_7
*2272 FILLER_36_80
*2273 FILLER_36_84
*2274 FILLER_37_0
*2275 FILLER_37_111
*2276 FILLER_37_14
*2277 FILLER_37_148
*2278 FILLER_37_155
*2279 FILLER_37_162
*2280 FILLER_37_166
*2281 FILLER_37_171
*2282 FILLER_37_178
*2283 FILLER_37_182
*2284 FILLER_37_191
*2285 FILLER_37_198
*2286 FILLER_37_205
*2287 FILLER_37_21
*2288 FILLER_37_212
*2289 FILLER_37_245
*2290 FILLER_37_252
*2291 FILLER_37_256
*2292 FILLER_37_267
*2293 FILLER_37_272
*2294 FILLER_37_278
*2295 FILLER_37_28
*2296 FILLER_37_285
*2297 FILLER_37_292
*2298 FILLER_37_299
*2299 FILLER_37_306
*2300 FILLER_37_310
*2301 FILLER_37_316
*2302 FILLER_37_320
*2303 FILLER_37_331
*2304 FILLER_37_338
*2305 FILLER_37_35
*2306 FILLER_37_39
*2307 FILLER_37_67
*2308 FILLER_37_7
*2309 FILLER_37_96
*2310 FILLER_38_0
*2311 FILLER_38_14
*2312 FILLER_38_155
*2313 FILLER_38_168
*2314 FILLER_38_175
*2315 FILLER_38_179
*2316 FILLER_38_186
*2317 FILLER_38_190
*2318 FILLER_38_198
*2319 FILLER_38_205
*2320 FILLER_38_21
*2321 FILLER_38_214
*2322 FILLER_38_221
*2323 FILLER_38_232
*2324 FILLER_38_239
*2325 FILLER_38_246
*2326 FILLER_38_253
*2327 FILLER_38_260
*2328 FILLER_38_267
*2329 FILLER_38_274
*2330 FILLER_38_28
*2331 FILLER_38_281
*2332 FILLER_38_288
*2333 FILLER_38_295
*2334 FILLER_38_302
*2335 FILLER_38_309
*2336 FILLER_38_316
*2337 FILLER_38_323
*2338 FILLER_38_330
*2339 FILLER_38_337
*2340 FILLER_38_35
*2341 FILLER_38_42
*2342 FILLER_38_44
*2343 FILLER_38_49
*2344 FILLER_38_56
*2345 FILLER_38_7
*2346 FILLER_39_0
*2347 FILLER_39_107
*2348 FILLER_39_109
*2349 FILLER_39_126
*2350 FILLER_39_136
*2351 FILLER_39_138
*2352 FILLER_39_14
*2353 FILLER_39_178
*2354 FILLER_39_185
*2355 FILLER_39_192
*2356 FILLER_39_196
*2357 FILLER_39_21
*2358 FILLER_39_224
*2359 FILLER_39_231
*2360 FILLER_39_238
*2361 FILLER_39_245
*2362 FILLER_39_252
*2363 FILLER_39_259
*2364 FILLER_39_270
*2365 FILLER_39_277
*2366 FILLER_39_28
*2367 FILLER_39_284
*2368 FILLER_39_291
*2369 FILLER_39_301
*2370 FILLER_39_308
*2371 FILLER_39_317
*2372 FILLER_39_331
*2373 FILLER_39_35
*2374 FILLER_39_42
*2375 FILLER_39_49
*2376 FILLER_39_7
*2377 FILLER_39_78
*2378 FILLER_3_0
*2379 FILLER_3_112
*2380 FILLER_3_123
*2381 FILLER_3_138
*2382 FILLER_3_14
*2383 FILLER_3_145
*2384 FILLER_3_21
*2385 FILLER_3_222
*2386 FILLER_3_243
*2387 FILLER_3_261
*2388 FILLER_3_28
*2389 FILLER_3_282
*2390 FILLER_3_337
*2391 FILLER_3_341
*2392 FILLER_3_35
*2393 FILLER_3_42
*2394 FILLER_3_49
*2395 FILLER_3_7
*2396 FILLER_40_0
*2397 FILLER_40_14
*2398 FILLER_40_171
*2399 FILLER_40_178
*2400 FILLER_40_185
*2401 FILLER_40_192
*2402 FILLER_40_196
*2403 FILLER_40_21
*2404 FILLER_40_226
*2405 FILLER_40_228
*2406 FILLER_40_234
*2407 FILLER_40_238
*2408 FILLER_40_245
*2409 FILLER_40_28
*2410 FILLER_40_317
*2411 FILLER_40_345
*2412 FILLER_40_35
*2413 FILLER_40_42
*2414 FILLER_40_7
*2415 FILLER_41_0
*2416 FILLER_41_14
*2417 FILLER_41_146
*2418 FILLER_41_193
*2419 FILLER_41_21
*2420 FILLER_41_221
*2421 FILLER_41_252
*2422 FILLER_41_28
*2423 FILLER_41_284
*2424 FILLER_41_290
*2425 FILLER_41_297
*2426 FILLER_41_304
*2427 FILLER_41_306
*2428 FILLER_41_344
*2429 FILLER_41_346
*2430 FILLER_41_35
*2431 FILLER_41_39
*2432 FILLER_41_7
*2433 FILLER_42_0
*2434 FILLER_42_14
*2435 FILLER_42_146
*2436 FILLER_42_148
*2437 FILLER_42_185
*2438 FILLER_42_192
*2439 FILLER_42_205
*2440 FILLER_42_21
*2441 FILLER_42_249
*2442 FILLER_42_28
*2443 FILLER_42_294
*2444 FILLER_42_301
*2445 FILLER_42_7
*2446 FILLER_43_0
*2447 FILLER_43_14
*2448 FILLER_43_156
*2449 FILLER_43_21
*2450 FILLER_43_229
*2451 FILLER_43_23
*2452 FILLER_43_302
*2453 FILLER_43_309
*2454 FILLER_43_316
*2455 FILLER_43_326
*2456 FILLER_43_330
*2457 FILLER_43_7
*2458 FILLER_4_0
*2459 FILLER_4_100
*2460 FILLER_4_107
*2461 FILLER_4_114
*2462 FILLER_4_14
*2463 FILLER_4_147
*2464 FILLER_4_149
*2465 FILLER_4_190
*2466 FILLER_4_199
*2467 FILLER_4_21
*2468 FILLER_4_215
*2469 FILLER_4_239
*2470 FILLER_4_253
*2471 FILLER_4_28
*2472 FILLER_4_304
*2473 FILLER_4_315
*2474 FILLER_4_329
*2475 FILLER_4_336
*2476 FILLER_4_343
*2477 FILLER_4_35
*2478 FILLER_4_42
*2479 FILLER_4_46
*2480 FILLER_4_7
*2481 FILLER_4_82
*2482 FILLER_4_89
*2483 FILLER_5_0
*2484 FILLER_5_101
*2485 FILLER_5_108
*2486 FILLER_5_112
*2487 FILLER_5_122
*2488 FILLER_5_124
*2489 FILLER_5_129
*2490 FILLER_5_136
*2491 FILLER_5_14
*2492 FILLER_5_143
*2493 FILLER_5_150
*2494 FILLER_5_157
*2495 FILLER_5_163
*2496 FILLER_5_170
*2497 FILLER_5_172
*2498 FILLER_5_178
*2499 FILLER_5_184
*2500 FILLER_5_191
*2501 FILLER_5_198
*2502 FILLER_5_21
*2503 FILLER_5_210
*2504 FILLER_5_214
*2505 FILLER_5_219
*2506 FILLER_5_237
*2507 FILLER_5_263
*2508 FILLER_5_28
*2509 FILLER_5_318
*2510 FILLER_5_325
*2511 FILLER_5_332
*2512 FILLER_5_339
*2513 FILLER_5_346
*2514 FILLER_5_35
*2515 FILLER_5_42
*2516 FILLER_5_49
*2517 FILLER_5_53
*2518 FILLER_5_64
*2519 FILLER_5_7
*2520 FILLER_5_78
*2521 FILLER_5_85
*2522 FILLER_5_89
*2523 FILLER_5_94
*2524 FILLER_6_0
*2525 FILLER_6_105
*2526 FILLER_6_112
*2527 FILLER_6_119
*2528 FILLER_6_126
*2529 FILLER_6_133
*2530 FILLER_6_14
*2531 FILLER_6_140
*2532 FILLER_6_147
*2533 FILLER_6_151
*2534 FILLER_6_158
*2535 FILLER_6_165
*2536 FILLER_6_172
*2537 FILLER_6_183
*2538 FILLER_6_195
*2539 FILLER_6_202
*2540 FILLER_6_209
*2541 FILLER_6_21
*2542 FILLER_6_216
*2543 FILLER_6_254
*2544 FILLER_6_261
*2545 FILLER_6_28
*2546 FILLER_6_298
*2547 FILLER_6_303
*2548 FILLER_6_310
*2549 FILLER_6_317
*2550 FILLER_6_324
*2551 FILLER_6_331
*2552 FILLER_6_338
*2553 FILLER_6_345
*2554 FILLER_6_35
*2555 FILLER_6_42
*2556 FILLER_6_49
*2557 FILLER_6_56
*2558 FILLER_6_63
*2559 FILLER_6_7
*2560 FILLER_6_70
*2561 FILLER_6_77
*2562 FILLER_6_84
*2563 FILLER_6_91
*2564 FILLER_6_98
*2565 FILLER_7_0
*2566 FILLER_7_118
*2567 FILLER_7_125
*2568 FILLER_7_127
*2569 FILLER_7_133
*2570 FILLER_7_14
*2571 FILLER_7_140
*2572 FILLER_7_147
*2573 FILLER_7_154
*2574 FILLER_7_188
*2575 FILLER_7_195
*2576 FILLER_7_202
*2577 FILLER_7_206
*2578 FILLER_7_21
*2579 FILLER_7_214
*2580 FILLER_7_216
*2581 FILLER_7_267
*2582 FILLER_7_274
*2583 FILLER_7_276
*2584 FILLER_7_28
*2585 FILLER_7_280
*2586 FILLER_7_286
*2587 FILLER_7_293
*2588 FILLER_7_298
*2589 FILLER_7_305
*2590 FILLER_7_312
*2591 FILLER_7_319
*2592 FILLER_7_326
*2593 FILLER_7_333
*2594 FILLER_7_340
*2595 FILLER_7_35
*2596 FILLER_7_42
*2597 FILLER_7_49
*2598 FILLER_7_56
*2599 FILLER_7_63
*2600 FILLER_7_7
*2601 FILLER_7_73
*2602 FILLER_7_80
*2603 FILLER_7_91
*2604 FILLER_7_98
*2605 FILLER_8_0
*2606 FILLER_8_139
*2607 FILLER_8_14
*2608 FILLER_8_154
*2609 FILLER_8_156
*2610 FILLER_8_193
*2611 FILLER_8_199
*2612 FILLER_8_206
*2613 FILLER_8_21
*2614 FILLER_8_213
*2615 FILLER_8_217
*2616 FILLER_8_222
*2617 FILLER_8_254
*2618 FILLER_8_261
*2619 FILLER_8_268
*2620 FILLER_8_28
*2621 FILLER_8_316
*2622 FILLER_8_323
*2623 FILLER_8_330
*2624 FILLER_8_337
*2625 FILLER_8_344
*2626 FILLER_8_346
*2627 FILLER_8_35
*2628 FILLER_8_42
*2629 FILLER_8_49
*2630 FILLER_8_7
*2631 FILLER_9_0
*2632 FILLER_9_100
*2633 FILLER_9_115
*2634 FILLER_9_127
*2635 FILLER_9_14
*2636 FILLER_9_155
*2637 FILLER_9_162
*2638 FILLER_9_166
*2639 FILLER_9_171
*2640 FILLER_9_175
*2641 FILLER_9_185
*2642 FILLER_9_192
*2643 FILLER_9_199
*2644 FILLER_9_206
*2645 FILLER_9_21
*2646 FILLER_9_213
*2647 FILLER_9_217
*2648 FILLER_9_231
*2649 FILLER_9_238
*2650 FILLER_9_245
*2651 FILLER_9_252
*2652 FILLER_9_265
*2653 FILLER_9_272
*2654 FILLER_9_28
*2655 FILLER_9_291
*2656 FILLER_9_296
*2657 FILLER_9_303
*2658 FILLER_9_310
*2659 FILLER_9_317
*2660 FILLER_9_324
*2661 FILLER_9_331
*2662 FILLER_9_338
*2663 FILLER_9_345
*2664 FILLER_9_35
*2665 FILLER_9_39
*2666 FILLER_9_7
*2667 FILLER_9_77
*2668 FILLER_9_84
*2669 FILLER_9_89
*2670 FILLER_9_96
*2671 _0551_
*2672 _0552_
*2673 _0553_
*2674 _0554_
*2675 _0555_
*2676 _0556_
*2677 _0557_
*2678 _0558_
*2679 _0559_
*2680 _0560_
*2681 _0561_
*2682 _0562_
*2683 _0563_
*2684 _0564_
*2685 _0565_
*2686 _0566_
*2687 _0567_
*2688 _0568_
*2689 _0569_
*2690 _0570_
*2691 _0571_
*2692 _0572_
*2693 _0573_
*2694 _0574_
*2695 _0575_
*2696 _0576_
*2697 _0577_
*2698 _0578_
*2699 _0579_
*2700 _0580_
*2701 _0581_
*2702 _0582_
*2703 _0583_
*2704 _0584_
*2705 _0585_
*2706 _0586_
*2707 _0587_
*2708 _0588_
*2709 _0589_
*2710 _0590_
*2711 _0591_
*2712 _0592_
*2713 _0593_
*2714 _0594_
*2715 _0595_
*2716 _0596_
*2717 _0597_
*2718 _0598_
*2719 _0599_
*2720 _0600_
*2721 _0601_
*2722 _0602_
*2723 _0603_
*2724 _0604_
*2725 _0605_
*2726 _0606_
*2727 _0607_
*2728 _0608_
*2729 _0609_
*2730 _0610_
*2731 _0611_
*2732 _0612_
*2733 _0613_
*2734 _0614_
*2735 _0615_
*2736 _0616_
*2737 _0617_
*2738 _0618_
*2739 _0619_
*2740 _0620_
*2741 _0621_
*2742 _0622_
*2743 _0623_
*2744 _0624_
*2745 _0625_
*2746 _0626_
*2747 _0627_
*2748 _0628_
*2749 _0629_
*2750 _0630_
*2751 _0631_
*2752 _0632_
*2753 _0633_
*2754 _0634_
*2755 _0635_
*2756 _0636_
*2757 _0637_
*2758 _0638_
*2759 _0639_
*2760 _0640_
*2761 _0641_
*2762 _0642_
*2763 _0643_
*2764 _0644_
*2765 _0645_
*2766 _0646_
*2767 _0647_
*2768 _0648_
*2769 _0649_
*2770 _0650_
*2771 _0651_
*2772 _0652_
*2773 _0653_
*2774 _0654_
*2775 _0655_
*2776 _0656_
*2777 _0657_
*2778 _0658_
*2779 _0659_
*2780 _0660_
*2781 _0661_
*2782 _0662_
*2783 _0663_
*2784 _0664_
*2785 _0665_
*2786 _0666_
*2787 _0667_
*2788 _0668_
*2789 _0669_
*2790 _0670_
*2791 _0671_
*2792 _0672_
*2793 _0673_
*2794 _0674_
*2795 _0675_
*2796 _0676_
*2797 _0677_
*2798 _0678_
*2799 _0679_
*2800 _0680_
*2801 _0681_
*2802 _0682_
*2803 _0683_
*2804 _0684_
*2805 _0685_
*2806 _0686_
*2807 _0687_
*2808 _0688_
*2809 _0689_
*2810 _0690_
*2811 _0691_
*2812 _0692_
*2813 _0693_
*2814 _0694_
*2815 _0695_
*2816 _0696_
*2817 _0697_
*2818 _0698_
*2819 _0699_
*2820 _0700_
*2821 _0701_
*2822 _0702_
*2823 _0703_
*2824 _0704_
*2825 _0705_
*2826 _0706_
*2827 _0707_
*2828 _0708_
*2829 _0709_
*2830 _0710_
*2831 _0711_
*2832 _0712_
*2833 _0713_
*2834 _0714_
*2835 _0715_
*2836 _0716_
*2837 _0717_
*2838 _0718_
*2839 _0719_
*2840 _0720_
*2841 _0721_
*2842 _0722_
*2843 _0723_
*2844 _0724_
*2845 _0725_
*2846 _0726_
*2847 _0727_
*2848 _0728_
*2849 _0729_
*2850 _0730_
*2851 _0731_
*2852 _0732_
*2853 _0733_
*2854 _0734_
*2855 _0735_
*2856 _0736_
*2857 _0737_
*2858 _0738_
*2859 _0739_
*2860 _0740_
*2861 _0741_
*2862 _0742_
*2863 _0743_
*2864 _0744_
*2865 _0745_
*2866 _0746_
*2867 _0747_
*2868 _0748_
*2869 _0749_
*2870 _0750_
*2871 _0751_
*2872 _0752_
*2873 _0753_
*2874 _0754_
*2875 _0755_
*2876 _0756_
*2877 _0757_
*2878 _0758_
*2879 _0759_
*2880 _0760_
*2881 _0761_
*2882 _0762_
*2883 _0763_
*2884 _0764_
*2885 _0765_
*2886 _0766_
*2887 _0767_
*2888 _0768_
*2889 _0769_
*2890 _0770_
*2891 _0771_
*2892 _0772_
*2893 _0773_
*2894 _0774_
*2895 _0775_
*2896 _0776_
*2897 _0777_
*2898 _0778_
*2899 _0779_
*2900 _0780_
*2901 _0781_
*2902 _0782_
*2903 _0783_
*2904 _0784_
*2905 _0785_
*2906 _0786_
*2907 _0787_
*2908 _0788_
*2909 _0789_
*2910 _0790_
*2911 _0791_
*2912 _0792_
*2913 _0793_
*2914 _0794_
*2915 _0795_
*2916 _0796_
*2917 _0797_
*2918 _0798_
*2919 _0799_
*2920 _0800_
*2921 _0801_
*2922 _0802_
*2923 _0803_
*2924 _0804_
*2925 _0805_
*2926 _0806_
*2927 _0807_
*2928 _0808_
*2929 _0809_
*2930 _0810_
*2931 _0811_
*2932 _0812_
*2933 _0813_
*2934 _0814_
*2935 _0815_
*2936 _0816_
*2937 _0817_
*2938 _0818_
*2939 _0819_
*2940 _0820_
*2941 _0821_
*2942 _0822_
*2943 _0823_
*2944 _0824_
*2945 _0825_
*2946 _0826_
*2947 _0827_
*2948 _0828_
*2949 _0829_
*2950 _0830_
*2951 _0831_
*2952 _0832_
*2953 _0833_
*2954 _0834_
*2955 _0835_
*2956 _0836_
*2957 _0837_
*2958 _0838_
*2959 _0839_
*2960 _0840_
*2961 _0841_
*2962 _0842_
*2963 _0843_
*2964 _0844_
*2965 _0845_
*2966 _0846_
*2967 _0847_
*2968 _0848_
*2969 _0849_
*2970 _0850_
*2971 _0851_
*2972 _0852_
*2973 _0853_
*2974 _0854_
*2975 _0855_
*2976 _0856_
*2977 _0857_
*2978 _0858_
*2979 _0859_
*2980 _0860_
*2981 _0861_
*2982 _0862_
*2983 _0863_
*2984 _0864_
*2985 _0865_
*2986 _0866_
*2987 _0867_
*2988 _0868_
*2989 _0869_
*2990 _0870_
*2991 _0871_
*2992 _0872_
*2993 _0873_
*2994 _0874_
*2995 _0875_
*2996 _0876_
*2997 _0877_
*2998 _0878_
*2999 _0879_
*3000 _0880_
*3001 _0881_
*3002 _0882_
*3003 _0883_
*3004 _0884_
*3005 _0885_
*3006 _0886_
*3007 _0887_
*3008 _0888_
*3009 _0889_
*3010 _0890_
*3011 _0891_
*3012 _0892_
*3013 _0893_
*3014 _0894_
*3015 _0895_
*3016 _0896_
*3017 _0897_
*3018 _0898_
*3019 _0899_
*3020 _0900_
*3021 _0901_
*3022 _0902_
*3023 _0903_
*3024 _0904_
*3025 _0905_
*3026 _0906_
*3027 _0907_
*3028 _0908_
*3029 _0909_
*3030 _0910_
*3031 _0911_
*3032 _0912_
*3033 _0913_
*3034 _0914_
*3035 _0915_
*3036 _0916_
*3037 _0917_
*3038 _0918_
*3039 _0919_
*3040 _0920_
*3041 _0921_
*3042 _0922_
*3043 _0923_
*3044 _0924_
*3045 _0925_
*3046 _0926_
*3047 _0927_
*3048 _0928_
*3049 _0929_
*3050 _0930_
*3051 _0931_
*3052 _0932_
*3053 _0933_
*3054 _0934_
*3055 _0935_
*3056 _0936_
*3057 _0937_
*3058 _0938_
*3059 _0939_
*3060 _0940_
*3061 _0941_
*3062 _0942_
*3063 _0943_
*3064 _0944_
*3065 _0945_
*3066 _0946_
*3067 _0947_
*3068 _0948_
*3069 _0949_
*3070 _0950_
*3071 _0951_
*3072 _0952_
*3073 _0953_
*3074 _0954_
*3075 _0955_
*3076 _0956_
*3077 _0957_
*3078 _0958_
*3079 _0959_
*3080 _0960_
*3081 _0961_
*3082 _0962_
*3083 _0963_
*3084 _0964_
*3085 _0965_
*3086 _0966_
*3087 _0967_
*3088 _0968_
*3089 _0969_
*3090 _0970_
*3091 _0971_
*3092 _0972_
*3093 _0973_
*3094 _0974_
*3095 _0975_
*3096 _0976_
*3097 _0977_
*3098 _0978_
*3099 _0979_
*3100 _0980_
*3101 _0981_
*3102 _0982_
*3103 _0983_
*3104 _0984_
*3105 _0985_
*3106 _0986_
*3107 _0987_
*3108 _0988_
*3109 _0989_
*3110 _0990_
*3111 _0991_
*3112 _0992_
*3113 _0993_
*3114 _0994_
*3115 _0995_
*3116 _0996_
*3117 _0997_
*3118 _0998_
*3119 _0999_
*3120 _1000_
*3121 _1001_
*3122 _1001__378
*3123 _1002_
*3124 _1002__349
*3125 _1003_
*3126 _1003__347
*3127 _1004_
*3128 _1004__345
*3129 _1005_
*3130 _1005__343
*3131 _1006_
*3132 _1006__341
*3133 _1007_
*3134 _1007__339
*3135 _1008_
*3136 _1008__337
*3137 _1009_
*3138 _1009__335
*3139 _1010_
*3140 _1010__333
*3141 _1011_
*3142 _1011__331
*3143 _1012_
*3144 _1012__329
*3145 _1013_
*3146 _1013__327
*3147 _1014_
*3148 _1014__325
*3149 _1015_
*3150 _1015__323
*3151 _1016_
*3152 _1016__321
*3153 _1017_
*3154 _1017__319
*3155 _1018_
*3156 _1018__317
*3157 _1019_
*3158 _1019__315
*3159 _1020_
*3160 _1020__313
*3161 _1021_
*3162 _1021__311
*3163 _1022_
*3164 _1022__309
*3165 _1023_
*3166 _1023__307
*3167 _1024_
*3168 _1024__305
*3169 _1025_
*3170 _1025__303
*3171 _1026_
*3172 _1026__301
*3173 _1027_
*3174 _1027__299
*3175 _1028_
*3176 _1028__297
*3177 _1029_
*3178 _1029__295
*3179 _1030_
*3180 _1030__293
*3181 _1031_
*3182 _1031__291
*3183 _1032_
*3184 _1032__289
*3185 _1033_
*3186 _1033__287
*3187 _1034_
*3188 _1034__285
*3189 _1035_
*3190 _1035__283
*3191 _1036_
*3192 _1036__282
*3193 _1037_
*3194 _1037__280
*3195 _1038_
*3196 _1038__278
*3197 _1039_
*3198 _1039__377
*3199 _1040_
*3200 _1040__375
*3201 _1041_
*3202 _1041__373
*3203 _1042_
*3204 _1042__371
*3205 _1043_
*3206 _1043__369
*3207 _1044_
*3208 _1044__367
*3209 _1045_
*3210 _1045__365
*3211 _1046_
*3212 _1046__363
*3213 _1047_
*3214 _1047__361
*3215 _1048_
*3216 _1048__359
*3217 _1049_
*3218 _1049__357
*3219 _1050_
*3220 _1050__355
*3221 _1051_
*3222 _1051__353
*3223 _1052_
*3224 _1052__351
*3225 _1053_
*3226 _1053__348
*3227 _1054_
*3228 _1054__344
*3229 _1055_
*3230 _1055__340
*3231 _1056_
*3232 _1056__336
*3233 _1057_
*3234 _1057__332
*3235 _1058_
*3236 _1058__328
*3237 _1059_
*3238 _1059__324
*3239 _1060_
*3240 _1060__320
*3241 _1061_
*3242 _1061__316
*3243 _1062_
*3244 _1062__312
*3245 _1063_
*3246 _1063__308
*3247 _1064_
*3248 _1064__304
*3249 _1065_
*3250 _1065__300
*3251 _1066_
*3252 _1066__296
*3253 _1067_
*3254 _1067__292
*3255 _1068_
*3256 _1068__288
*3257 _1069_
*3258 _1069__284
*3259 _1070_
*3260 _1070__279
*3261 _1071_
*3262 _1071__376
*3263 _1072_
*3264 _1072__372
*3265 _1073_
*3266 _1073__368
*3267 _1074_
*3268 _1074__364
*3269 _1075_
*3270 _1075__360
*3271 _1076_
*3272 _1076__356
*3273 _1077_
*3274 _1077__352
*3275 _1078_
*3276 _1078__346
*3277 _1079_
*3278 _1079__338
*3279 _1080_
*3280 _1080__330
*3281 _1081_
*3282 _1081__322
*3283 _1082_
*3284 _1082__314
*3285 _1083_
*3286 _1083__306
*3287 _1084_
*3288 _1084__298
*3289 _1085_
*3290 _1085__290
*3291 _1086_
*3292 _1086__281
*3293 _1087_
*3294 _1087__374
*3295 _1088_
*3296 _1088__366
*3297 _1089_
*3298 _1089__358
*3299 _1090_
*3300 _1090__350
*3301 _1091_
*3302 _1091__334
*3303 _1092_
*3304 _1092__318
*3305 _1093_
*3306 _1093__302
*3307 _1094_
*3308 _1094__286
*3309 _1095_
*3310 _1095__370
*3311 _1096_
*3312 _1096__354
*3313 _1097_
*3314 _1097__326
*3315 _1098_
*3316 _1098__294
*3317 _1099_
*3318 _1099__362
*3319 _1100_
*3320 _1100__310
*3321 _1101_
*3322 _1101__342
*3323 _1207_
*3324 clkbuf_0_clk_i
*3325 clkbuf_4_0_0_clk_i
*3326 clkbuf_4_10_0_clk_i
*3327 clkbuf_4_11_0_clk_i
*3328 clkbuf_4_12_0_clk_i
*3329 clkbuf_4_13_0_clk_i
*3330 clkbuf_4_14_0_clk_i
*3331 clkbuf_4_15_0_clk_i
*3332 clkbuf_4_1_0_clk_i
*3333 clkbuf_4_2_0_clk_i
*3334 clkbuf_4_3_0_clk_i
*3335 clkbuf_4_4_0_clk_i
*3336 clkbuf_4_5_0_clk_i
*3337 clkbuf_4_6_0_clk_i
*3338 clkbuf_4_7_0_clk_i
*3339 clkbuf_4_8_0_clk_i
*3340 clkbuf_4_9_0_clk_i
*3341 clkload0
*3342 clkload1
*3343 clkload10
*3344 clkload2
*3345 clkload3
*3346 clkload4
*3347 clkload5
*3348 clkload6
*3349 clkload7
*3350 clkload8
*3351 clkload9
*3352 fanout179
*3353 fanout180
*3354 fanout181
*3355 fanout182
*3356 fanout183
*3357 fanout184
*3358 fanout185
*3359 fanout186
*3360 fanout187
*3361 fanout188
*3362 fanout189
*3363 fanout190
*3364 fanout191
*3365 fanout192
*3366 fanout193
*3367 fanout194
*3368 fanout195
*3369 fanout196
*3370 fanout197
*3371 fanout198
*3372 fanout199
*3373 fanout200
*3374 fanout201
*3375 fanout202
*3376 fanout203
*3377 fanout204
*3378 fanout205
*3379 fanout206
*3380 fanout207
*3381 fanout208
*3382 fanout209
*3383 fanout210
*3384 fanout211
*3385 fanout212
*3386 fanout213
*3387 fanout214
*3388 fanout215
*3389 fanout216
*3390 fanout217
*3391 fanout218
*3392 fanout219
*3393 fanout220
*3394 fanout221
*3395 fanout222
*3396 fanout223
*3397 fanout224
*3398 fanout225
*3399 fanout226
*3400 fanout227
*3401 fanout228
*3402 fanout229
*3403 fanout230
*3404 fanout231
*3405 fanout232
*3406 fanout233
*3407 fanout234
*3408 fanout235
*3409 fanout236
*3410 fanout237
*3411 fanout238
*3412 fanout239
*3413 fanout240
*3414 fanout241
*3415 fanout242
*3416 fanout243
*3417 fanout244
*3418 fanout245
*3419 fanout246
*3420 fanout247
*3421 fanout248
*3422 fanout249
*3423 fanout250
*3424 fanout251
*3425 fanout252
*3426 fanout253
*3427 fanout254
*3428 fanout255
*3429 fanout256
*3430 fanout257
*3431 fanout258
*3432 fanout259
*3433 fanout260
*3434 fanout261
*3435 fanout262
*3436 fanout263
*3437 fanout264
*3438 fanout265
*3439 fanout266
*3440 fanout267
*3441 fanout268
*3442 fanout269
*3443 fanout270
*3444 fanout271
*3445 fanout272
*3446 fanout273
*3447 fanout274
*3448 hold379
*3449 hold380
*3450 hold381
*3451 hold382
*3452 hold383
*3453 hold384
*3454 hold385
*3455 hold386
*3456 hold387
*3457 hold388
*3458 hold389
*3459 hold390
*3460 hold391
*3461 hold392
*3462 hold393
*3463 hold394
*3464 hold395
*3465 hold396
*3466 hold397
*3467 hold398
*3468 hold399
*3469 hold400
*3470 hold401
*3471 hold402
*3472 hold403
*3473 hold404
*3474 hold405
*3475 hold406
*3476 hold407
*3477 hold408
*3478 hold409
*3479 hold410
*3480 hold411
*3481 hold412
*3482 hold413
*3483 hold414
*3484 hold415
*3485 hold416
*3486 hold417
*3487 hold418
*3488 hold419
*3489 hold420
*3490 hold421
*3491 hold422
*3492 hold423
*3493 hold424
*3494 hold425
*3495 hold426
*3496 hold427
*3497 hold428
*3498 hold429
*3499 hold430
*3500 hold431
*3501 hold432
*3502 hold433
*3503 hold434
*3504 hold435
*3505 hold436
*3506 hold437
*3507 hold438
*3508 hold439
*3509 hold440
*3510 hold441
*3511 hold442
*3512 hold443
*3513 hold444
*3514 hold445
*3515 hold446
*3516 hold447
*3517 hold448
*3518 hold449
*3519 hold450
*3520 hold451
*3521 hold452
*3522 hold453
*3523 hold454
*3524 hold455
*3525 hold456
*3526 hold457
*3527 hold458
*3528 hold459
*3529 hold460
*3530 hold461
*3531 hold462
*3532 hold463
*3533 hold464
*3534 hold465
*3535 hold466
*3536 hold467
*3537 hold468
*3538 hold469
*3539 hold470
*3540 hold471
*3541 hold472
*3542 hold473
*3543 hold474
*3544 hold475
*3545 hold476
*3546 hold477
*3547 hold478
*3548 hold479
*3549 hold480
*3550 hold481
*3551 input1
*3552 input10
*3553 input11
*3554 input12
*3555 input13
*3556 input14
*3557 input15
*3558 input16
*3559 input17
*3560 input18
*3561 input19
*3562 input2
*3563 input20
*3564 input21
*3565 input22
*3566 input23
*3567 input24
*3568 input25
*3569 input26
*3570 input27
*3571 input28
*3572 input29
*3573 input3
*3574 input30
*3575 input31
*3576 input32
*3577 input33
*3578 input34
*3579 input35
*3580 input36
*3581 input37
*3582 input38
*3583 input39
*3584 input4
*3585 input40
*3586 input41
*3587 input42
*3588 input43
*3589 input44
*3590 input45
*3591 input46
*3592 input47
*3593 input48
*3594 input49
*3595 input5
*3596 input50
*3597 input51
*3598 input52
*3599 input53
*3600 input54
*3601 input55
*3602 input56
*3603 input57
*3604 input58
*3605 input59
*3606 input6
*3607 input60
*3608 input61
*3609 input62
*3610 input63
*3611 input64
*3612 input65
*3613 input66
*3614 input67
*3615 input68
*3616 input69
*3617 input7
*3618 input70
*3619 input71
*3620 input72
*3621 input73
*3622 input74
*3623 input75
*3624 input76
*3625 input77
*3626 input8
*3627 input9
*3628 output100
*3629 output101
*3630 output102
*3631 output103
*3632 output104
*3633 output105
*3634 output106
*3635 output107
*3636 output108
*3637 output109
*3638 output110
*3639 output111
*3640 output112
*3641 output113
*3642 output114
*3643 output115
*3644 output116
*3645 output117
*3646 output118
*3647 output119
*3648 output120
*3649 output121
*3650 output122
*3651 output123
*3652 output124
*3653 output125
*3654 output126
*3655 output127
*3656 output128
*3657 output129
*3658 output130
*3659 output131
*3660 output132
*3661 output133
*3662 output134
*3663 output135
*3664 output136
*3665 output137
*3666 output138
*3667 output139
*3668 output140
*3669 output141
*3670 output142
*3671 output143
*3672 output144
*3673 output145
*3674 output146
*3675 output147
*3676 output148
*3677 output149
*3678 output150
*3679 output151
*3680 output152
*3681 output153
*3682 output154
*3683 output155
*3684 output156
*3685 output157
*3686 output158
*3687 output159
*3688 output160
*3689 output161
*3690 output162
*3691 output163
*3692 output164
*3693 output165
*3694 output166
*3695 output167
*3696 output168
*3697 output169
*3698 output170
*3699 output171
*3700 output172
*3701 output173
*3702 output174
*3703 output175
*3704 output176
*3705 output177
*3706 output178
*3707 output78
*3708 output79
*3709 output80
*3710 output81
*3711 output82
*3712 output83
*3713 output84
*3714 output85
*3715 output86
*3716 output87
*3717 output88
*3718 output89
*3719 output90
*3720 output91
*3721 output92
*3722 output93
*3723 output94
*3724 output95
*3725 output96
*3726 output97
*3727 output98
*3728 output99
*3729 peripherals_macro
*3730 peripherals_macro_275
*3731 peripherals_macro_276
*3732 peripherals_macro_277

*PORTS
clk_i I
gpio_dir[0] O
gpio_dir[10] O
gpio_dir[11] O
gpio_dir[12] O
gpio_dir[13] O
gpio_dir[14] O
gpio_dir[15] O
gpio_dir[16] O
gpio_dir[17] O
gpio_dir[18] O
gpio_dir[19] O
gpio_dir[1] O
gpio_dir[20] O
gpio_dir[21] O
gpio_dir[22] O
gpio_dir[23] O
gpio_dir[24] O
gpio_dir[25] O
gpio_dir[26] O
gpio_dir[27] O
gpio_dir[28] O
gpio_dir[29] O
gpio_dir[2] O
gpio_dir[30] O
gpio_dir[31] O
gpio_dir[3] O
gpio_dir[4] O
gpio_dir[5] O
gpio_dir[6] O
gpio_dir[7] O
gpio_dir[8] O
gpio_dir[9] O
gpio_in[0] I
gpio_in[10] I
gpio_in[11] I
gpio_in[12] I
gpio_in[13] I
gpio_in[14] I
gpio_in[15] I
gpio_in[16] I
gpio_in[17] I
gpio_in[18] I
gpio_in[19] I
gpio_in[1] I
gpio_in[20] I
gpio_in[21] I
gpio_in[22] I
gpio_in[23] I
gpio_in[24] I
gpio_in[25] I
gpio_in[26] I
gpio_in[27] I
gpio_in[28] I
gpio_in[29] I
gpio_in[2] I
gpio_in[30] I
gpio_in[31] I
gpio_in[3] I
gpio_in[4] I
gpio_in[5] I
gpio_in[6] I
gpio_in[7] I
gpio_in[8] I
gpio_in[9] I
gpio_out[0] O
gpio_out[10] O
gpio_out[11] O
gpio_out[12] O
gpio_out[13] O
gpio_out[14] O
gpio_out[15] O
gpio_out[16] O
gpio_out[17] O
gpio_out[18] O
gpio_out[19] O
gpio_out[1] O
gpio_out[20] O
gpio_out[21] O
gpio_out[22] O
gpio_out[23] O
gpio_out[24] O
gpio_out[25] O
gpio_out[26] O
gpio_out[27] O
gpio_out[28] O
gpio_out[29] O
gpio_out[2] O
gpio_out[30] O
gpio_out[31] O
gpio_out[3] O
gpio_out[4] O
gpio_out[5] O
gpio_out[6] O
gpio_out[7] O
gpio_out[8] O
gpio_out[9] O
rst_ni I
s_axil_araddr[0] I
s_axil_araddr[10] I
s_axil_araddr[11] I
s_axil_araddr[12] I
s_axil_araddr[13] I
s_axil_araddr[14] I
s_axil_araddr[15] I
s_axil_araddr[16] I
s_axil_araddr[17] I
s_axil_araddr[18] I
s_axil_araddr[19] I
s_axil_araddr[1] I
s_axil_araddr[20] I
s_axil_araddr[21] I
s_axil_araddr[22] I
s_axil_araddr[23] I
s_axil_araddr[24] I
s_axil_araddr[25] I
s_axil_araddr[26] I
s_axil_araddr[27] I
s_axil_araddr[28] I
s_axil_araddr[29] I
s_axil_araddr[2] I
s_axil_araddr[30] I
s_axil_araddr[31] I
s_axil_araddr[3] I
s_axil_araddr[4] I
s_axil_araddr[5] I
s_axil_araddr[6] I
s_axil_araddr[7] I
s_axil_araddr[8] I
s_axil_araddr[9] I
s_axil_arready O
s_axil_arvalid I
s_axil_awaddr[0] I
s_axil_awaddr[10] I
s_axil_awaddr[11] I
s_axil_awaddr[12] I
s_axil_awaddr[13] I
s_axil_awaddr[14] I
s_axil_awaddr[15] I
s_axil_awaddr[16] I
s_axil_awaddr[17] I
s_axil_awaddr[18] I
s_axil_awaddr[19] I
s_axil_awaddr[1] I
s_axil_awaddr[20] I
s_axil_awaddr[21] I
s_axil_awaddr[22] I
s_axil_awaddr[23] I
s_axil_awaddr[24] I
s_axil_awaddr[25] I
s_axil_awaddr[26] I
s_axil_awaddr[27] I
s_axil_awaddr[28] I
s_axil_awaddr[29] I
s_axil_awaddr[2] I
s_axil_awaddr[30] I
s_axil_awaddr[31] I
s_axil_awaddr[3] I
s_axil_awaddr[4] I
s_axil_awaddr[5] I
s_axil_awaddr[6] I
s_axil_awaddr[7] I
s_axil_awaddr[8] I
s_axil_awaddr[9] I
s_axil_awready O
s_axil_awvalid I
s_axil_bready I
s_axil_bresp[0] O
s_axil_bresp[1] O
s_axil_bvalid O
s_axil_rdata[0] O
s_axil_rdata[10] O
s_axil_rdata[11] O
s_axil_rdata[12] O
s_axil_rdata[13] O
s_axil_rdata[14] O
s_axil_rdata[15] O
s_axil_rdata[16] O
s_axil_rdata[17] O
s_axil_rdata[18] O
s_axil_rdata[19] O
s_axil_rdata[1] O
s_axil_rdata[20] O
s_axil_rdata[21] O
s_axil_rdata[22] O
s_axil_rdata[23] O
s_axil_rdata[24] O
s_axil_rdata[25] O
s_axil_rdata[26] O
s_axil_rdata[27] O
s_axil_rdata[28] O
s_axil_rdata[29] O
s_axil_rdata[2] O
s_axil_rdata[30] O
s_axil_rdata[31] O
s_axil_rdata[3] O
s_axil_rdata[4] O
s_axil_rdata[5] O
s_axil_rdata[6] O
s_axil_rdata[7] O
s_axil_rdata[8] O
s_axil_rdata[9] O
s_axil_rready I
s_axil_rresp[0] O
s_axil_rresp[1] O
s_axil_rvalid O
s_axil_wdata[0] I
s_axil_wdata[10] I
s_axil_wdata[11] I
s_axil_wdata[12] I
s_axil_wdata[13] I
s_axil_wdata[14] I
s_axil_wdata[15] I
s_axil_wdata[16] I
s_axil_wdata[17] I
s_axil_wdata[18] I
s_axil_wdata[19] I
s_axil_wdata[1] I
s_axil_wdata[20] I
s_axil_wdata[21] I
s_axil_wdata[22] I
s_axil_wdata[23] I
s_axil_wdata[24] I
s_axil_wdata[25] I
s_axil_wdata[26] I
s_axil_wdata[27] I
s_axil_wdata[28] I
s_axil_wdata[29] I
s_axil_wdata[2] I
s_axil_wdata[30] I
s_axil_wdata[31] I
s_axil_wdata[3] I
s_axil_wdata[4] I
s_axil_wdata[5] I
s_axil_wdata[6] I
s_axil_wdata[7] I
s_axil_wdata[8] I
s_axil_wdata[9] I
s_axil_wready O
s_axil_wstrb[0] I
s_axil_wstrb[1] I
s_axil_wstrb[2] I
s_axil_wstrb[3] I
s_axil_wvalid I

*D_NET *3 0.0162241
*CONN
*P clk_i I
*I *3324:A I *D sg13g2_buf_16
*CAP
1 clk_i 0.00484606
2 *3324:A 0
3 *3:26 0.000595769
4 *3:22 0.00326599
5 *3:18 0.00751628
6 *3:18 *3305:CLK 0
7 *3:18 *339:10 0
8 *3:18 *348:10 0
9 *3:18 *571:12 0
10 *3:18 *671:47 0
11 *3:18 *672:8 0
12 *3:18 *697:91 0
13 *3:18 *698:40 0
14 *3:18 *698:89 0
15 *3:18 *757:8 0
16 *3:18 *816:51 0
17 *3:18 *883:70 0
18 *3:18 *883:74 0
19 *3:18 *884:75 0
20 *3:18 *891:37 0
21 *3:18 *930:12 0
22 *3:18 *1164:42 0
23 *3:22 *735:27 0
24 *3:22 *739:28 0
25 *3:26 *697:11 0
26 *3:26 *872:76 0
27 *3:26 *878:59 0
28 *3:26 *888:53 0
*RES
1 clk_i *3:18 48.3997 
2 *3:18 *3:22 46.2753 
3 *3:22 *3:26 24.0582 
4 *3:26 *3324:A 40 
*END

*D_NET *4 0.00342165
*CONN
*P gpio_dir[0] O
*I *3707:X O *D sg13g2_buf_1
*CAP
1 gpio_dir[0] 0.000492125
2 *3707:X 0.000774662
3 *4:10 0.00126679
4 gpio_dir[0] gpio_dir[1] 0
5 gpio_dir[0] gpio_out[31] 0
6 *4:10 gpio_dir[1] 0
7 *4:10 gpio_dir[2] 0
8 *4:10 gpio_dir[3] 0
9 *4:10 gpio_dir[4] 0.000501973
10 *4:10 *15:10 0.000177246
11 *4:10 *743:54 0
12 *4:10 *754:62 0.000208857
*RES
1 *3707:X *4:10 48.24 
2 *4:10 gpio_dir[0] 24.1612 
*END

*D_NET *5 0.00411153
*CONN
*P gpio_dir[10] O
*I *3708:X O *D sg13g2_buf_1
*CAP
1 gpio_dir[10] 0.000593487
2 *3708:X 0.000765057
3 *5:10 0.00135854
4 gpio_dir[10] gpio_dir[11] 0
5 gpio_dir[10] gpio_dir[9] 0
6 *5:10 gpio_dir[18] 0
7 *5:10 gpio_dir[19] 0.000436079
8 *5:10 *8:10 8.0216e-05
9 *5:10 *10:16 0.000112689
10 *5:10 *35:10 0.00076546
*RES
1 *3708:X *5:10 48.7653 
2 *5:10 gpio_dir[10] 25.0264 
*END

*D_NET *6 0.00388657
*CONN
*P gpio_dir[11] O
*I *3709:X O *D sg13g2_buf_1
*CAP
1 gpio_dir[11] 0.00104631
2 *3709:X 0.000466792
3 *6:8 0.0015131
4 gpio_dir[11] gpio_dir[12] 0
5 gpio_dir[11] gpio_dir[9] 0
6 gpio_dir[11] *3633:A 6.12957e-05
7 gpio_dir[11] *29:10 0
8 gpio_dir[11] *30:10 0
9 gpio_dir[11] *31:10 8.0276e-05
10 gpio_dir[11] *32:10 0
11 *6:8 *8:10 0
12 *6:8 *9:8 0.0007188
13 gpio_dir[10] gpio_dir[11] 0
*RES
1 *3709:X *6:8 45.047 
2 *6:8 gpio_dir[11] 29.1361 
*END

*D_NET *7 0.00496808
*CONN
*P gpio_dir[12] O
*I *3710:X O *D sg13g2_buf_1
*CAP
1 gpio_dir[12] 0.000883939
2 *3710:X 0.000709439
3 *7:10 0.00159338
4 gpio_dir[12] gpio_dir[13] 0.000435376
5 gpio_dir[12] *32:10 0.000370649
6 *7:10 gpio_dir[23] 0.000176923
7 *7:10 gpio_dir[28] 0
8 *7:10 *14:10 0.000614504
9 *7:10 *34:10 0.00018387
10 gpio_dir[11] gpio_dir[12] 0
*RES
1 *3710:X *7:10 47.4675 
2 *7:10 gpio_dir[12] 28.5078 
*END

*D_NET *8 0.00399253
*CONN
*P gpio_dir[13] O
*I *3711:X O *D sg13g2_buf_1
*CAP
1 gpio_dir[13] 0.000986565
2 *3711:X 0.000469634
3 *8:10 0.0014562
4 gpio_dir[13] gpio_dir[14] 0
5 gpio_dir[13] *32:10 0
6 gpio_dir[13] *34:10 0
7 *8:10 gpio_dir[18] 1.54008e-05
8 *8:10 *10:16 0.000345425
9 *8:10 *726:58 0.000203714
10 gpio_dir[12] gpio_dir[13] 0.000435376
11 *5:10 *8:10 8.0216e-05
12 *6:8 *8:10 0
*RES
1 *3711:X *8:10 44.4393 
2 *8:10 gpio_dir[13] 28.7035 
*END

*D_NET *9 0.00555228
*CONN
*P gpio_dir[14] O
*I *3712:X O *D sg13g2_buf_1
*CAP
1 gpio_dir[14] 0.0010764
2 *3712:X 0.000359459
3 *9:8 0.00143586
4 gpio_dir[14] gpio_dir[15] 0
5 gpio_dir[14] *33:10 0.000273688
6 gpio_dir[14] *34:10 0.000241151
7 *9:8 *11:10 0.00115451
8 *9:8 *19:8 0.000292413
9 *9:8 *751:48 0
10 gpio_dir[13] gpio_dir[14] 0
11 *6:8 *9:8 0.0007188
*RES
1 *3712:X *9:8 46.283 
2 *9:8 gpio_dir[14] 29.8056 
*END

*D_NET *10 0.00455693
*CONN
*P gpio_dir[15] O
*I *3713:X O *D sg13g2_buf_1
*CAP
1 gpio_dir[15] 0.000908988
2 *3713:X 0.000599449
3 *10:16 0.00150844
4 gpio_dir[15] gpio_dir[16] 0.000500874
5 gpio_dir[15] *33:10 0.000468511
6 *10:16 gpio_dir[20] 0
7 *10:16 gpio_dir[21] 0
8 *10:16 *3708:A 0.000112558
9 *10:16 *726:58 0
10 *10:16 *1172:61 0
11 *10:16 *1174:68 0
12 gpio_dir[14] gpio_dir[15] 0
13 *5:10 *10:16 0.000112689
14 *8:10 *10:16 0.000345425
*RES
1 *3713:X *10:16 45.7989 
2 *10:16 gpio_dir[15] 28.9404 
*END

*D_NET *11 0.00596978
*CONN
*P gpio_dir[16] O
*I *3714:X O *D sg13g2_buf_1
*CAP
1 gpio_dir[16] 0.00107884
2 *3714:X 0.000350676
3 *11:10 0.00142951
4 gpio_dir[16] gpio_dir[17] 0
5 gpio_dir[16] *33:10 0
6 gpio_dir[16] *34:10 0
7 gpio_dir[16] *35:10 0.000144899
8 *11:10 gpio_dir[28] 4.75166e-05
9 *11:10 *13:10 0.00126296
10 *11:10 *751:48 0
11 gpio_dir[15] gpio_dir[16] 0.000500874
12 *9:8 *11:10 0.00115451
*RES
1 *3714:X *11:10 46.6023 
2 *11:10 gpio_dir[16] 30.0219 
*END

*D_NET *12 0.00394578
*CONN
*P gpio_dir[17] O
*I *3715:X O *D sg13g2_buf_1
*CAP
1 gpio_dir[17] 0.000820359
2 *3715:X 0.000404377
3 *12:10 0.00122474
4 gpio_dir[17] gpio_dir[18] 0.000436771
5 gpio_dir[17] *35:10 0.000372331
6 *12:10 gpio_dir[22] 0.000240328
7 *12:10 gpio_dir[23] 0
8 *12:10 *3715:A 4.77425e-05
9 *12:10 *14:10 0.000399133
10 gpio_dir[16] gpio_dir[17] 0
*RES
1 *3715:X *12:10 44.4393 
2 *12:10 gpio_dir[17] 28.0752 
*END

*D_NET *13 0.00578035
*CONN
*P gpio_dir[18] O
*I *3716:X O *D sg13g2_buf_1
*CAP
1 gpio_dir[18] 0.00112291
2 *3716:X 0.000614061
3 *13:10 0.00173697
4 gpio_dir[18] gpio_dir[19] 0
5 gpio_dir[18] *35:10 8.0216e-05
6 gpio_dir[18] *726:58 0.000139769
7 *13:10 gpio_dir[30] 7.94353e-05
8 *13:10 *24:10 0.000291858
9 *13:10 *1179:63 0
10 gpio_dir[17] gpio_dir[18] 0.000436771
11 *5:10 gpio_dir[18] 0
12 *8:10 gpio_dir[18] 1.54008e-05
13 *11:10 *13:10 0.00126296
*RES
1 *3716:X *13:10 47.313 
2 *13:10 gpio_dir[18] 30.2382 
*END

*D_NET *14 0.00543126
*CONN
*P gpio_dir[19] O
*I *3717:X O *D sg13g2_buf_1
*CAP
1 gpio_dir[19] 0.000831296
2 *3717:X 0.000464388
3 *14:10 0.00129568
4 gpio_dir[19] gpio_dir[20] 0.000501069
5 *14:10 gpio_dir[30] 0
6 *14:10 *21:10 0.000889111
7 *14:10 *22:10 0
8 gpio_dir[18] gpio_dir[19] 0
9 *5:10 gpio_dir[19] 0.000436079
10 *7:10 *14:10 0.000614504
11 *12:10 *14:10 0.000399133
*RES
1 *3717:X *14:10 47.313 
2 *14:10 gpio_dir[19] 28.2915 
*END

*D_NET *15 0.00286181
*CONN
*P gpio_dir[1] O
*I *3718:X O *D sg13g2_buf_1
*CAP
1 gpio_dir[1] 0.000940206
2 *3718:X 0.000290181
3 *15:10 0.00123039
4 gpio_dir[1] gpio_dir[2] 0
5 gpio_dir[1] gpio_out[31] 0
6 gpio_dir[1] *89:10 0.000111455
7 *15:10 gpio_dir[5] 0.000112333
8 *15:10 *26:10 0
9 gpio_dir[0] gpio_dir[1] 0
10 *4:10 gpio_dir[1] 0
11 *4:10 *15:10 0.000177246
*RES
1 *3718:X *15:10 43.0179 
2 *15:10 gpio_dir[1] 28.0546 
*END

*D_NET *16 0.00525251
*CONN
*P gpio_dir[20] O
*I *3719:X O *D sg13g2_buf_1
*CAP
1 gpio_dir[20] 0.00100987
2 *3719:X 0.000560202
3 *16:10 0.00157007
4 gpio_dir[20] gpio_dir[21] 0.000134415
5 gpio_dir[20] *3708:A 0
6 *16:10 *17:10 0.00147688
7 gpio_dir[19] gpio_dir[20] 0.000501069
8 *10:16 gpio_dir[20] 0
*RES
1 *3719:X *16:10 47.5602 
2 *16:10 gpio_dir[20] 29.4039 
*END

*D_NET *17 0.00612853
*CONN
*P gpio_dir[21] O
*I *3720:X O *D sg13g2_buf_1
*CAP
1 gpio_dir[21] 0.00109705
2 *3720:X 0.000445372
3 *17:10 0.00154242
4 gpio_dir[21] gpio_dir[22] 0
5 gpio_dir[21] *3708:A 0
6 gpio_dir[21] *1172:69 1.54008e-05
7 *17:10 *19:8 0.00136925
8 *17:10 *22:10 4.77425e-05
9 gpio_dir[20] gpio_dir[21] 0.000134415
10 *10:16 gpio_dir[21] 0
11 *16:10 *17:10 0.00147688
*RES
1 *3720:X *17:10 48.0855 
2 *17:10 gpio_dir[21] 29.373 
*END

*D_NET *18 0.00438035
*CONN
*P gpio_dir[22] O
*I *3721:X O *D sg13g2_buf_1
*CAP
1 gpio_dir[22] 0.00155486
2 *3721:X 0.00155486
3 gpio_dir[22] gpio_dir[23] 0
4 gpio_dir[22] *3715:A 0.000306887
5 gpio_dir[22] *788:8 4.77425e-05
6 gpio_dir[22] *1172:69 0.000499247
7 gpio_dir[22] *1173:44 0.000176427
8 gpio_dir[21] gpio_dir[22] 0
9 *12:10 gpio_dir[22] 0.000240328
*RES
1 *3721:X gpio_dir[22] 34.5642 
*END

*D_NET *19 0.00531791
*CONN
*P gpio_dir[23] O
*I *3722:X O *D sg13g2_buf_1
*CAP
1 gpio_dir[23] 0.00104557
2 *3722:X 0.000540454
3 *19:8 0.00158602
4 gpio_dir[23] gpio_dir[24] 0
5 gpio_dir[23] gpio_dir[25] 0.000307284
6 gpio_dir[22] gpio_dir[23] 0
7 *7:10 gpio_dir[23] 0.000176923
8 *9:8 *19:8 0.000292413
9 *12:10 gpio_dir[23] 0
10 *17:10 *19:8 0.00136925
*RES
1 *3722:X *19:8 47.2718 
2 *19:8 gpio_dir[23] 30.0837 
*END

*D_NET *20 0.00624185
*CONN
*P gpio_dir[24] O
*I *3723:X O *D sg13g2_buf_1
*CAP
1 gpio_dir[24] 0.00101347
2 *3723:X 0.000415818
3 *20:8 0.00142929
4 gpio_dir[24] gpio_dir[25] 0
5 gpio_dir[24] gpio_dir[26] 0.00114083
6 gpio_dir[24] gpio_dir[27] 0.00151446
7 gpio_dir[24] gpio_dir[29] 0
8 *20:8 *22:10 0
9 *20:8 *25:10 0.000727984
10 *20:8 *1186:53 0
11 gpio_dir[23] gpio_dir[24] 0
*RES
1 *3723:X *20:8 44.8616 
2 *20:8 gpio_dir[24] 32.8853 
*END

*D_NET *21 0.0043139
*CONN
*P gpio_dir[25] O
*I *3724:X O *D sg13g2_buf_1
*CAP
1 gpio_dir[25] 0.000784987
2 *3724:X 0.000773767
3 *21:10 0.00155875
4 gpio_dir[25] gpio_dir[26] 0
5 gpio_dir[25] gpio_dir[27] 0
6 gpio_dir[25] gpio_dir[28] 0
7 *21:10 *23:8 0
8 *21:10 *25:10 0
9 gpio_dir[23] gpio_dir[25] 0.000307284
10 gpio_dir[24] gpio_dir[25] 0
11 *14:10 *21:10 0.000889111
*RES
1 *3724:X *21:10 49.7541 
2 *21:10 gpio_dir[25] 26.6012 
*END

*D_NET *22 0.00485179
*CONN
*P gpio_dir[26] O
*I *3725:X O *D sg13g2_buf_1
*CAP
1 gpio_dir[26] 0.000739542
2 *3725:X 0.00062506
3 *22:10 0.0013646
4 gpio_dir[26] gpio_dir[27] 0
5 gpio_dir[26] gpio_dir[29] 0.000821812
6 *22:10 *3397:A 0
7 *22:10 *3717:A 0
8 *22:10 *3719:A 0.0001122
9 gpio_dir[24] gpio_dir[26] 0.00114083
10 gpio_dir[25] gpio_dir[26] 0
11 *14:10 *22:10 0
12 *17:10 *22:10 4.77425e-05
13 *20:8 *22:10 0
*RES
1 *3725:X *22:10 46.5096 
2 *22:10 gpio_dir[26] 29.4554 
*END

*D_NET *23 0.00588702
*CONN
*P gpio_dir[27] O
*I *3726:X O *D sg13g2_buf_1
*CAP
1 gpio_dir[27] 0.000989567
2 *3726:X 0.000414903
3 *23:8 0.00140447
4 gpio_dir[27] gpio_dir[28] 0
5 gpio_dir[27] gpio_dir[31] 0.00151571
6 *23:8 *3724:A 4.79124e-05
7 *23:8 *25:10 0
8 *23:8 *28:8 0
9 gpio_dir[24] gpio_dir[27] 0.00151446
10 gpio_dir[25] gpio_dir[27] 0
11 gpio_dir[26] gpio_dir[27] 0
12 *21:10 *23:8 0
*RES
1 *3726:X *23:8 44.0029 
2 *23:8 gpio_dir[27] 33.596 
*END

*D_NET *24 0.00457949
*CONN
*P gpio_dir[28] O
*I *3727:X O *D sg13g2_buf_1
*CAP
1 gpio_dir[28] 0.00109435
2 *3727:X 0.000402603
3 *24:10 0.00149696
4 gpio_dir[28] gpio_dir[29] 0
5 gpio_dir[28] gpio_dir[30] 0
6 gpio_dir[28] *1175:70 0.00017562
7 *24:10 *27:8 0.000939942
8 *24:10 *1184:46 0.000130635
9 gpio_dir[25] gpio_dir[28] 0
10 gpio_dir[27] gpio_dir[28] 0
11 *7:10 gpio_dir[28] 0
12 *11:10 gpio_dir[28] 4.75166e-05
13 *13:10 *24:10 0.000291858
*RES
1 *3727:X *24:10 45.6135 
2 *24:10 gpio_dir[28] 30.4545 
*END

*D_NET *25 0.00475666
*CONN
*P gpio_dir[29] O
*I *3728:X O *D sg13g2_buf_1
*CAP
1 gpio_dir[29] 0.00095072
2 *3728:X 0.000652709
3 *25:10 0.00160343
4 gpio_dir[29] gpio_dir[30] 0
5 *25:10 *3723:A 0
6 *25:10 *1186:53 0
7 gpio_dir[24] gpio_dir[29] 0
8 gpio_dir[26] gpio_dir[29] 0.000821812
9 gpio_dir[28] gpio_dir[29] 0
10 *20:8 *25:10 0.000727984
11 *21:10 *25:10 0
12 *23:8 *25:10 0
*RES
1 *3728:X *25:10 47.2203 
2 *25:10 gpio_dir[29] 30.2279 
*END

*D_NET *26 0.00273436
*CONN
*P gpio_dir[2] O
*I *3628:X O *D sg13g2_buf_1
*CAP
1 gpio_dir[2] 0.000867442
2 *3628:X 0.000380723
3 *26:10 0.00124816
4 gpio_dir[2] gpio_dir[3] 0
5 *26:10 gpio_dir[5] 0
6 *26:10 gpio_dir[8] 0
7 *26:10 *29:10 0
8 *26:10 *30:10 0.000238035
9 gpio_dir[1] gpio_dir[2] 0
10 *4:10 gpio_dir[2] 0
11 *15:10 *26:10 0
*RES
1 *3628:X *26:10 43.5753 
2 *26:10 gpio_dir[2] 27.622 
*END

*D_NET *27 0.00443713
*CONN
*P gpio_dir[30] O
*I *3629:X O *D sg13g2_buf_1
*CAP
1 gpio_dir[30] 0.00111037
2 *3629:X 0.000429049
3 *27:8 0.00153941
4 gpio_dir[30] gpio_dir[31] 0
5 gpio_dir[30] *3714:A 0.00020825
6 *27:8 *3717:A 0
7 *27:8 *907:80 0
8 *27:8 *1186:53 0.000130676
9 *27:8 *1189:47 0
10 gpio_dir[28] gpio_dir[30] 0
11 gpio_dir[29] gpio_dir[30] 0
12 *13:10 gpio_dir[30] 7.94353e-05
13 *14:10 gpio_dir[30] 0
14 *24:10 *27:8 0.000939942
*RES
1 *3629:X *27:8 45.2942 
2 *27:8 gpio_dir[30] 30.486 
*END

*D_NET *28 0.00429171
*CONN
*P gpio_dir[31] O
*I *3630:X O *D sg13g2_buf_1
*CAP
1 gpio_dir[31] 0.000996271
2 *3630:X 0.000391728
3 *28:8 0.001388
4 *28:8 *3630:A 0
5 gpio_dir[27] gpio_dir[31] 0.00151571
6 gpio_dir[30] gpio_dir[31] 0
7 *23:8 *28:8 0
*RES
1 *3630:X *28:8 44.429 
2 *28:8 gpio_dir[31] 32.8235 
*END

*D_NET *29 0.00301761
*CONN
*P gpio_dir[3] O
*I *3631:X O *D sg13g2_buf_1
*CAP
1 gpio_dir[3] 0.000595119
2 *3631:X 0.000671859
3 *29:10 0.00126698
4 gpio_dir[3] gpio_dir[4] 0
5 *29:10 gpio_dir[8] 0.000435816
6 *29:10 gpio_dir[9] 4.78356e-05
7 *29:10 *30:10 0
8 *29:10 *32:10 0
9 gpio_dir[11] *29:10 0
10 gpio_dir[2] gpio_dir[3] 0
11 *4:10 gpio_dir[3] 0
12 *26:10 *29:10 0
*RES
1 *3631:X *29:10 47.0349 
2 *29:10 gpio_dir[3] 25.0264 
*END

*D_NET *30 0.00409755
*CONN
*P gpio_dir[4] O
*I *3632:X O *D sg13g2_buf_1
*CAP
1 gpio_dir[4] 0.000758525
2 *3632:X 0.000572732
3 *30:10 0.00133126
4 gpio_dir[4] gpio_dir[5] 0.000567029
5 *30:10 *3633:A 4.7725e-05
6 *30:10 *31:10 8.0276e-05
7 *30:10 *743:54 0
8 gpio_dir[11] *30:10 0
9 gpio_dir[3] gpio_dir[4] 0
10 *4:10 gpio_dir[4] 0.000501973
11 *26:10 *30:10 0.000238035
12 *29:10 *30:10 0
*RES
1 *3632:X *30:10 45.7371 
2 *30:10 gpio_dir[4] 27.8589 
*END

*D_NET *31 0.00332007
*CONN
*P gpio_dir[5] O
*I *3633:X O *D sg13g2_buf_1
*CAP
1 gpio_dir[5] 0.000909754
2 *3633:X 0.000330325
3 *31:10 0.00124008
4 gpio_dir[5] gpio_dir[6] 0
5 gpio_dir[5] gpio_dir[8] 0
6 *31:10 *743:54 0
7 *31:10 *751:48 0
8 gpio_dir[11] *31:10 8.0276e-05
9 gpio_dir[4] gpio_dir[5] 0.000567029
10 *15:10 gpio_dir[5] 0.000112333
11 *26:10 gpio_dir[5] 0
12 *30:10 *31:10 8.0276e-05
*RES
1 *3633:X *31:10 43.3578 
2 *31:10 gpio_dir[5] 28.7035 
*END

*D_NET *32 0.00394396
*CONN
*P gpio_dir[6] O
*I *3634:X O *D sg13g2_buf_1
*CAP
1 gpio_dir[6] 0.000668992
2 *3634:X 0.000698085
3 *32:10 0.00136708
4 gpio_dir[6] gpio_dir[7] 0
5 gpio_dir[6] gpio_dir[8] 0
6 *32:10 *3179:RESET_B 0.000177164
7 *32:10 *3633:A 0.000107827
8 *32:10 *33:10 0.000554163
9 *32:10 *34:10 0
10 gpio_dir[11] *32:10 0
11 gpio_dir[12] *32:10 0.000370649
12 gpio_dir[13] *32:10 0
13 gpio_dir[5] gpio_dir[6] 0
14 *29:10 *32:10 0
*RES
1 *3634:X *32:10 47.7147 
2 *32:10 gpio_dir[6] 25.6753 
*END

*D_NET *33 0.00444581
*CONN
*P gpio_dir[7] O
*I *3635:X O *D sg13g2_buf_1
*CAP
1 gpio_dir[7] 0.000646637
2 *3635:X 0.000598017
3 *33:10 0.00124465
4 gpio_dir[7] gpio_dir[8] 0
5 *33:10 *35:10 0.000660141
6 gpio_dir[14] *33:10 0.000273688
7 gpio_dir[15] *33:10 0.000468511
8 gpio_dir[16] *33:10 0
9 gpio_dir[6] gpio_dir[7] 0
10 *32:10 *33:10 0.000554163
*RES
1 *3635:X *33:10 47.8383 
2 *33:10 gpio_dir[7] 25.459 
*END

*D_NET *34 0.00365487
*CONN
*P gpio_dir[8] O
*I *3636:X O *D sg13g2_buf_1
*CAP
1 gpio_dir[8] 0.000840189
2 *3636:X 0.000556826
3 *34:10 0.00139701
4 gpio_dir[8] gpio_dir[9] 0
5 *34:10 *3179:RESET_B 0
6 *34:10 *726:58 0
7 gpio_dir[13] *34:10 0
8 gpio_dir[14] *34:10 0.000241151
9 gpio_dir[16] *34:10 0
10 gpio_dir[5] gpio_dir[8] 0
11 gpio_dir[6] gpio_dir[8] 0
12 gpio_dir[7] gpio_dir[8] 0
13 *7:10 *34:10 0.00018387
14 *26:10 gpio_dir[8] 0
15 *29:10 gpio_dir[8] 0.000435816
16 *32:10 *34:10 0
*RES
1 *3636:X *34:10 45.5517 
2 *34:10 gpio_dir[8] 27.8383 
*END

*D_NET *35 0.00451883
*CONN
*P gpio_dir[9] O
*I *3637:X O *D sg13g2_buf_1
*CAP
1 gpio_dir[9] 0.000610384
2 *3637:X 0.000613592
3 *35:10 0.00122398
4 gpio_dir[10] gpio_dir[9] 0
5 gpio_dir[11] gpio_dir[9] 0
6 gpio_dir[16] *35:10 0.000144899
7 gpio_dir[17] *35:10 0.000372331
8 gpio_dir[18] *35:10 8.0216e-05
9 gpio_dir[8] gpio_dir[9] 0
10 *5:10 *35:10 0.00076546
11 *29:10 gpio_dir[9] 4.78356e-05
12 *33:10 *35:10 0.000660141
*RES
1 *3637:X *35:10 48.0546 
2 *35:10 gpio_dir[9] 25.2427 
*END

*D_NET *36 0.00452827
*CONN
*P gpio_in[0] I
*I *3456:A I *D sg13g2_dlygate4sd3_1
*CAP
1 gpio_in[0] 0.000825097
2 *3456:A 0.000605544
3 *36:11 0.00143064
4 *3456:A *3125:D 0
5 *3456:A *3454:A 0
6 *3456:A *3455:A 0.000566656
7 *3456:A *3574:A 0.000241847
8 *3456:A *399:22 1.54008e-05
9 *36:11 *3448:A 0
10 *36:11 *3471:A 0
11 *36:11 *38:9 0.000181192
12 *36:11 *58:9 0
13 *36:11 *65:9 0.000661887
*RES
1 gpio_in[0] *36:11 49.7026 
2 *36:11 *3456:A 26.8083 
*END

*D_NET *37 0.00293791
*CONN
*P gpio_in[10] I
*I *3493:A I *D sg13g2_dlygate4sd3_1
*CAP
1 gpio_in[10] 0.00136428
2 *3493:A 0.00136428
3 *3493:A *3475:A 0
4 *3493:A *3484:A 0
5 *3493:A *3496:A 0
6 *3493:A *3552:A 0
7 *3493:A *38:9 0
8 *3493:A *39:15 0
9 *3493:A *1076:16 0.000209348
*RES
1 gpio_in[10] *3493:A 32.5969 
*END

*D_NET *38 0.00455679
*CONN
*P gpio_in[11] I
*I *3468:A I *D sg13g2_dlygate4sd3_1
*CAP
1 gpio_in[11] 0.00113159
2 *3468:A 0.000392507
3 *38:9 0.0015241
4 *3468:A *3449:A 0
5 *3468:A *3471:A 0.000728381
6 *3468:A *3480:A 0.000599014
7 *38:9 *39:15 0
8 *38:9 *46:11 0
9 *38:9 *65:9 0
10 *38:9 *66:11 0
11 *3493:A *38:9 0
12 *36:11 *38:9 0.000181192
*RES
1 gpio_in[11] *38:9 30.2279 
2 *38:9 *3468:A 44.8616 
*END

*D_NET *39 0.0037759
*CONN
*P gpio_in[12] I
*I *3450:A I *D sg13g2_dlygate4sd3_1
*CAP
1 gpio_in[12] 0.00089688
2 *3450:A 0.000587334
3 *39:15 0.00148421
4 *3450:A *3459:A 0
5 *3450:A *3484:A 0.000273404
6 *3450:A *3499:A 0.000534068
7 *39:15 *3461:A 0
8 *39:15 *3475:A 0
9 *39:15 *42:9 0
10 *3493:A *39:15 0
11 *38:9 *39:15 0
*RES
1 gpio_in[12] *39:15 48.0237 
2 *39:15 *3450:A 25.7268 
*END

*D_NET *40 0.00388355
*CONN
*P gpio_in[13] I
*I *3461:A I *D sg13g2_dlygate4sd3_1
*CAP
1 gpio_in[13] 0.00173308
2 *3461:A 0.00173308
3 *3461:A *3469:A 0.000273273
4 *3461:A *3475:A 0
5 *3461:A *3479:A 0.00014412
6 *3461:A *3496:A 0
7 *3461:A *3552:A 0
8 *3461:A *1058:22 0
9 *39:15 *3461:A 0
*RES
1 gpio_in[13] *3461:A 36.0165 
*END

*D_NET *41 0.00316031
*CONN
*P gpio_in[14] I
*I *3469:A I *D sg13g2_dlygate4sd3_1
*CAP
1 gpio_in[14] 0.00144352
2 *3469:A 0.00144352
3 *3469:A *3488:A 0
4 *3469:A *42:9 0
5 *3469:A *1058:22 0
6 *3461:A *3469:A 0.000273273
*RES
1 gpio_in[14] *3469:A 32.9471 
*END

*D_NET *42 0.0034044
*CONN
*P gpio_in[15] I
*I *3465:A I *D sg13g2_dlygate4sd3_1
*CAP
1 gpio_in[15] 0.00122375
2 *3465:A 0.000281786
3 *42:9 0.00150554
4 *3465:A *3448:A 0
5 *3465:A *3483:A 0
6 *42:9 *43:11 0.00039332
7 *42:9 *62:11 0
8 *42:9 *65:9 0
9 *3469:A *42:9 0
10 *39:15 *42:9 0
*RES
1 gpio_in[15] *42:9 31.7111 
2 *42:9 *3465:A 43.1312 
*END

*D_NET *43 0.00387502
*CONN
*P gpio_in[16] I
*I *3496:A I *D sg13g2_dlygate4sd3_1
*CAP
1 gpio_in[16] 0.00086082
2 *3496:A 0.000508871
3 *43:11 0.00136969
4 *3496:A *3475:A 0.000501594
5 *3496:A *3552:A 0.000240728
6 *43:11 *3488:A 0
7 *3461:A *3496:A 0
8 *3493:A *3496:A 0
9 *42:9 *43:11 0.00039332
*RES
1 gpio_in[16] *43:11 47.7868 
2 *43:11 *3496:A 25.5105 
*END

*D_NET *44 0.00372421
*CONN
*P gpio_in[17] I
*I *3488:A I *D sg13g2_dlygate4sd3_1
*CAP
1 gpio_in[17] 0.00164212
2 *3488:A 0.00164212
3 *3488:A *3137:RESET_B 0
4 *3488:A *3137:D 0.000338449
5 *3488:A *45:11 0
6 *3488:A *48:9 0
7 *3488:A *1058:22 0.00010152
8 *3488:A *1071:10 0
9 *3488:A *1075:12 0
10 *3469:A *3488:A 0
11 *43:11 *3488:A 0
*RES
1 gpio_in[17] *3488:A 35.3785 
*END

*D_NET *45 0.00307639
*CONN
*P gpio_in[18] I
*I *3475:A I *D sg13g2_dlygate4sd3_1
*CAP
1 gpio_in[18] 0.000903278
2 *3475:A 0.000384119
3 *45:11 0.0012874
4 *3475:A *3479:A 0
5 *45:11 *46:11 0
6 *45:11 *48:9 0
7 *3461:A *3475:A 0
8 *3488:A *45:11 0
9 *3493:A *3475:A 0
10 *3496:A *3475:A 0.000501594
11 *39:15 *3475:A 0
*RES
1 gpio_in[18] *45:11 48.0958 
2 *45:11 *3475:A 23.7801 
*END

*D_NET *46 0.0041753
*CONN
*P gpio_in[19] I
*I *3499:A I *D sg13g2_dlygate4sd3_1
*CAP
1 gpio_in[19] 0.000939451
2 *3499:A 0.000455362
3 *46:11 0.00139481
4 *3499:A *3459:A 0
5 *3499:A *3484:A 0.000598943
6 *3499:A *65:9 0.000177449
7 *46:11 *48:9 0
8 *46:11 *66:11 7.52158e-05
9 *3450:A *3499:A 0.000534068
10 *38:9 *46:11 0
11 *45:11 *46:11 0
*RES
1 gpio_in[19] *46:11 49.0846 
2 *46:11 *3499:A 25.5105 
*END

*D_NET *47 0.00377313
*CONN
*P gpio_in[1] I
*I *3448:A I *D sg13g2_dlygate4sd3_1
*CAP
1 gpio_in[1] 0.00170188
2 *3448:A 0.00170188
3 *3448:A *3471:A 0
4 *3448:A *3483:A 0
5 *3448:A *3562:A 0.000241341
6 *3448:A *58:9 0
7 *3448:A *397:14 0
8 *3448:A *730:41 0
9 *3448:A *778:10 0
10 *3448:A *828:99 8.01776e-05
11 *3448:A *860:18 0
12 *3448:A *1035:8 0
13 *3448:A *1049:10 0
14 *3448:A *1181:55 4.78524e-05
15 *3465:A *3448:A 0
16 *36:11 *3448:A 0
*RES
1 gpio_in[1] *3448:A 35.9609 
*END

*D_NET *48 0.00477354
*CONN
*P gpio_in[20] I
*I *3498:A I *D sg13g2_dlygate4sd3_1
*CAP
1 gpio_in[20] 0.00117816
2 *3498:A 0.000344983
3 *48:9 0.00152314
4 *3498:A *416:10 0
5 *3498:A *1061:10 7.9808e-05
6 *3498:A *1069:12 0
7 *3498:A *1071:10 0
8 *48:9 *3495:A 0.00127767
9 *48:9 *49:13 0
10 *48:9 *727:24 0
11 *48:9 *1061:10 0
12 *48:9 *1069:12 0
13 *48:9 *1071:10 0.000369782
14 *3488:A *48:9 0
15 *45:11 *48:9 0
16 *46:11 *48:9 0
*RES
1 gpio_in[20] *48:9 32.5763 
2 *48:9 *3498:A 43.1312 
*END

*D_NET *49 0.00443404
*CONN
*P gpio_in[21] I
*I *3497:A I *D sg13g2_dlygate4sd3_1
*CAP
1 gpio_in[21] 0.0013678
2 *3497:A 0
3 *49:13 0.0013678
4 *49:13 *3482:A 0
5 *49:13 *3491:A 0.000857435
6 *49:13 *3495:A 4.77699e-05
7 *49:13 *50:9 0.00079323
8 *49:13 *727:24 0
9 *49:13 *730:41 0
10 *49:13 *1069:12 0
11 *48:9 *49:13 0
*RES
1 gpio_in[21] *49:13 34.1419 
2 *49:13 *3497:A 40 
*END

*D_NET *50 0.00350897
*CONN
*P gpio_in[22] I
*I *3479:A I *D sg13g2_dlygate4sd3_1
*CAP
1 gpio_in[22] 0.00118491
2 *3479:A 0.000100902
3 *50:9 0.00128581
4 *50:9 *3482:A 0
5 *50:9 *51:15 0
6 *3461:A *3479:A 0.00014412
7 *3475:A *3479:A 0
8 *49:13 *50:9 0.00079323
*RES
1 gpio_in[22] *50:9 32.3909 
2 *50:9 *3479:A 40.9682 
*END

*D_NET *51 0.00472703
*CONN
*P gpio_in[23] I
*I *3495:A I *D sg13g2_dlygate4sd3_1
*CAP
1 gpio_in[23] 0.000433036
2 *3495:A 0.000734
3 *51:15 0.00116704
4 *3495:A *3491:A 0.000857495
5 *51:15 *3482:A 0.000210021
6 *51:15 *55:11 0
7 *48:9 *3495:A 0.00127767
8 *49:13 *3495:A 4.77699e-05
9 *50:9 *51:15 0
*RES
1 gpio_in[23] *51:15 44.4702 
2 *51:15 *3495:A 28.5387 
*END

*D_NET *52 0.00259382
*CONN
*P gpio_in[24] I
*I *3482:A I *D sg13g2_dlygate4sd3_1
*CAP
1 gpio_in[24] 0.0011919
2 *3482:A 0.0011919
3 *3482:A *53:9 0
4 *3482:A *54:9 0
5 *3482:A *1069:12 0
6 *49:13 *3482:A 0
7 *50:9 *3482:A 0
8 *51:15 *3482:A 0.000210021
*RES
1 gpio_in[24] *3482:A 31.4639 
*END

*D_NET *53 0.00442807
*CONN
*P gpio_in[25] I
*I *3457:A I *D sg13g2_dlygate4sd3_1
*CAP
1 gpio_in[25] 0.00157638
2 *3457:A 0
3 *53:9 0.00157638
4 *53:9 *3489:A 0.000664026
5 *53:9 *54:9 0
6 *53:9 *93:10 0
7 *53:9 *730:41 0
8 *53:9 *923:24 0.000611279
9 *53:9 *1055:8 0
10 *3482:A *53:9 0
*RES
1 gpio_in[25] *53:9 35.7281 
2 *53:9 *3457:A 40 
*END

*D_NET *54 0.00323779
*CONN
*P gpio_in[26] I
*I *3481:A I *D sg13g2_dlygate4sd3_1
*CAP
1 gpio_in[26] 0.00128696
2 *3481:A 0
3 *54:9 0.00128696
4 *54:9 *3477:A 0
5 *54:9 *3489:A 0.000663867
6 *54:9 *55:11 0
7 *54:9 *730:41 0
8 *54:9 *733:52 0
9 *54:9 *923:24 0
10 *3482:A *54:9 0
11 *53:9 *54:9 0
*RES
1 gpio_in[26] *54:9 32.6999 
2 *54:9 *3481:A 40 
*END

*D_NET *55 0.00392942
*CONN
*P gpio_in[27] I
*I *3491:A I *D sg13g2_dlygate4sd3_1
*CAP
1 gpio_in[27] 0.000656256
2 *3491:A 0.000450987
3 *55:11 0.00110724
4 *55:11 *3477:A 0
5 *55:11 *57:11 0
6 *3495:A *3491:A 0.000857495
7 *49:13 *3491:A 0.000857435
8 *51:15 *55:11 0
9 *54:9 *55:11 0
*RES
1 gpio_in[27] *55:11 46.1491 
2 *55:11 *3491:A 25.7268 
*END

*D_NET *56 0.00191904
*CONN
*P gpio_in[28] I
*I *3477:A I *D sg13g2_dlygate4sd3_1
*CAP
1 gpio_in[28] 0.00095952
2 *3477:A 0.00095952
3 *3477:A gpio_out[0] 0
4 *3477:A *57:11 0
5 *3477:A *59:11 0
6 *3477:A *60:11 0
7 *54:9 *3477:A 0
8 *55:11 *3477:A 0
*RES
1 gpio_in[28] *3477:A 29.5481 
*END

*D_NET *57 0.0035288
*CONN
*P gpio_in[29] I
*I *3489:A I *D sg13g2_dlygate4sd3_1
*CAP
1 gpio_in[29] 0.000691925
2 *3489:A 0.000345348
3 *57:11 0.00103727
4 *57:11 gpio_out[5] 0.000126358
5 *57:11 *59:11 0
6 *3477:A *57:11 0
7 *53:9 *3489:A 0.000664026
8 *54:9 *3489:A 0.000663867
9 *55:11 *57:11 0
*RES
1 gpio_in[29] *57:11 46.2109 
2 *57:11 *3489:A 24.429 
*END

*D_NET *58 0.00377352
*CONN
*P gpio_in[2] I
*I *3455:A I *D sg13g2_dlygate4sd3_1
*CAP
1 gpio_in[2] 0.00106592
2 *3455:A 0.000313919
3 *58:9 0.00137984
4 *3455:A *3454:A 0
5 *58:9 *61:11 0
6 *58:9 *62:11 0.000447182
7 *58:9 *65:9 0
8 *3448:A *58:9 0
9 *3456:A *3455:A 0.000566656
10 *36:11 *58:9 0
*RES
1 gpio_in[2] *58:9 31.3094 
2 *58:9 *3455:A 43.7801 
*END

*D_NET *59 0.00336846
*CONN
*P gpio_in[30] I
*I *3463:A I *D sg13g2_dlygate4sd3_1
*CAP
1 gpio_in[30] 0.000850308
2 *3463:A 0.000299682
3 *59:11 0.00114999
4 *3463:A gpio_out[1] 0
5 *3463:A gpio_out[2] 0.000566711
6 *3463:A *3486:A 0.000501764
7 *59:11 gpio_out[5] 0
8 *59:11 *60:11 0
9 *3477:A *59:11 0
10 *57:11 *59:11 0
*RES
1 gpio_in[30] *59:11 47.3542 
2 *59:11 *3463:A 23.7801 
*END

*D_NET *60 0.00337925
*CONN
*P gpio_in[31] I
*I *3486:A I *D sg13g2_dlygate4sd3_1
*CAP
1 gpio_in[31] 0.000825399
2 *3486:A 0.000613346
3 *60:11 0.00143874
4 *3486:A gpio_out[1] 0
5 *3486:A gpio_out[2] 0
6 *60:11 gpio_out[0] 0
7 *3463:A *3486:A 0.000501764
8 *3477:A *60:11 0
9 *59:11 *60:11 0
*RES
1 gpio_in[31] *60:11 47.0452 
2 *60:11 *3486:A 25.5105 
*END

*D_NET *61 0.00348869
*CONN
*P gpio_in[3] I
*I *3454:A I *D sg13g2_dlygate4sd3_1
*CAP
1 gpio_in[3] 0.000564077
2 *3454:A 0.000848337
3 *61:11 0.00141241
4 *3454:A *3449:A 0.000663868
5 *3454:A *3480:A 0
6 *3454:A *3574:A 0
7 *61:11 *62:11 0
8 *61:11 *66:11 0
9 *3455:A *3454:A 0
10 *3456:A *3454:A 0
11 *58:9 *61:11 0
*RES
1 gpio_in[3] *61:11 46.1491 
2 *61:11 *3454:A 29.6202 
*END

*D_NET *62 0.0039122
*CONN
*P gpio_in[4] I
*I *3480:A I *D sg13g2_dlygate4sd3_1
*CAP
1 gpio_in[4] 0.000824329
2 *3480:A 0.000568563
3 *62:11 0.00139289
4 *3480:A *3449:A 0
5 *3480:A *3471:A 0
6 *3480:A *397:14 8.0216e-05
7 *62:11 *3483:A 0
8 *62:11 *65:9 0
9 *3454:A *3480:A 0
10 *3468:A *3480:A 0.000599014
11 *42:9 *62:11 0
12 *58:9 *62:11 0.000447182
13 *61:11 *62:11 0
*RES
1 gpio_in[4] *62:11 47.8795 
2 *62:11 *3480:A 26.1594 
*END

*D_NET *63 0.00389435
*CONN
*P gpio_in[5] I
*I *3483:A I *D sg13g2_dlygate4sd3_1
*CAP
1 gpio_in[5] 0.00172949
2 *3483:A 0.00172949
3 *3483:A *3459:A 0
4 *3483:A *3556:A 0
5 *3483:A *730:41 0.00043538
6 *3448:A *3483:A 0
7 *3465:A *3483:A 0
8 *62:11 *3483:A 0
*RES
1 gpio_in[5] *3483:A 35.7075 
*END

*D_NET *64 0.00308448
*CONN
*P gpio_in[6] I
*I *3459:A I *D sg13g2_dlygate4sd3_1
*CAP
1 gpio_in[6] 0.00154224
2 *3459:A 0.00154224
3 *3459:A *3484:A 0
4 *3459:A *3556:A 0
5 *3459:A *65:9 0
6 *3450:A *3459:A 0
7 *3483:A *3459:A 0
8 *3499:A *3459:A 0
*RES
1 gpio_in[6] *3459:A 32.9471 
*END

*D_NET *65 0.00457288
*CONN
*P gpio_in[7] I
*I *3449:A I *D sg13g2_dlygate4sd3_1
*CAP
1 gpio_in[7] 0.00116374
2 *3449:A 0.000371103
3 *65:9 0.00153484
4 *65:9 *3484:A 0
5 *65:9 *66:11 0
6 *3454:A *3449:A 0.000663868
7 *3459:A *65:9 0
8 *3468:A *3449:A 0
9 *3480:A *3449:A 0
10 *3499:A *65:9 0.000177449
11 *36:11 *65:9 0.000661887
12 *38:9 *65:9 0
13 *42:9 *65:9 0
14 *58:9 *65:9 0
15 *62:11 *65:9 0
*RES
1 gpio_in[7] *65:9 30.9077 
2 *65:9 *3449:A 44.429 
*END

*D_NET *66 0.00413236
*CONN
*P gpio_in[8] I
*I *3471:A I *D sg13g2_dlygate4sd3_1
*CAP
1 gpio_in[8] 0.000795196
2 *3471:A 0.00082908
3 *66:11 0.00162428
4 *3471:A *397:14 8.0216e-05
5 *66:11 *3484:A 0
6 *3448:A *3471:A 0
7 *3468:A *3471:A 0.000728381
8 *3480:A *3471:A 0
9 *36:11 *3471:A 0
10 *38:9 *66:11 0
11 *46:11 *66:11 7.52158e-05
12 *61:11 *66:11 0
13 *65:9 *66:11 0
*RES
1 gpio_in[8] *66:11 47.1219 
2 *66:11 *3471:A 27.8898 
*END

*D_NET *67 0.00453751
*CONN
*P gpio_in[9] I
*I *3484:A I *D sg13g2_dlygate4sd3_1
*CAP
1 gpio_in[9] 0.00156686
2 *3484:A 0.00156686
3 *3484:A *3556:A 0.000531448
4 *3484:A *1076:16 0
5 *3450:A *3484:A 0.000273404
6 *3459:A *3484:A 0
7 *3493:A *3484:A 0
8 *3499:A *3484:A 0.000598943
9 *65:9 *3484:A 0
10 *66:11 *3484:A 0
*RES
1 gpio_in[9] *3484:A 35.9821 
*END

*D_NET *68 0.00429856
*CONN
*P gpio_out[0] O
*I *3638:X O *D sg13g2_buf_1
*CAP
1 gpio_out[0] 0.00189338
2 *3638:X 0.00189338
3 gpio_out[0] gpio_out[1] 0
4 gpio_out[0] *2751:A2 4.77425e-05
5 gpio_out[0] *2830:A1 0
6 gpio_out[0] *2834:A1 0
7 gpio_out[0] *79:12 6.16032e-06
8 gpio_out[0] *413:16 0
9 gpio_out[0] *759:71 2.46413e-05
10 gpio_out[0] *923:24 0
11 gpio_out[0] *1039:16 0.000433253
12 *3477:A gpio_out[0] 0
13 *60:11 gpio_out[0] 0
*RES
1 *3638:X gpio_out[0] 37.2113 
*END

*D_NET *69 0.0024919
*CONN
*P gpio_out[10] O
*I *3639:X O *D sg13g2_buf_1
*CAP
1 gpio_out[10] 0.00124595
2 *3639:X 0.00124595
3 gpio_out[10] gpio_out[11] 0
4 gpio_out[10] gpio_out[12] 0
5 gpio_out[10] gpio_out[9] 0
6 gpio_out[10] *3639:A 0
*RES
1 *3639:X gpio_out[10] 30.5678 
*END

*D_NET *70 0.00243633
*CONN
*P gpio_out[11] O
*I *3640:X O *D sg13g2_buf_1
*CAP
1 gpio_out[11] 0.00107758
2 *3640:X 0.000116664
3 *70:8 0.00119424
4 gpio_out[11] gpio_out[12] 0
5 gpio_out[11] *72:10 4.78524e-05
6 *70:8 *93:10 0
7 gpio_out[10] gpio_out[11] 0
*RES
1 *3640:X *70:8 40.8446 
2 *70:8 gpio_out[11] 29.1361 
*END

*D_NET *71 0.00261888
*CONN
*P gpio_out[12] O
*I *3641:X O *D sg13g2_buf_1
*CAP
1 gpio_out[12] 0.00121349
2 *3641:X 0.00121349
3 gpio_out[12] gpio_out[13] 0
4 gpio_out[12] gpio_out[14] 0
5 gpio_out[12] *2783:A2 0
6 gpio_out[12] *3644:A 0.000144099
7 gpio_out[12] *72:10 4.78028e-05
8 gpio_out[10] gpio_out[12] 0
9 gpio_out[11] gpio_out[12] 0
*RES
1 *3641:X gpio_out[12] 30.5678 
*END

*D_NET *72 0.00245262
*CONN
*P gpio_out[13] O
*I *3642:X O *D sg13g2_buf_1
*CAP
1 gpio_out[13] 0.00105685
2 *3642:X 0.000113927
3 *72:10 0.00117078
4 gpio_out[13] gpio_out[14] 0
5 gpio_out[13] *3644:A 1.54008e-05
6 gpio_out[11] *72:10 4.78524e-05
7 gpio_out[12] gpio_out[13] 0
8 gpio_out[12] *72:10 4.78028e-05
*RES
1 *3642:X *72:10 41.1639 
2 *72:10 gpio_out[13] 28.9198 
*END

*D_NET *73 0.00246838
*CONN
*P gpio_out[14] O
*I *3643:X O *D sg13g2_buf_1
*CAP
1 gpio_out[14] 0.00123419
2 *3643:X 0.00123419
3 gpio_out[14] gpio_out[15] 0
4 gpio_out[14] gpio_out[16] 0
5 gpio_out[14] *3644:A 0
6 gpio_out[12] gpio_out[14] 0
7 gpio_out[13] gpio_out[14] 0
*RES
1 *3643:X gpio_out[14] 30.1982 
*END

*D_NET *74 0.00243469
*CONN
*P gpio_out[15] O
*I *3644:X O *D sg13g2_buf_1
*CAP
1 gpio_out[15] 0.00107758
2 *3644:X 0.000115843
3 *74:8 0.00119342
4 gpio_out[15] gpio_out[16] 0
5 gpio_out[15] *76:10 4.78524e-05
6 *74:8 *93:10 0
7 gpio_out[14] gpio_out[15] 0
*RES
1 *3644:X *74:8 40.8446 
2 *74:8 gpio_out[15] 29.1361 
*END

*D_NET *75 0.00260984
*CONN
*P gpio_out[16] O
*I *3645:X O *D sg13g2_buf_1
*CAP
1 gpio_out[16] 0.00120897
2 *3645:X 0.00120897
3 gpio_out[16] gpio_out[17] 0
4 gpio_out[16] gpio_out[18] 0
5 gpio_out[16] *76:10 4.78028e-05
6 gpio_out[16] *739:51 0.000144099
7 gpio_out[14] gpio_out[16] 0
8 gpio_out[15] gpio_out[16] 0
*RES
1 *3645:X gpio_out[16] 30.5678 
*END

*D_NET *76 0.00251018
*CONN
*P gpio_out[17] O
*I *3646:X O *D sg13g2_buf_1
*CAP
1 gpio_out[17] 0.00104549
2 *3646:X 0.000113927
3 *76:10 0.00115942
4 gpio_out[17] gpio_out[18] 0
5 gpio_out[17] *78:10 8.02927e-05
6 gpio_out[17] *739:51 1.54008e-05
7 gpio_out[15] *76:10 4.78524e-05
8 gpio_out[16] gpio_out[17] 0
9 gpio_out[16] *76:10 4.78028e-05
*RES
1 *3646:X *76:10 41.1639 
2 *76:10 gpio_out[17] 28.9198 
*END

*D_NET *77 0.00257445
*CONN
*P gpio_out[18] O
*I *3647:X O *D sg13g2_buf_1
*CAP
1 gpio_out[18] 0.00123085
2 *3647:X 0.00123085
3 gpio_out[18] gpio_out[19] 0
4 gpio_out[18] gpio_out[20] 0
5 gpio_out[18] *3650:A 0
6 gpio_out[18] *78:10 0.000112749
7 gpio_out[18] *739:51 0
8 gpio_out[16] gpio_out[18] 0
9 gpio_out[17] gpio_out[18] 0
*RES
1 *3647:X gpio_out[18] 30.5678 
*END

*D_NET *78 0.00250461
*CONN
*P gpio_out[19] O
*I *3648:X O *D sg13g2_buf_1
*CAP
1 gpio_out[19] 0.00100887
2 *3648:X 0.000146917
3 *78:10 0.00115578
4 gpio_out[19] gpio_out[20] 0
5 *78:10 *739:51 0
6 gpio_out[17] *78:10 8.02927e-05
7 gpio_out[18] gpio_out[19] 0
8 gpio_out[18] *78:10 0.000112749
*RES
1 *3648:X *78:10 41.5965 
2 *78:10 gpio_out[19] 28.4872 
*END

*D_NET *79 0.00653184
*CONN
*P gpio_out[1] O
*I *3649:X O *D sg13g2_buf_1
*CAP
1 gpio_out[1] 0.00148856
2 *3649:X 0.000729368
3 *79:18 0.00181988
4 *79:12 0.00106069
5 gpio_out[1] gpio_out[2] 0
6 gpio_out[1] *2751:A1 0
7 gpio_out[1] *756:53 0
8 *79:12 *2744:B1 0
9 *79:12 *2744:A1 0
10 *79:12 *2830:A1 0.000401904
11 *79:12 *2834:A1 0
12 *79:12 *2834:B1 0.00023024
13 *79:12 *3460:A 8.00842e-05
14 *79:12 *3649:A 1.54008e-05
15 *79:12 *700:36 0
16 *79:12 *700:53 0
17 *79:12 *759:71 0.000228663
18 *79:12 *830:29 0
19 *79:18 *419:16 0.000470882
20 *79:18 *1055:12 0
21 gpio_out[0] gpio_out[1] 0
22 gpio_out[0] *79:12 6.16032e-06
23 *3463:A gpio_out[1] 0
24 *3486:A gpio_out[1] 0
*RES
1 *3649:X *79:12 47.0067 
2 *79:12 *79:18 43.5638 
3 *79:18 gpio_out[1] 32.5969 
*END

*D_NET *80 0.00222007
*CONN
*P gpio_out[20] O
*I *3650:X O *D sg13g2_buf_1
*CAP
1 gpio_out[20] 0.00111004
2 *3650:X 0.00111004
3 gpio_out[20] gpio_out[21] 0
4 gpio_out[20] *3650:A 0
5 gpio_out[18] gpio_out[20] 0
6 gpio_out[19] gpio_out[20] 0
*RES
1 *3650:X gpio_out[20] 29.4863 
*END

*D_NET *81 0.00223076
*CONN
*P gpio_out[21] O
*I *3651:X O *D sg13g2_buf_1
*CAP
1 gpio_out[21] 0.00111538
2 *3651:X 0.00111538
3 gpio_out[21] gpio_out[22] 0
4 gpio_out[20] gpio_out[21] 0
*RES
1 *3651:X gpio_out[21] 29.4863 
*END

*D_NET *82 0.00208163
*CONN
*P gpio_out[22] O
*I *3652:X O *D sg13g2_buf_1
*CAP
1 gpio_out[22] 0.00104082
2 *3652:X 0.00104082
3 gpio_out[22] gpio_out[23] 0
4 gpio_out[22] *3652:A 0
5 gpio_out[21] gpio_out[22] 0
*RES
1 *3652:X gpio_out[22] 29.4863 
*END

*D_NET *83 0.00261955
*CONN
*P gpio_out[23] O
*I *3653:X O *D sg13g2_buf_1
*CAP
1 gpio_out[23] 0.000987134
2 *3653:X 0.000987134
3 gpio_out[23] gpio_out[24] 0
4 gpio_out[23] gpio_out[25] 0.000597759
5 gpio_out[23] *3652:A 0
6 gpio_out[23] *3653:A 4.75265e-05
7 gpio_out[22] gpio_out[23] 0
*RES
1 *3653:X gpio_out[23] 30.0837 
*END

*D_NET *84 0.00346254
*CONN
*P gpio_out[24] O
*I *3654:X O *D sg13g2_buf_1
*CAP
1 gpio_out[24] 0.000492125
2 *3654:X 0.000537183
3 *84:10 0.00102931
4 gpio_out[24] gpio_out[25] 0
5 *84:10 gpio_out[26] 0.000759284
6 *84:10 gpio_out[27] 0.000597118
7 *84:10 gpio_out[28] 0
8 *84:10 *3654:A 4.75265e-05
9 gpio_out[23] gpio_out[24] 0
*RES
1 *3654:X *84:10 46.4169 
2 *84:10 gpio_out[24] 24.1612 
*END

*D_NET *85 0.00309093
*CONN
*P gpio_out[25] O
*I *3655:X O *D sg13g2_buf_1
*CAP
1 gpio_out[25] 0.000923907
2 *3655:X 0.000266669
3 *85:10 0.00119058
4 gpio_out[25] gpio_out[26] 0
5 *85:10 gpio_out[28] 0.000112015
6 *85:10 *87:10 0
7 gpio_out[23] gpio_out[25] 0.000597759
8 gpio_out[24] gpio_out[25] 0
*RES
1 *3655:X *85:10 42.5853 
2 *85:10 gpio_out[25] 28.4872 
*END

*D_NET *86 0.00306816
*CONN
*P gpio_out[26] O
*I *3656:X O *D sg13g2_buf_1
*CAP
1 gpio_out[26] 0.00115444
2 *3656:X 0.00115444
3 gpio_out[26] gpio_out[27] 0
4 gpio_out[26] *3653:A 0
5 gpio_out[26] *3654:A 0
6 gpio_out[25] gpio_out[26] 0
7 *84:10 gpio_out[26] 0.000759284
*RES
1 *3656:X gpio_out[26] 30.5678 
*END

*D_NET *87 0.00325006
*CONN
*P gpio_out[27] O
*I *3657:X O *D sg13g2_buf_1
*CAP
1 gpio_out[27] 0.000860138
2 *3657:X 0.000298988
3 *87:10 0.00115913
4 gpio_out[27] gpio_out[28] 0.000110952
5 *87:10 gpio_out[30] 0.000176214
6 *87:10 *3655:A 4.75265e-05
7 gpio_out[26] gpio_out[27] 0
8 *84:10 gpio_out[27] 0.000597118
9 *85:10 *87:10 0
*RES
1 *3657:X *87:10 43.0179 
2 *87:10 gpio_out[27] 28.0546 
*END

*D_NET *88 0.00274612
*CONN
*P gpio_out[28] O
*I *3658:X O *D sg13g2_buf_1
*CAP
1 gpio_out[28] 0.00126158
2 *3658:X 0.00126158
3 gpio_out[28] gpio_out[29] 0
4 gpio_out[28] gpio_out[30] 0
5 gpio_out[28] *3654:A 0
6 gpio_out[28] *3655:A 0
7 gpio_out[27] gpio_out[28] 0.000110952
8 *84:10 gpio_out[28] 0
9 *85:10 gpio_out[28] 0.000112015
*RES
1 *3658:X gpio_out[28] 31.4742 
*END

*D_NET *89 0.00276181
*CONN
*P gpio_out[29] O
*I *3659:X O *D sg13g2_buf_1
*CAP
1 gpio_out[29] 0.000848128
2 *3659:X 0.000340836
3 *89:10 0.00118896
4 gpio_out[29] gpio_out[30] 0
5 *89:10 gpio_out[31] 0.000272432
6 *89:10 *743:54 0
7 gpio_dir[1] *89:10 0.000111455
8 gpio_out[28] gpio_out[29] 0
*RES
1 *3659:X *89:10 43.6668 
2 *89:10 gpio_out[29] 27.4057 
*END

*D_NET *90 0.00601801
*CONN
*P gpio_out[2] O
*I *3660:X O *D sg13g2_buf_1
*CAP
1 gpio_out[2] 0.00149363
2 *3660:X 0.000177178
3 *90:16 0.00167081
4 gpio_out[2] gpio_out[3] 0.000686295
5 gpio_out[2] gpio_out[4] 0
6 gpio_out[2] *756:53 0.000337353
7 gpio_out[2] *1032:8 0.000755205
8 *90:16 *2834:A2 2.42172e-05
9 *90:16 *756:53 0.000127542
10 *90:16 *759:71 0
11 *90:16 *848:55 0.000179079
12 gpio_out[1] gpio_out[2] 0
13 *3463:A gpio_out[2] 0.000566711
14 *3486:A gpio_out[2] 0
*RES
1 *3660:X *90:16 42.1527 
2 *90:16 gpio_out[2] 35.244 
*END

*D_NET *91 0.002663
*CONN
*P gpio_out[30] O
*I *3661:X O *D sg13g2_buf_1
*CAP
1 gpio_out[30] 0.0012434
2 *3661:X 0.0012434
3 gpio_out[30] gpio_out[31] 0
4 gpio_out[30] *3655:A 0
5 gpio_out[30] *3659:A 0
6 gpio_out[28] gpio_out[30] 0
7 gpio_out[29] gpio_out[30] 0
8 *87:10 gpio_out[30] 0.000176214
*RES
1 *3661:X gpio_out[30] 31.2682 
*END

*D_NET *92 0.00292415
*CONN
*P gpio_out[31] O
*I *3662:X O *D sg13g2_buf_1
*CAP
1 gpio_out[31] 0.00130209
2 *3662:X 0.00130209
3 gpio_out[31] *3659:A 4.75278e-05
4 gpio_dir[0] gpio_out[31] 0
5 gpio_dir[1] gpio_out[31] 0
6 gpio_out[30] gpio_out[31] 0
7 *89:10 gpio_out[31] 0.000272432
*RES
1 *3662:X gpio_out[31] 31.9274 
*END

*D_NET *93 0.00607411
*CONN
*P gpio_out[3] O
*I *3663:X O *D sg13g2_buf_1
*CAP
1 gpio_out[3] 0.00095884
2 *3663:X 0.000840943
3 *93:10 0.00179978
4 gpio_out[3] gpio_out[4] 0.000696549
5 *93:10 *3650:A 0
6 *93:10 *730:41 0.000561032
7 *93:10 *731:56 0
8 *93:10 *733:52 0
9 *93:10 *739:51 0.000530666
10 gpio_out[2] gpio_out[3] 0.000686295
11 *53:9 *93:10 0
12 *70:8 *93:10 0
13 *74:8 *93:10 0
*RES
1 *3663:X *93:10 49.2597 
2 *93:10 gpio_out[3] 30.1249 
*END

*D_NET *94 0.00311478
*CONN
*P gpio_out[4] O
*I *3664:X O *D sg13g2_buf_1
*CAP
1 gpio_out[4] 0.00113743
2 *3664:X 0.00113743
3 gpio_out[4] gpio_out[5] 0
4 gpio_out[4] gpio_out[6] 0
5 gpio_out[4] *97:34 0
6 gpio_out[4] *1032:8 0.000143369
7 gpio_out[2] gpio_out[4] 0
8 gpio_out[3] gpio_out[4] 0.000696549
*RES
1 *3664:X gpio_out[4] 30.5678 
*END

*D_NET *95 0.00403153
*CONN
*P gpio_out[5] O
*I *3665:X O *D sg13g2_buf_1
*CAP
1 gpio_out[5] 0.000927612
2 *3665:X 3.02081e-05
3 *95:12 0.00192238
4 *95:8 0.00102497
5 gpio_out[5] gpio_out[6] 0
6 *95:12 *757:77 0
7 *95:12 *758:56 0
8 *95:12 *798:14 0
9 *95:12 *830:54 0
10 *95:12 *1065:16 0
11 gpio_out[4] gpio_out[5] 0
12 *57:11 gpio_out[5] 0.000126358
13 *59:11 gpio_out[5] 0
*RES
1 *3665:X *95:8 40.3502 
2 *95:8 *95:12 31.1343 
3 *95:12 gpio_out[5] 48.7138 
*END

*D_NET *96 0.00236729
*CONN
*P gpio_out[6] O
*I *3666:X O *D sg13g2_buf_1
*CAP
1 gpio_out[6] 0.00118364
2 *3666:X 0.00118364
3 gpio_out[6] gpio_out[7] 0
4 gpio_out[6] gpio_out[8] 0
5 gpio_out[6] *97:34 0
6 gpio_out[4] gpio_out[6] 0
7 gpio_out[5] gpio_out[6] 0
*RES
1 *3666:X gpio_out[6] 30.5678 
*END

*D_NET *97 0.00550285
*CONN
*P gpio_out[7] O
*I *3667:X O *D sg13g2_buf_1
*CAP
1 gpio_out[7] 0.00056933
2 *3667:X 0.000144194
3 *97:34 0.0015927
4 *97:26 0.00140634
5 *97:20 0.000491427
6 *97:10 0.000252649
7 gpio_out[7] gpio_out[8] 0
8 *97:10 *2834:A1 8.00842e-05
9 *97:10 *2834:B1 0.000126275
10 *97:10 *759:55 0.000124859
11 *97:10 *961:8 0
12 *97:20 *2773:A1 0.000112209
13 *97:20 *2834:B1 0
14 *97:20 *481:16 7.24733e-05
15 *97:20 *961:8 0
16 *97:26 *422:18 0.000242033
17 *97:26 *731:50 0
18 *97:26 *761:23 0
19 *97:26 *957:16 4.78367e-05
20 *97:34 gpio_out[9] 0
21 *97:34 *2759:A2 0
22 *97:34 *3639:A 0
23 *97:34 *756:61 0.000240437
24 *97:34 *1032:8 0
25 gpio_out[4] *97:34 0
26 gpio_out[6] gpio_out[7] 0
27 gpio_out[6] *97:34 0
*RES
1 *3667:X *97:10 41.6274 
2 *97:10 *97:20 41.2051 
3 *97:20 *97:26 43.3475 
4 *97:26 *97:34 48.9816 
5 *97:34 gpio_out[7] 24.8101 
*END

*D_NET *98 0.00247236
*CONN
*P gpio_out[8] O
*I *3668:X O *D sg13g2_buf_1
*CAP
1 gpio_out[8] 0.00116411
2 *3668:X 0.00116411
3 gpio_out[8] gpio_out[9] 0
4 gpio_out[8] *3640:A 0.000144151
5 gpio_out[6] gpio_out[8] 0
6 gpio_out[7] gpio_out[8] 0
*RES
1 *3668:X gpio_out[8] 30.5678 
*END

*D_NET *99 0.00450467
*CONN
*P gpio_out[9] O
*I *3669:X O *D sg13g2_buf_1
*CAP
1 gpio_out[9] 0.00140564
2 *3669:X 0.000537176
3 *99:14 0.00194282
4 gpio_out[9] *3639:A 1.54008e-05
5 gpio_out[9] *3640:A 0.000144151
6 gpio_out[9] *3666:A 0
7 gpio_out[9] *3668:A 0.000176474
8 *99:14 *2783:B2 0.000207882
9 *99:14 *2803:A2 0
10 *99:14 *3668:A 7.51285e-05
11 *99:14 *434:14 0
12 *99:14 *727:24 0
13 *99:14 *760:26 0
14 *99:14 *871:14 0
15 gpio_out[10] gpio_out[9] 0
16 gpio_out[8] gpio_out[9] 0
17 *97:34 gpio_out[9] 0
*RES
1 *3669:X *99:14 45.1706 
2 *99:14 gpio_out[9] 32.1643 
*END

*D_NET *100 0.000683331
*CONN
*P rst_ni I
*I *3577:A I *D sg13g2_buf_1
*CAP
1 rst_ni 0.000341665
2 *3577:A 0.000341665
*RES
1 rst_ni *3577:A 44.1303 
*END

*D_NET *123 0.0017807
*CONN
*P s_axil_araddr[2] I
*I *3578:A I *D sg13g2_buf_1
*CAP
1 s_axil_araddr[2] 0.000657817
2 *3578:A 0.000657817
3 *3578:A *3579:A 0.000465063
4 *3578:A *3585:A 0
5 *3578:A *3623:A 0
6 *3578:A *171:10 0
*RES
1 s_axil_araddr[2] *3578:A 47.604 
*END

*D_NET *126 0.00184117
*CONN
*P s_axil_araddr[3] I
*I *3579:A I *D sg13g2_buf_1
*CAP
1 s_axil_araddr[3] 0.000688055
2 *3579:A 0.000688055
3 *3578:A *3579:A 0.000465063
*RES
1 s_axil_araddr[3] *3579:A 48.1396 
*END

*D_NET *133 0.000650918
*CONN
*P s_axil_arready O
*I *3670:X O *D sg13g2_buf_1
*CAP
1 s_axil_arready 0.000325459
2 *3670:X 0.000325459
3 s_axil_arready s_axil_rdata[0] 0
4 s_axil_arready *3580:A 0
*RES
1 *3670:X s_axil_arready 43.8136 
*END

*D_NET *134 0.00060055
*CONN
*P s_axil_arvalid I
*I *3580:A I *D sg13g2_buf_1
*CAP
1 s_axil_arvalid 0.000300275
2 *3580:A 0.000300275
3 s_axil_arready *3580:A 0
*RES
1 s_axil_arvalid *3580:A 43.7106 
*END

*D_NET *157 0.00154382
*CONN
*P s_axil_awaddr[2] I
*I *3581:A I *D sg13g2_buf_1
*CAP
1 s_axil_awaddr[2] 0.000771912
2 *3581:A 0.000771912
3 *3581:A *3582:A 0
*RES
1 s_axil_awaddr[2] *3581:A 29.27 
*END

*D_NET *160 0.00154451
*CONN
*P s_axil_awaddr[3] I
*I *3582:A I *D sg13g2_buf_1
*CAP
1 s_axil_awaddr[3] 0.000772255
2 *3582:A 0.000772255
3 *3581:A *3582:A 0
*RES
1 s_axil_awaddr[3] *3582:A 29.27 
*END

*D_NET *167 0.00241997
*CONN
*P s_axil_awready O
*I *3671:X O *D sg13g2_buf_1
*CAP
1 s_axil_awready 0.00108913
2 *3671:X 0.00108913
3 s_axil_awready *3530:A 0
4 s_axil_awready *3598:A 0
5 s_axil_awready *3610:A 0
6 s_axil_awready *168:13 0
7 s_axil_awready *764:10 0
8 s_axil_awready *1159:10 0.000241716
*RES
1 *3671:X s_axil_awready 32.2707 
*END

*D_NET *168 0.00196634
*CONN
*P s_axil_awvalid I
*I *3583:A I *D sg13g2_buf_1
*CAP
1 s_axil_awvalid 0.000295223
2 *3583:A 0.000687945
3 *168:13 0.000983168
4 *3583:A *3586:A 0
5 s_axil_awready *168:13 0
*RES
1 s_axil_awvalid *168:13 43.8007 
2 *168:13 *3583:A 28.5387 
*END

*D_NET *169 0.00190839
*CONN
*P s_axil_bready I
*I *3452:A I *D sg13g2_dlygate4sd3_1
*CAP
1 s_axil_bready 0.000954197
2 *3452:A 0.000954197
3 *3452:A s_axil_bvalid 0
4 *3452:A *3473:A 0
*RES
1 s_axil_bready *3452:A 31.1549 
*END

*D_NET *170 0.00749858
*CONN
*P s_axil_bresp[0] O
*I *3729:L_LO O *D sg13g2_tielo
*CAP
1 s_axil_bresp[0] 0.00177015
2 *3729:L_LO 0.00177015
3 s_axil_bresp[0] s_axil_bresp[1] 0.00142062
4 s_axil_bresp[0] s_axil_wready 0
5 s_axil_bresp[0] *2698:A 0.000499516
6 s_axil_bresp[0] *3531:A 0.000955425
7 s_axil_bresp[0] *3621:A 0
8 s_axil_bresp[0] *3625:A 0.00108271
9 s_axil_bresp[0] *282:12 0
10 s_axil_bresp[0] *375:8 0
11 s_axil_bresp[0] *1051:12 0
*RES
1 *3729:L_LO s_axil_bresp[0] 40.7751 
*END

*D_NET *171 0.00566281
*CONN
*P s_axil_bresp[1] O
*I *3730:L_LO O *D sg13g2_tielo
*CAP
1 s_axil_bresp[1] 0.000870187
2 *3730:L_LO 0.000653148
3 *171:10 0.00152333
4 s_axil_bresp[1] s_axil_bvalid 0
5 s_axil_bresp[1] *241:12 0
6 *171:10 *3585:A 0
7 *171:10 *709:50 0
8 *171:10 *765:8 0
9 *171:10 *1102:8 0.00119552
10 s_axil_bresp[0] s_axil_bresp[1] 0.00142062
11 *3578:A *171:10 0
*RES
1 *3730:L_LO *171:10 48.7035 
2 *171:10 s_axil_bresp[1] 29.9498 
*END

*D_NET *172 0.00494169
*CONN
*P s_axil_bvalid O
*I *3672:X O *D sg13g2_buf_1
*CAP
1 s_axil_bvalid 0.0017313
2 *3672:X 0.0017313
3 s_axil_bvalid *3191:RESET_B 0.000725515
4 s_axil_bvalid *3473:A 0
5 s_axil_bvalid *3585:A 0
6 s_axil_bvalid *3672:A 0.000209725
7 s_axil_bvalid *241:12 0.000543846
8 s_axil_bvalid *709:42 0
9 s_axil_bvalid *765:12 0
10 s_axil_bvalid *765:27 0
11 s_axil_bresp[1] s_axil_bvalid 0
12 *3452:A s_axil_bvalid 0
*RES
1 *3672:X s_axil_bvalid 38.6417 
*END

*D_NET *173 0.0010742
*CONN
*P s_axil_rdata[0] O
*I *3673:X O *D sg13g2_buf_1
*CAP
1 s_axil_rdata[0] 0.000472731
2 *3673:X 0.000472731
3 s_axil_rdata[0] s_axil_rdata[1] 0
4 s_axil_rdata[0] *3673:A 0
5 s_axil_rdata[0] *3684:A 0
6 s_axil_rdata[0] *778:26 0.000128742
7 s_axil_rdata[0] *1001:8 0
8 s_axil_arready s_axil_rdata[0] 0
*RES
1 *3673:X s_axil_rdata[0] 45.3483 
*END

*D_NET *174 0.00087965
*CONN
*P s_axil_rdata[10] O
*I *3674:X O *D sg13g2_buf_1
*CAP
1 s_axil_rdata[10] 0.000439825
2 *3674:X 0.000439825
3 s_axil_rdata[10] s_axil_rdata[11] 0
4 s_axil_rdata[10] s_axil_rdata[9] 0
5 s_axil_rdata[10] *3704:A 0
6 s_axil_rdata[10] *175:8 0
7 s_axil_rdata[10] *801:25 0
8 s_axil_rdata[10] *1001:8 0
*RES
1 *3674:X s_axil_rdata[10] 45.1114 
*END

*D_NET *175 0.000820404
*CONN
*P s_axil_rdata[11] O
*I *3675:X O *D sg13g2_buf_1
*CAP
1 s_axil_rdata[11] 6.64897e-05
2 *3675:X 0.000343712
3 *175:8 0.000410202
4 *175:8 s_axil_rdata[12] 0
5 s_axil_rdata[10] s_axil_rdata[11] 0
6 s_axil_rdata[10] *175:8 0
*RES
1 *3675:X *175:8 44.0582 
2 *175:8 s_axil_rdata[11] 40.7442 
*END

*D_NET *176 0.0007957
*CONN
*P s_axil_rdata[12] O
*I *3676:X O *D sg13g2_buf_1
*CAP
1 s_axil_rdata[12] 0.00039785
2 *3676:X 0.00039785
3 s_axil_rdata[12] s_axil_rdata[13] 0
4 *175:8 s_axil_rdata[12] 0
*RES
1 *3676:X s_axil_rdata[12] 44.3595 
*END

*D_NET *177 0.00085693
*CONN
*P s_axil_rdata[13] O
*I *3677:X O *D sg13g2_buf_1
*CAP
1 s_axil_rdata[13] 0.000428465
2 *3677:X 0.000428465
3 s_axil_rdata[13] s_axil_rdata[14] 0
4 s_axil_rdata[13] *3677:A 0
5 s_axil_rdata[13] *767:29 0
6 s_axil_rdata[12] s_axil_rdata[13] 0
*RES
1 *3677:X s_axil_rdata[13] 44.9157 
*END

*D_NET *178 0.000664043
*CONN
*P s_axil_rdata[14] O
*I *3678:X O *D sg13g2_buf_1
*CAP
1 s_axil_rdata[14] 0.000332021
2 *3678:X 0.000332021
3 s_axil_rdata[14] s_axil_rdata[15] 0
4 s_axil_rdata[14] *3677:A 0
5 s_axil_rdata[14] *767:29 0
6 s_axil_rdata[13] s_axil_rdata[14] 0
*RES
1 *3678:X s_axil_rdata[14] 43.8136 
*END

*D_NET *179 0.000747616
*CONN
*P s_axil_rdata[15] O
*I *3679:X O *D sg13g2_buf_1
*CAP
1 s_axil_rdata[15] 0.000373808
2 *3679:X 0.000373808
3 s_axil_rdata[15] s_axil_rdata[16] 0
4 s_axil_rdata[15] *3678:A 0
5 s_axil_rdata[15] *777:29 0
6 s_axil_rdata[14] s_axil_rdata[15] 0
*RES
1 *3679:X s_axil_rdata[15] 44.3595 
*END

*D_NET *180 0.000747289
*CONN
*P s_axil_rdata[16] O
*I *3680:X O *D sg13g2_buf_1
*CAP
1 s_axil_rdata[16] 0.000373644
2 *3680:X 0.000373644
3 s_axil_rdata[16] s_axil_rdata[17] 0
4 s_axil_rdata[15] s_axil_rdata[16] 0
*RES
1 *3680:X s_axil_rdata[16] 44.4831 
*END

*D_NET *181 0.00104137
*CONN
*P s_axil_rdata[17] O
*I *3681:X O *D sg13g2_buf_1
*CAP
1 s_axil_rdata[17] 0.000520687
2 *3681:X 0.000520687
3 s_axil_rdata[17] s_axil_rdata[18] 0
4 s_axil_rdata[17] *3685:A 0
5 s_axil_rdata[17] *775:29 0
6 s_axil_rdata[17] *777:29 0
7 s_axil_rdata[16] s_axil_rdata[17] 0
*RES
1 *3681:X s_axil_rdata[17] 45.7603 
*END

*D_NET *182 0.000970802
*CONN
*P s_axil_rdata[18] O
*I *3682:X O *D sg13g2_buf_1
*CAP
1 s_axil_rdata[18] 0.000485401
2 *3682:X 0.000485401
3 s_axil_rdata[18] s_axil_rdata[19] 0
4 s_axil_rdata[18] *3685:A 0
5 s_axil_rdata[18] *775:29 0
6 s_axil_rdata[17] s_axil_rdata[18] 0
*RES
1 *3682:X s_axil_rdata[18] 45.3483 
*END

*D_NET *183 0.000876877
*CONN
*P s_axil_rdata[19] O
*I *3683:X O *D sg13g2_buf_1
*CAP
1 s_axil_rdata[19] 0.000438438
2 *3683:X 0.000438438
3 s_axil_rdata[19] s_axil_rdata[20] 0
4 s_axil_rdata[19] *3685:A 0
5 s_axil_rdata[19] *185:8 0
6 s_axil_rdata[19] *776:29 0
7 s_axil_rdata[18] s_axil_rdata[19] 0
*RES
1 *3683:X s_axil_rdata[19] 45.1114 
*END

*D_NET *184 0.000563166
*CONN
*P s_axil_rdata[1] O
*I *3684:X O *D sg13g2_buf_1
*CAP
1 s_axil_rdata[1] 0.000281583
2 *3684:X 0.000281583
3 s_axil_rdata[1] s_axil_rdata[2] 0
4 s_axil_rdata[1] *195:8 0
5 s_axil_rdata[0] s_axil_rdata[1] 0
*RES
1 *3684:X s_axil_rdata[1] 43.4943 
*END

*D_NET *185 0.000826725
*CONN
*P s_axil_rdata[20] O
*I *3685:X O *D sg13g2_buf_1
*CAP
1 s_axil_rdata[20] 6.64897e-05
2 *3685:X 0.000346873
3 *185:8 0.000413362
4 *185:8 s_axil_rdata[21] 0
5 s_axil_rdata[19] s_axil_rdata[20] 0
6 s_axil_rdata[19] *185:8 0
*RES
1 *3685:X *185:8 44.0582 
2 *185:8 s_axil_rdata[20] 40.7442 
*END

*D_NET *186 0.00124898
*CONN
*P s_axil_rdata[21] O
*I *3686:X O *D sg13g2_buf_1
*CAP
1 s_axil_rdata[21] 0.000577085
2 *3686:X 0.000577085
3 s_axil_rdata[21] s_axil_rdata[22] 0
4 s_axil_rdata[21] s_axil_rdata[23] 7.94058e-05
5 s_axil_rdata[21] *3688:A 1.54008e-05
6 *185:8 s_axil_rdata[21] 0
*RES
1 *3686:X s_axil_rdata[21] 46.3062 
*END

*D_NET *187 0.00127856
*CONN
*P s_axil_rdata[22] O
*I *3687:X O *D sg13g2_buf_1
*CAP
1 s_axil_rdata[22] 0.000615614
2 *3687:X 0.000615614
3 s_axil_rdata[22] s_axil_rdata[23] 0
4 s_axil_rdata[22] *781:27 4.73361e-05
5 s_axil_rdata[22] *801:25 0
6 s_axil_rdata[21] s_axil_rdata[22] 0
*RES
1 *3687:X s_axil_rdata[22] 47.089 
*END

*D_NET *188 0.00114918
*CONN
*P s_axil_rdata[23] O
*I *3688:X O *D sg13g2_buf_1
*CAP
1 s_axil_rdata[23] 0.000534885
2 *3688:X 0.000534885
3 s_axil_rdata[23] s_axil_rdata[24] 0
4 s_axil_rdata[23] *3688:A 0
5 s_axil_rdata[21] s_axil_rdata[23] 7.94058e-05
6 s_axil_rdata[22] s_axil_rdata[23] 0
*RES
1 *3688:X s_axil_rdata[23] 45.7603 
*END

*D_NET *189 0.0010212
*CONN
*P s_axil_rdata[24] O
*I *3689:X O *D sg13g2_buf_1
*CAP
1 s_axil_rdata[24] 0.000510602
2 *3689:X 0.000510602
3 s_axil_rdata[24] s_axil_rdata[25] 0
4 s_axil_rdata[24] *3688:A 0
5 s_axil_rdata[24] *784:27 0
6 s_axil_rdata[23] s_axil_rdata[24] 0
*RES
1 *3689:X s_axil_rdata[24] 45.3483 
*END

*D_NET *190 0.000904834
*CONN
*P s_axil_rdata[25] O
*I *3690:X O *D sg13g2_buf_1
*CAP
1 s_axil_rdata[25] 0.000428654
2 *3690:X 0.000428654
3 s_axil_rdata[25] s_axil_rdata[26] 0
4 s_axil_rdata[25] *3688:A 4.75265e-05
5 s_axil_rdata[25] *191:8 0
6 s_axil_rdata[24] s_axil_rdata[25] 0
*RES
1 *3690:X s_axil_rdata[25] 45.1114 
*END

*D_NET *191 0.000831876
*CONN
*P s_axil_rdata[26] O
*I *3691:X O *D sg13g2_buf_1
*CAP
1 s_axil_rdata[26] 6.19677e-05
2 *3691:X 0.00035397
3 *191:8 0.000415938
4 *191:8 s_axil_rdata[27] 0
5 s_axil_rdata[25] s_axil_rdata[26] 0
6 s_axil_rdata[25] *191:8 0
*RES
1 *3691:X *191:8 44.0582 
2 *191:8 s_axil_rdata[26] 40.7442 
*END

*D_NET *192 0.00197536
*CONN
*P s_axil_rdata[27] O
*I *3692:X O *D sg13g2_buf_1
*CAP
1 s_axil_rdata[27] 0.000230391
2 *3692:X 0.000757291
3 *192:10 0.000987682
4 s_axil_rdata[27] s_axil_rdata[28] 0
5 *192:10 s_axil_rdata[28] 0
6 *192:10 s_axil_rdata[29] 0
7 *192:10 *3691:A 0
8 *192:10 *3692:A 0
9 *192:10 *789:29 0
10 *191:8 s_axil_rdata[27] 0
*RES
1 *3692:X *192:10 47.622 
2 *192:10 s_axil_rdata[27] 2.68057 
*END

*D_NET *193 0.00126412
*CONN
*P s_axil_rdata[28] O
*I *3693:X O *D sg13g2_buf_1
*CAP
1 s_axil_rdata[28] 0.000544079
2 *3693:X 0.000544079
3 s_axil_rdata[28] s_axil_rdata[29] 0
4 s_axil_rdata[28] *801:25 0.000175959
5 s_axil_rdata[27] s_axil_rdata[28] 0
6 *192:10 s_axil_rdata[28] 0
*RES
1 *3693:X s_axil_rdata[28] 46.3371 
*END

*D_NET *194 0.00117352
*CONN
*P s_axil_rdata[29] O
*I *3694:X O *D sg13g2_buf_1
*CAP
1 s_axil_rdata[29] 0.000586759
2 *3694:X 0.000586759
3 s_axil_rdata[29] s_axil_rdata[30] 0
4 s_axil_rdata[29] *3692:A 0
5 s_axil_rdata[29] *789:29 0
6 s_axil_rdata[28] s_axil_rdata[29] 0
7 *192:10 s_axil_rdata[29] 0
*RES
1 *3694:X s_axil_rdata[29] 45.7603 
*END

*D_NET *195 0.000810639
*CONN
*P s_axil_rdata[2] O
*I *3695:X O *D sg13g2_buf_1
*CAP
1 s_axil_rdata[2] 6.19677e-05
2 *3695:X 0.000343352
3 *195:8 0.000405319
4 *195:8 s_axil_rdata[3] 0
5 s_axil_rdata[1] s_axil_rdata[2] 0
6 s_axil_rdata[1] *195:8 0
*RES
1 *3695:X *195:8 44.0582 
2 *195:8 s_axil_rdata[2] 40.7442 
*END

*D_NET *196 0.00112299
*CONN
*P s_axil_rdata[30] O
*I *3696:X O *D sg13g2_buf_1
*CAP
1 s_axil_rdata[30] 0.000489773
2 *3696:X 0.000489773
3 s_axil_rdata[30] s_axil_rdata[31] 0
4 s_axil_rdata[30] *3692:A 0
5 s_axil_rdata[30] *3696:A 0
6 s_axil_rdata[30] *789:29 0
7 s_axil_rdata[30] *792:10 0.000143449
8 s_axil_rdata[29] s_axil_rdata[30] 0
*RES
1 *3696:X s_axil_rdata[30] 45.3483 
*END

*D_NET *197 0.00100823
*CONN
*P s_axil_rdata[31] O
*I *3697:X O *D sg13g2_buf_1
*CAP
1 s_axil_rdata[31] 0.000504114
2 *3697:X 0.000504114
3 s_axil_rdata[31] s_axil_rresp[0] 0
4 s_axil_rdata[31] *789:29 0
5 s_axil_rdata[30] s_axil_rdata[31] 0
*RES
1 *3697:X s_axil_rdata[31] 45.4719 
*END

*D_NET *198 0.000606834
*CONN
*P s_axil_rdata[3] O
*I *3698:X O *D sg13g2_buf_1
*CAP
1 s_axil_rdata[3] 0.000303417
2 *3698:X 0.000303417
3 s_axil_rdata[3] s_axil_rdata[4] 0
4 *195:8 s_axil_rdata[3] 0
*RES
1 *3698:X s_axil_rdata[3] 43.4943 
*END

*D_NET *199 0.000860507
*CONN
*P s_axil_rdata[4] O
*I *3699:X O *D sg13g2_buf_1
*CAP
1 s_axil_rdata[4] 0.000365273
2 *3699:X 0.000365273
3 s_axil_rdata[4] s_axil_rdata[5] 0
4 s_axil_rdata[4] *796:26 0.000129961
5 s_axil_rdata[3] s_axil_rdata[4] 0
*RES
1 *3699:X s_axil_rdata[4] 44.4831 
*END

*D_NET *200 0.000694439
*CONN
*P s_axil_rdata[5] O
*I *3700:X O *D sg13g2_buf_1
*CAP
1 s_axil_rdata[5] 0.00034722
2 *3700:X 0.00034722
3 s_axil_rdata[5] s_axil_rdata[6] 0
4 s_axil_rdata[4] s_axil_rdata[5] 0
*RES
1 *3700:X s_axil_rdata[5] 43.8136 
*END

*D_NET *201 0.000878497
*CONN
*P s_axil_rdata[6] O
*I *3701:X O *D sg13g2_buf_1
*CAP
1 s_axil_rdata[6] 0.000367524
2 *3701:X 0.000367524
3 s_axil_rdata[6] s_axil_rdata[7] 0
4 s_axil_rdata[6] *763:26 0.000143449
5 s_axil_rdata[5] s_axil_rdata[6] 0
*RES
1 *3701:X s_axil_rdata[6] 44.3595 
*END

*D_NET *202 0.000761507
*CONN
*P s_axil_rdata[7] O
*I *3702:X O *D sg13g2_buf_1
*CAP
1 s_axil_rdata[7] 0.000380754
2 *3702:X 0.000380754
3 s_axil_rdata[7] s_axil_rdata[8] 0
4 s_axil_rdata[6] s_axil_rdata[7] 0
*RES
1 *3702:X s_axil_rdata[7] 44.4831 
*END

*D_NET *203 0.00101696
*CONN
*P s_axil_rdata[8] O
*I *3703:X O *D sg13g2_buf_1
*CAP
1 s_axil_rdata[8] 0.000508478
2 *3703:X 0.000508478
3 s_axil_rdata[8] s_axil_rdata[9] 0
4 s_axil_rdata[8] *1001:8 0
5 s_axil_rdata[7] s_axil_rdata[8] 0
*RES
1 *3703:X s_axil_rdata[8] 45.7603 
*END

*D_NET *204 0.00107764
*CONN
*P s_axil_rdata[9] O
*I *3704:X O *D sg13g2_buf_1
*CAP
1 s_axil_rdata[9] 0.000447712
2 *3704:X 0.000447712
3 s_axil_rdata[9] *801:8 0.000182216
4 s_axil_rdata[9] *1001:8 0
5 s_axil_rdata[10] s_axil_rdata[9] 0
6 s_axil_rdata[8] s_axil_rdata[9] 0
*RES
1 *3704:X s_axil_rdata[9] 45.3483 
*END

*D_NET *206 0.00138866
*CONN
*P s_axil_rresp[0] O
*I *3731:L_LO O *D sg13g2_tielo
*CAP
1 s_axil_rresp[0] 0.000694328
2 *3731:L_LO 0.000694328
3 s_axil_rresp[0] s_axil_rresp[1] 0
4 s_axil_rresp[0] s_axil_rvalid 0
5 s_axil_rresp[0] *2844:A1 0
6 s_axil_rresp[0] *3487:A 0
7 s_axil_rresp[0] *792:10 0
8 s_axil_rresp[0] *801:25 0
9 s_axil_rdata[31] s_axil_rresp[0] 0
*RES
1 *3731:L_LO s_axil_rresp[0] 47.9645 
*END

*D_NET *207 0.000728735
*CONN
*P s_axil_rresp[1] O
*I *3732:L_LO O *D sg13g2_tielo
*CAP
1 s_axil_rresp[1] 0.000364367
2 *3732:L_LO 0.000364367
3 s_axil_rresp[1] s_axil_rvalid 0
4 s_axil_rresp[0] s_axil_rresp[1] 0
*RES
1 *3732:L_LO s_axil_rresp[1] 43.5503 
*END

*D_NET *208 0.00129081
*CONN
*P s_axil_rvalid O
*I *3705:X O *D sg13g2_buf_1
*CAP
1 s_axil_rvalid 0.000597877
2 *3705:X 0.000597877
3 s_axil_rvalid *3692:A 4.75265e-05
4 s_axil_rvalid *801:25 4.75265e-05
5 s_axil_rresp[0] s_axil_rvalid 0
6 s_axil_rresp[1] s_axil_rvalid 0
*RES
1 *3705:X s_axil_rvalid 47.2023 
*END

*D_NET *209 0.00225141
*CONN
*P s_axil_wdata[0] I
*I *3530:A I *D sg13g2_dlygate4sd3_1
*CAP
1 s_axil_wdata[0] 0.0011257
2 *3530:A 0.0011257
3 *3530:A *3538:A 0
4 *3530:A *3598:A 0
5 *3530:A *3613:A 0
6 s_axil_awready *3530:A 0
*RES
1 s_axil_wdata[0] *3530:A 32.8029 
*END

*D_NET *210 0.00225741
*CONN
*P s_axil_wdata[10] I
*I *3546:A I *D sg13g2_dlygate4sd3_1
*CAP
1 s_axil_wdata[10] 0.00108868
2 *3546:A 0.00108868
3 *3546:A *3521:A 8.00496e-05
4 *3546:A *3529:A 0
5 *3546:A *3543:A 0
6 *3546:A *211:11 0
7 *3546:A *240:11 0
8 *3546:A *1104:10 0
9 *3546:A *1128:14 0
*RES
1 s_axil_wdata[10] *3546:A 28.5167 
*END

*D_NET *211 0.00376621
*CONN
*P s_axil_wdata[11] I
*I *3550:A I *D sg13g2_dlygate4sd3_1
*CAP
1 s_axil_wdata[11] 0.00071621
2 *3550:A 0.000296411
3 *211:11 0.00101262
4 *3550:A *3548:A 0.000566514
5 *3550:A *3549:A 0.000566514
6 *211:11 *212:11 0.000607939
7 *211:11 *213:9 0
8 *211:11 *240:11 0
9 *3546:A *211:11 0
*RES
1 s_axil_wdata[11] *211:11 48.9816 
2 *211:11 *3550:A 23.7801 
*END

*D_NET *212 0.00352472
*CONN
*P s_axil_wdata[12] I
*I *3549:A I *D sg13g2_dlygate4sd3_1
*CAP
1 s_axil_wdata[12] 0.000598244
2 *3549:A 0.00057689
3 *212:11 0.00117513
4 *3549:A *3543:A 0
5 *3549:A *3548:A 0
6 *3549:A *213:9 0
7 *3549:A *1136:10 0
8 *212:11 *3543:A 0
9 *212:11 *213:9 0
10 *212:11 *240:11 0
11 *3550:A *3549:A 0.000566514
12 *211:11 *212:11 0.000607939
*RES
1 s_axil_wdata[12] *212:11 47.5293 
2 *212:11 *3549:A 26.1594 
*END

*D_NET *213 0.00291119
*CONN
*P s_axil_wdata[13] I
*I *3542:A I *D sg13g2_dlygate4sd3_1
*CAP
1 s_axil_wdata[13] 0.000988854
2 *3542:A 0.000117271
3 *213:9 0.00110612
4 *3542:A *3500:A 0
5 *3542:A *217:9 0.00019697
6 *213:9 *3543:A 0.000501968
7 *213:9 *3548:A 0
8 *213:9 *1034:12 0
9 *3549:A *213:9 0
10 *211:11 *213:9 0
11 *212:11 *213:9 0
*RES
1 s_axil_wdata[13] *213:9 28.2289 
2 *213:9 *3542:A 41.3158 
*END

*D_NET *214 0.00293126
*CONN
*P s_axil_wdata[14] I
*I *3548:A I *D sg13g2_dlygate4sd3_1
*CAP
1 s_axil_wdata[14] 0.00106128
2 *3548:A 0.00106128
3 *3548:A *215:11 0
4 *3548:A *216:11 0
5 *3548:A *217:9 0
6 *3548:A *1127:10 0.000242181
7 *3549:A *3548:A 0
8 *3550:A *3548:A 0.000566514
9 *213:9 *3548:A 0
*RES
1 s_axil_wdata[14] *3548:A 32.2055 
*END

*D_NET *215 0.00419831
*CONN
*P s_axil_wdata[15] I
*I *3545:A I *D sg13g2_dlygate4sd3_1
*CAP
1 s_axil_wdata[15] 0.000646618
2 *3545:A 0.000382504
3 *215:11 0.00102912
4 *3545:A *3500:A 0.00069638
5 *3545:A *219:17 0.000728853
6 *215:11 *216:11 0.000714834
7 *3548:A *215:11 0
*RES
1 s_axil_wdata[15] *215:11 48.3945 
2 *215:11 *3545:A 24.8616 
*END

*D_NET *216 0.00405433
*CONN
*P s_axil_wdata[16] I
*I *3500:A I *D sg13g2_dlygate4sd3_1
*CAP
1 s_axil_wdata[16] 0.000592535
2 *3500:A 0.000591928
3 *216:11 0.00118446
4 *3500:A *217:9 0
5 *3500:A *218:9 0
6 *3500:A *1083:14 0.000274189
7 *216:11 *217:9 0
8 *216:11 *218:9 0
9 *3542:A *3500:A 0
10 *3545:A *3500:A 0.00069638
11 *3548:A *216:11 0
12 *215:11 *216:11 0.000714834
*RES
1 s_axil_wdata[16] *216:11 44.0924 
2 *216:11 *3500:A 26.8083 
*END

*D_NET *217 0.00352483
*CONN
*P s_axil_wdata[17] I
*I *3502:A I *D sg13g2_dlygate4sd3_1
*CAP
1 s_axil_wdata[17] 0.00114634
2 *3502:A 0
3 *217:9 0.00114634
4 *217:9 *218:9 0
5 *217:9 *1034:12 0.00103519
6 *217:9 *1165:18 0
7 *3500:A *217:9 0
8 *3542:A *217:9 0.00019697
9 *3548:A *217:9 0
10 *216:11 *217:9 0
*RES
1 s_axil_wdata[17] *217:9 29.9331 
2 *217:9 *3502:A 40 
*END

*D_NET *218 0.00380379
*CONN
*P s_axil_wdata[18] I
*I *3508:A I *D sg13g2_dlygate4sd3_1
*CAP
1 s_axil_wdata[18] 0.000888155
2 *3508:A 0.000356195
3 *218:9 0.00124435
4 *3508:A *225:13 0.000630779
5 *218:9 *219:17 0
6 *218:9 *222:11 0
7 *218:9 *223:9 0.000448842
8 *218:9 *224:11 0.00023547
9 *3500:A *218:9 0
10 *216:11 *218:9 0
11 *217:9 *218:9 0
*RES
1 s_axil_wdata[18] *218:9 30.5266 
2 *218:9 *3508:A 44.2127 
*END

*D_NET *219 0.00428523
*CONN
*P s_axil_wdata[19] I
*I *3504:A I *D sg13g2_dlygate4sd3_1
*CAP
1 s_axil_wdata[19] 0.00130917
2 *3504:A 0
3 *219:17 0.00130917
4 *219:17 *2694:A 0.000273699
5 *219:17 *221:9 0.000664339
6 *219:17 *1083:14 0
7 *219:17 *1089:12 0
8 *3545:A *219:17 0.000728853
9 *218:9 *219:17 0
*RES
1 s_axil_wdata[19] *219:17 34.9865 
2 *219:17 *3504:A 40 
*END

*D_NET *220 0.00170162
*CONN
*P s_axil_wdata[1] I
*I *3538:A I *D sg13g2_dlygate4sd3_1
*CAP
1 s_axil_wdata[1] 0.00085081
2 *3538:A 0.00085081
3 *3538:A *3536:A 0
4 *3538:A *231:11 0
5 *3530:A *3538:A 0
*RES
1 s_axil_wdata[1] *3538:A 29.3009 
*END

*D_NET *221 0.00345341
*CONN
*P s_axil_wdata[20] I
*I *3514:A I *D sg13g2_dlygate4sd3_1
*CAP
1 s_axil_wdata[20] 0.00122869
2 *3514:A 0.000104704
3 *221:9 0.00133339
4 *3514:A *3522:A 0
5 *3514:A *227:9 4.71556e-05
6 *221:9 *222:11 0
7 *221:9 *223:9 0
8 *221:9 *227:9 7.51285e-05
9 *221:9 *1034:12 0
10 *219:17 *221:9 0.000664339
*RES
1 s_axil_wdata[20] *221:9 31.1935 
2 *221:9 *3514:A 40.9682 
*END

*D_NET *222 0.00309962
*CONN
*P s_axil_wdata[21] I
*I *3522:A I *D sg13g2_dlygate4sd3_1
*CAP
1 s_axil_wdata[21] 0.000803758
2 *3522:A 0.00074605
3 *222:11 0.00154981
4 *3522:A *3603:A 0
5 *3522:A *3605:A 0
6 *3522:A *225:13 0
7 *3522:A *226:11 0
8 *3522:A *227:9 0
9 *3522:A *1096:14 0
10 *3522:A *1166:22 0
11 *222:11 *223:9 0
12 *222:11 *224:11 0
13 *3514:A *3522:A 0
14 *218:9 *222:11 0
15 *221:9 *222:11 0
*RES
1 s_axil_wdata[21] *222:11 48.3945 
2 *222:11 *3522:A 27.0246 
*END

*D_NET *223 0.00369444
*CONN
*P s_axil_wdata[22] I
*I *3511:A I *D sg13g2_dlygate4sd3_1
*CAP
1 s_axil_wdata[22] 0.000858667
2 *3511:A 0.000380363
3 *223:9 0.00123903
4 *3511:A *3525:A 0
5 *3511:A *3526:A 0
6 *223:9 *224:11 0
7 *223:9 *225:13 0
8 *223:9 *226:11 0.000767536
9 *218:9 *223:9 0.000448842
10 *221:9 *223:9 0
11 *222:11 *223:9 0
*RES
1 s_axil_wdata[22] *223:9 27.9549 
2 *223:9 *3511:A 43.9964 
*END

*D_NET *224 0.0040734
*CONN
*P s_axil_wdata[23] I
*I *3526:A I *D sg13g2_dlygate4sd3_1
*CAP
1 s_axil_wdata[23] 0.000795767
2 *3526:A 0.000617806
3 *224:11 0.00141357
4 *3526:A *3525:A 0
5 *3526:A *227:9 0
6 *3526:A *1121:10 0
7 *3526:A *1166:22 0.000403263
8 *224:11 *225:13 0
9 *224:11 *226:11 0.000607523
10 *224:11 *228:11 0
11 *3511:A *3526:A 0
12 *218:9 *224:11 0.00023547
13 *222:11 *224:11 0
14 *223:9 *224:11 0
*RES
1 s_axil_wdata[23] *224:11 49.0743 
2 *224:11 *3526:A 26.592 
*END

*D_NET *225 0.00471754
*CONN
*P s_axil_wdata[24] I
*I *3537:A I *D sg13g2_dlygate4sd3_1
*CAP
1 s_axil_wdata[24] 0.00134059
2 *3537:A 0
3 *225:13 0.00134059
4 *225:13 *226:11 0
5 *225:13 *1034:12 0.00140558
6 *225:13 *1165:18 0
7 *3508:A *225:13 0.000630779
8 *3522:A *225:13 0
9 *223:9 *225:13 0
10 *224:11 *225:13 0
*RES
1 s_axil_wdata[24] *225:13 35.5839 
2 *225:13 *3537:A 40 
*END

*D_NET *226 0.00597156
*CONN
*P s_axil_wdata[25] I
*I *3539:A I *D sg13g2_dlygate4sd3_1
*CAP
1 s_axil_wdata[25] 0.000723179
2 *3539:A 0.000502588
3 *226:11 0.00122577
4 *3539:A *3525:A 0.000955162
5 *3539:A *3533:A 0.000955162
6 *226:11 *227:9 0
7 *226:11 *229:11 0
8 *226:11 *230:9 0.00023464
9 *3522:A *226:11 0
10 *223:9 *226:11 0.000767536
11 *224:11 *226:11 0.000607523
12 *225:13 *226:11 0
*RES
1 s_axil_wdata[25] *226:11 46.5282 
2 *226:11 *3539:A 26.3757 
*END

*D_NET *227 0.00412704
*CONN
*P s_axil_wdata[26] I
*I *3524:A I *D sg13g2_dlygate4sd3_1
*CAP
1 s_axil_wdata[26] 0.00125842
2 *3524:A 6.71471e-05
3 *227:9 0.00132557
4 *3524:A *3535:A 0.000112426
5 *3524:A *1034:20 4.77425e-05
6 *227:9 *228:11 0
7 *227:9 *229:11 0
8 *227:9 *1034:12 0
9 *227:9 *1166:22 0.00119345
10 *3514:A *227:9 4.71556e-05
11 *3522:A *227:9 0
12 *3526:A *227:9 0
13 *221:9 *227:9 7.51285e-05
14 *226:11 *227:9 0
*RES
1 s_axil_wdata[26] *227:9 31.7818 
2 *227:9 *3524:A 40.7519 
*END

*D_NET *228 0.00413857
*CONN
*P s_axil_wdata[27] I
*I *3525:A I *D sg13g2_dlygate4sd3_1
*CAP
1 s_axil_wdata[27] 0.000555361
2 *3525:A 0.000839059
3 *228:11 0.00139442
4 *3525:A *3035:A2 0
5 *3525:A *3533:A 0
6 *3525:A *230:9 0
7 *3525:A *1121:10 0
8 *3525:A *1166:22 0
9 *228:11 *229:11 0.000394566
10 *3511:A *3525:A 0
11 *3526:A *3525:A 0
12 *3539:A *3525:A 0.000955162
13 *224:11 *228:11 0
14 *227:9 *228:11 0
*RES
1 s_axil_wdata[27] *228:11 46.6641 
2 *228:11 *3525:A 29.1052 
*END

*D_NET *229 0.00375491
*CONN
*P s_axil_wdata[28] I
*I *3547:A I *D sg13g2_dlygate4sd3_1
*CAP
1 s_axil_wdata[28] 0.000592558
2 *3547:A 0.00057756
3 *229:11 0.00117012
4 *3547:A *3533:A 0.00102011
5 *3547:A *3535:A 0
6 *229:11 *230:9 0
7 *226:11 *229:11 0
8 *227:9 *229:11 0
9 *228:11 *229:11 0.000394566
*RES
1 s_axil_wdata[28] *229:11 43.3508 
2 *229:11 *3547:A 26.8083 
*END

*D_NET *230 0.00327634
*CONN
*P s_axil_wdata[29] I
*I *3534:A I *D sg13g2_dlygate4sd3_1
*CAP
1 s_axil_wdata[29] 0.000979993
2 *3534:A 0.000403017
3 *230:9 0.00138301
4 *3534:A *3518:A 0
5 *3534:A *3544:A 0.000200462
6 *230:9 *3533:A 0
7 *230:9 *233:11 0
8 *230:9 *242:11 0
9 *230:9 *244:11 0
10 *230:9 *245:11 7.52158e-05
11 *3525:A *230:9 0
12 *226:11 *230:9 0.00023464
13 *229:11 *230:9 0
*RES
1 s_axil_wdata[29] *230:9 30.9901 
2 *230:9 *3534:A 43.9964 
*END

*D_NET *231 0.00257046
*CONN
*P s_axil_wdata[2] I
*I *3520:A I *D sg13g2_dlygate4sd3_1
*CAP
1 s_axil_wdata[2] 0.000567931
2 *3520:A 0.000662143
3 *231:11 0.00123007
4 *3520:A *3215:D 1.53099e-05
5 *3520:A *3506:A 0
6 *3520:A *3536:A 0
7 *3520:A *3540:A 0
8 *3520:A *235:15 4.78524e-05
9 *3520:A *1087:10 4.7154e-05
10 *3520:A *1125:12 0
11 *3520:A *1165:22 0
12 *231:11 *3536:A 0
13 *3538:A *231:11 0
*RES
1 s_axil_wdata[2] *231:11 45.6849 
2 *231:11 *3520:A 27.0246 
*END

*D_NET *232 0.00426119
*CONN
*P s_axil_wdata[30] I
*I *3533:A I *D sg13g2_dlygate4sd3_1
*CAP
1 s_axil_wdata[30] 0.00114296
2 *3533:A 0.00114296
3 *3533:A *3035:B1 0
4 *3533:A *3608:A 0
5 *3533:A *233:11 0
6 *3533:A *242:11 0
7 *3533:A *895:88 0
8 *3525:A *3533:A 0
9 *3539:A *3533:A 0.000955162
10 *3547:A *3533:A 0.00102011
11 *230:9 *3533:A 0
*RES
1 s_axil_wdata[30] *3533:A 33.2973 
*END

*D_NET *233 0.00309353
*CONN
*P s_axil_wdata[31] I
*I *3535:A I *D sg13g2_dlygate4sd3_1
*CAP
1 s_axil_wdata[31] 0.000479131
2 *3535:A 0.000648761
3 *233:11 0.00112789
4 *3535:A *3544:A 0.000543715
5 *3535:A *1034:20 0
6 *233:11 *242:11 0.000181608
7 *3524:A *3535:A 0.000112426
8 *3533:A *233:11 0
9 *3547:A *3535:A 0
10 *230:9 *233:11 0
*RES
1 s_axil_wdata[31] *233:11 42.6657 
2 *233:11 *3535:A 27.0246 
*END

*D_NET *234 0.00162503
*CONN
*P s_axil_wdata[3] I
*I *3536:A I *D sg13g2_dlygate4sd3_1
*CAP
1 s_axil_wdata[3] 0.000812517
2 *3536:A 0.000812517
3 *3536:A *235:15 0
4 *3520:A *3536:A 0
5 *3538:A *3536:A 0
6 *231:11 *3536:A 0
*RES
1 s_axil_wdata[3] *3536:A 29.3571 
*END

*D_NET *235 0.00309839
*CONN
*P s_axil_wdata[4] I
*I *3540:A I *D sg13g2_dlygate4sd3_1
*CAP
1 s_axil_wdata[4] 0.000549857
2 *3540:A 0.000719659
3 *235:15 0.00126952
4 *3540:A *3506:A 0
5 *3540:A *3517:A 0.000511504
6 *3540:A *3529:A 0
7 *3540:A *1125:12 0
8 *235:15 *3506:A 0
9 *3520:A *3540:A 0
10 *3520:A *235:15 4.78524e-05
11 *3536:A *235:15 0
*RES
1 s_axil_wdata[4] *235:15 46.592 
2 *235:15 *3540:A 27.6117 
*END

*D_NET *236 0.00172967
*CONN
*P s_axil_wdata[5] I
*I *3506:A I *D sg13g2_dlygate4sd3_1
*CAP
1 s_axil_wdata[5] 0.000864834
2 *3506:A 0.000864834
3 *3506:A *3517:A 0
4 *3520:A *3506:A 0
5 *3540:A *3506:A 0
6 *235:15 *3506:A 0
*RES
1 s_axil_wdata[5] *3506:A 29.8983 
*END

*D_NET *237 0.00254572
*CONN
*P s_axil_wdata[6] I
*I *3517:A I *D sg13g2_dlygate4sd3_1
*CAP
1 s_axil_wdata[6] 0.00101711
2 *3517:A 0.00101711
3 *3517:A *3529:A 0
4 *3517:A *238:11 0
5 *3506:A *3517:A 0
6 *3540:A *3517:A 0.000511504
*RES
1 s_axil_wdata[6] *3517:A 31.2435 
*END

*D_NET *238 0.00251762
*CONN
*P s_axil_wdata[7] I
*I *3521:A I *D sg13g2_dlygate4sd3_1
*CAP
1 s_axil_wdata[7] 0.000571225
2 *3521:A 0.000586123
3 *238:11 0.00115735
4 *3521:A *3529:A 0
5 *3521:A *240:11 4.77425e-05
6 *238:11 *3529:A 0
7 *238:11 *240:11 7.51285e-05
8 *3517:A *238:11 0
9 *3546:A *3521:A 8.00496e-05
*RES
1 s_axil_wdata[7] *238:11 45.9321 
2 *238:11 *3521:A 26.3036 
*END

*D_NET *239 0.00239316
*CONN
*P s_axil_wdata[8] I
*I *3529:A I *D sg13g2_dlygate4sd3_1
*CAP
1 s_axil_wdata[8] 0.00107621
2 *3529:A 0.00107621
3 *3529:A *240:11 0
4 *3529:A *1104:10 0.000240738
5 *3517:A *3529:A 0
6 *3521:A *3529:A 0
7 *3540:A *3529:A 0
8 *3546:A *3529:A 0
9 *238:11 *3529:A 0
*RES
1 s_axil_wdata[8] *3529:A 31.4639 
*END

*D_NET *240 0.00292557
*CONN
*P s_axil_wdata[9] I
*I *3543:A I *D sg13g2_dlygate4sd3_1
*CAP
1 s_axil_wdata[9] 0.000747363
2 *3543:A 0.000403002
3 *240:11 0.00115036
4 *3521:A *240:11 4.77425e-05
5 *3529:A *240:11 0
6 *3546:A *3543:A 0
7 *3546:A *240:11 0
8 *3549:A *3543:A 0
9 *211:11 *240:11 0
10 *212:11 *3543:A 0
11 *212:11 *240:11 0
12 *213:9 *3543:A 0.000501968
13 *238:11 *240:11 7.51285e-05
*RES
1 s_axil_wdata[9] *240:11 47.6316 
2 *240:11 *3543:A 24.6453 
*END

*D_NET *241 0.00481022
*CONN
*P s_axil_wready O
*I *3706:X O *D sg13g2_buf_1
*CAP
1 s_axil_wready 0.000682886
2 *3706:X 0.00129001
3 *241:12 0.0019729
4 s_axil_wready *244:11 0
5 s_axil_wready *245:11 0
6 s_axil_wready *246:9 0
7 *241:12 *2848:A 8.01776e-05
8 *241:12 *3191:RESET_B 0
9 *241:12 *375:8 0
10 *241:12 *491:10 0
11 *241:12 *709:42 0
12 *241:12 *709:50 0
13 *241:12 *982:12 0
14 *241:12 *1028:10 0.000240405
15 *241:12 *1051:12 0
16 s_axil_bresp[0] s_axil_wready 0
17 s_axil_bresp[1] *241:12 0
18 s_axil_bvalid *241:12 0.000543846
*RES
1 *3706:X *241:12 33.0192 
2 *241:12 s_axil_wready 47.6529 
*END

*D_NET *242 0.00292783
*CONN
*P s_axil_wstrb[0] I
*I *3518:A I *D sg13g2_dlygate4sd3_1
*CAP
1 s_axil_wstrb[0] 0.00064657
2 *3518:A 0.000473013
3 *242:11 0.00111958
4 *3518:A *3519:A 0
5 *3518:A *246:9 0.000112486
6 *242:11 *3544:A 0
7 *242:11 *244:11 0.000394566
8 *3533:A *242:11 0
9 *3534:A *3518:A 0
10 *230:9 *242:11 0
11 *233:11 *242:11 0.000181608
*RES
1 s_axil_wstrb[0] *242:11 47.8692 
2 *242:11 *3518:A 24.6453 
*END

*D_NET *243 0.00292968
*CONN
*P s_axil_wstrb[1] I
*I *3544:A I *D sg13g2_dlygate4sd3_1
*CAP
1 s_axil_wstrb[1] 0.00109275
2 *3544:A 0.00109275
3 *3544:A *3609:A 0
4 *3544:A *3621:A 0
5 *3544:A *244:11 0
6 *3544:A *245:11 0
7 *3544:A *1034:20 0
8 *3544:A *1129:10 0
9 *3534:A *3544:A 0.000200462
10 *3535:A *3544:A 0.000543715
11 *242:11 *3544:A 0
*RES
1 s_axil_wstrb[1] *3544:A 29.7527 
*END

*D_NET *244 0.00316707
*CONN
*P s_axil_wstrb[2] I
*I *3519:A I *D sg13g2_dlygate4sd3_1
*CAP
1 s_axil_wstrb[2] 0.000654975
2 *3519:A 0.000400583
3 *244:11 0.00105556
4 *3519:A *3531:A 0
5 *244:11 *245:11 0.000661386
6 s_axil_wready *244:11 0
7 *3518:A *3519:A 0
8 *3544:A *244:11 0
9 *230:9 *244:11 0
10 *242:11 *244:11 0.000394566
*RES
1 s_axil_wstrb[2] *244:11 48.3327 
2 *244:11 *3519:A 24.429 
*END

*D_NET *245 0.00464793
*CONN
*P s_axil_wstrb[3] I
*I *3531:A I *D sg13g2_dlygate4sd3_1
*CAP
1 s_axil_wstrb[3] 0.000602558
2 *3531:A 0.000544492
3 *245:11 0.00114705
4 *3531:A *3621:A 0
5 *3531:A *1129:10 0
6 *245:11 *246:9 0.000661801
7 s_axil_bresp[0] *3531:A 0.000955425
8 s_axil_wready *245:11 0
9 *3519:A *3531:A 0
10 *3544:A *245:11 0
11 *230:9 *245:11 7.52158e-05
12 *244:11 *245:11 0.000661386
*RES
1 s_axil_wstrb[3] *245:11 48.549 
2 *245:11 *3531:A 26.3757 
*END

*D_NET *246 0.00334764
*CONN
*P s_axil_wvalid I
*I *3473:A I *D sg13g2_dlygate4sd3_1
*CAP
1 s_axil_wvalid 0.000863206
2 *3473:A 0.000423473
3 *246:9 0.00128668
4 s_axil_bvalid *3473:A 0
5 s_axil_wready *246:9 0
6 *3452:A *3473:A 0
7 *3518:A *246:9 0.000112486
8 *245:11 *246:9 0.000661801
*RES
1 s_axil_wvalid *246:9 30.7429 
2 *246:9 *3473:A 43.9964 
*END

*D_NET *247 0.000281824
*CONN
*I *3121:D I *D sg13g2_dfrbpq_1
*I *2714:Y O *D sg13g2_inv_1
*CAP
1 *3121:D 0.000140912
2 *2714:Y 0.000140912
3 *3121:D *2714:A 0
4 *3121:D *2847:A 0
5 *3121:D *3121:RESET_B 0
6 *3121:D *1186:39 0
*RES
1 *2714:Y *3121:D 41.5347 
*END

*D_NET *248 0.00117338
*CONN
*I *3123:D I *D sg13g2_dfrbpq_1
*I *2721:Y O *D sg13g2_a21oi_1
*CAP
1 *3123:D 0.000203038
2 *2721:Y 0.000383652
3 *248:8 0.00058669
4 *3123:D *3123:RESET_B 0
5 *248:8 *396:8 0
6 *248:8 *968:12 0
*RES
1 *2721:Y *248:8 44.0582 
2 *248:8 *3123:D 42.1321 
*END

*D_NET *249 0.00135644
*CONN
*I *3125:D I *D sg13g2_dfrbpq_1
*I *2725:Y O *D sg13g2_a21oi_1
*CAP
1 *3125:D 0.000329644
2 *2725:Y 0.000197443
3 *249:10 0.000527087
4 *3125:D *3551:A 0
5 *3125:D *399:22 0
6 *3125:D *1030:10 0.000143728
7 *249:10 *727:8 0
8 *249:10 *749:8 7.90445e-05
9 *249:10 *1029:8 0
10 *249:10 *1078:28 7.94969e-05
11 *3456:A *3125:D 0
*RES
1 *2725:Y *249:10 41.6274 
2 *249:10 *3125:D 43.0488 
*END

*D_NET *250 0.00227233
*CONN
*I *3127:D I *D sg13g2_dfrbpq_1
*I *2729:Y O *D sg13g2_a21oi_1
*CAP
1 *3127:D 0
2 *2729:Y 0.00101039
3 *250:12 0.00101039
4 *250:12 *2729:B1 0
5 *250:12 *402:10 0.00012559
6 *250:12 *407:20 0
7 *250:12 *699:24 0
8 *250:12 *699:26 0
9 *250:12 *740:44 0.000125963
10 *250:12 *828:59 0
11 *250:12 *828:74 0
12 *250:12 *901:20 0
*RES
1 *2729:Y *250:12 49.7026 
2 *250:12 *3127:D 40 
*END

*D_NET *251 0.00132528
*CONN
*I *3129:D I *D sg13g2_dfrbpq_1
*I *2733:Y O *D sg13g2_a21oi_1
*CAP
1 *3129:D 0.000127107
2 *2733:Y 0.000140895
3 *251:8 0.000268002
4 *3129:D *757:51 0.000224401
5 *3129:D *1045:10 0.000224588
6 *251:8 *833:99 0.000340288
*RES
1 *2733:Y *251:8 41.5862 
2 *251:8 *3129:D 41.5089 
*END

*D_NET *252 0.00152149
*CONN
*I *3131:D I *D sg13g2_dfrbpq_1
*I *2737:Y O *D sg13g2_a21oi_1
*CAP
1 *3131:D 0
2 *2737:Y 0.00067205
3 *252:10 0.00067205
4 *252:10 *2737:A1 0.000177394
5 *252:10 *2737:B1 0
6 *252:10 *740:36 0
7 *252:10 *1172:30 0
*RES
1 *2737:Y *252:10 47.2203 
2 *252:10 *3131:D 40 
*END

*D_NET *253 0.000694654
*CONN
*I *3133:D I *D sg13g2_dfrbpq_1
*I *2741:Y O *D sg13g2_a21oi_1
*CAP
1 *3133:D 0.000105893
2 *2741:Y 0.000152735
3 *253:8 0.000258627
4 *3133:D *3145:CLK 0.000177399
5 *3133:D *410:14 0
6 *253:8 *646:37 0
7 *253:8 *978:8 0
*RES
1 *2741:Y *253:8 41.5862 
2 *253:8 *3133:D 41.1845 
*END

*D_NET *254 0.00138715
*CONN
*I *3460:A I *D sg13g2_dlygate4sd3_1
*I *2745:Y O *D sg13g2_a21oi_1
*CAP
1 *3460:A 5.10268e-05
2 *2745:Y 0.000105796
3 *254:8 0.000156823
4 *254:8 *782:16 0.000496503
5 *254:8 *793:12 0.000496917
6 *79:12 *3460:A 8.00842e-05
*RES
1 *2745:Y *254:8 42.3278 
2 *254:8 *3460:A 40.5356 
*END

*D_NET *255 0.00233193
*CONN
*I *3137:D I *D sg13g2_dfrbpq_1
*I *2749:Y O *D sg13g2_a21oi_1
*CAP
1 *3137:D 0.000463359
2 *2749:Y 4.9791e-05
3 *255:10 0.00051315
4 *3137:D *2749:B1 0
5 *3137:D *3137:RESET_B 0
6 *3137:D *1058:22 0.000661851
7 *255:10 *3137:RESET_B 4.71556e-05
8 *255:10 *433:10 0.00012816
9 *255:10 *826:14 0.000130017
10 *3488:A *3137:D 0.000338449
*RES
1 *2749:Y *255:10 40.9167 
2 *255:10 *3137:D 45.2118 
*END

*D_NET *256 0.00100428
*CONN
*I *3472:A I *D sg13g2_dlygate4sd3_1
*I *2753:Y O *D sg13g2_a21oi_1
*CAP
1 *3472:A 3.04198e-05
2 *2753:Y 0.000198564
3 *256:8 0.000228984
4 *3472:A *834:93 4.77425e-05
5 *256:8 *2757:A2 0
6 *256:8 *418:10 0
7 *256:8 *420:8 0.00049857
8 *256:8 *721:71 0
*RES
1 *2753:Y *256:8 42.575 
2 *256:8 *3472:A 40.3193 
*END

*D_NET *257 0.00133577
*CONN
*I *3485:A I *D sg13g2_dlygate4sd3_1
*I *2757:Y O *D sg13g2_a21oi_1
*CAP
1 *3485:A 6.37923e-05
2 *2757:Y 0.000107419
3 *257:8 0.000171212
4 *257:8 *721:71 0.000496562
5 *257:8 *834:23 0.000496785
*RES
1 *2757:Y *257:8 42.3278 
2 *257:8 *3485:A 40.5356 
*END

*D_NET *258 0.00115657
*CONN
*I *3494:A I *D sg13g2_dlygate4sd3_1
*I *2761:Y O *D sg13g2_a21oi_1
*CAP
1 *3494:A 8.03606e-05
2 *2761:Y 0.000353534
3 *258:10 0.000433894
4 *3494:A *722:59 0.000144389
5 *3494:A *754:47 0.000144389
6 *258:10 *3143:D 0
7 *258:10 *425:14 0
8 *258:10 *772:25 0
9 *258:10 *1175:44 0
*RES
1 *2761:Y *258:10 43.1106 
2 *258:10 *3494:A 40.9682 
*END

*D_NET *259 0.00182521
*CONN
*I *3145:D I *D sg13g2_dfrbpq_1
*I *2765:Y O *D sg13g2_a21oi_1
*CAP
1 *3145:D 0.000167648
2 *2765:Y 0
3 *259:14 0.000562277
4 *259:6 0.000394629
5 *3145:D *2737:B1 0
6 *3145:D *721:44 4.79124e-05
7 *3145:D *795:24 0
8 *259:14 *721:44 0
9 *259:14 *756:34 0
10 *259:14 *757:31 0
11 *259:14 *833:42 0.000652748
*RES
1 *2765:Y *259:6 40 
2 *259:6 *259:14 44.5011 
3 *259:14 *3145:D 41.5347 
*END

*D_NET *260 0.000575649
*CONN
*I *3451:A I *D sg13g2_dlygate4sd3_1
*I *2769:Y O *D sg13g2_a21oi_1
*CAP
1 *3451:A 0.000216146
2 *2769:Y 0.000216146
3 *3451:A *2769:A1 0.000143358
4 *3451:A *731:33 0
5 *3451:A *755:33 0
*RES
1 *2769:Y *3451:A 41.9673 
*END

*D_NET *261 0.00116788
*CONN
*I *3462:A I *D sg13g2_dlygate4sd3_1
*I *2773:Y O *D sg13g2_a21oi_1
*CAP
1 *3462:A 5.10268e-05
2 *2773:Y 0.000262525
3 *261:10 0.000313552
4 *3462:A *2783:B2 8.00842e-05
5 *261:10 *2783:A1 7.34081e-05
6 *261:10 *762:37 0.000387288
7 *261:10 *815:20 0
*RES
1 *2773:Y *261:10 42.6471 
2 *261:10 *3462:A 40.5356 
*END

*D_NET *262 0.00101746
*CONN
*I *3470:A I *D sg13g2_dlygate4sd3_1
*I *2777:Y O *D sg13g2_a21oi_1
*CAP
1 *3470:A 6.31886e-05
2 *2777:Y 0.000199661
3 *262:8 0.000262849
4 *262:8 *722:45 0.000491757
5 *262:8 *769:31 0
6 *262:8 *1175:10 0
*RES
1 *2777:Y *262:8 42.3278 
2 *262:8 *3470:A 40.5356 
*END

*D_NET *263 0.00123641
*CONN
*I *3467:A I *D sg13g2_dlygate4sd3_1
*I *2781:Y O *D sg13g2_a21oi_1
*CAP
1 *3467:A 6.13589e-05
2 *2781:Y 0.000195967
3 *263:8 0.000257326
4 *3467:A *441:14 0.000112426
5 *3467:A *745:28 0.000112426
6 *263:8 *446:12 0.00049691
7 *263:8 *1173:40 0
*RES
1 *2781:Y *263:8 42.3278 
2 *263:8 *3467:A 40.7519 
*END

*D_NET *264 0.00115192
*CONN
*I *3155:D I *D sg13g2_dfrbpq_1
*I *2785:Y O *D sg13g2_a21oi_1
*CAP
1 *3155:D 0.000142987
2 *2785:Y 0.000264684
3 *264:10 0.000407671
4 *3155:D *3157:CLK 0.000176781
5 *3155:D *697:297 0
6 *264:10 *389:20 0
7 *264:10 *831:43 0
8 *264:10 *843:23 0
9 *264:10 *1175:56 7.97013e-05
10 *264:10 *1187:43 8.00995e-05
*RES
1 *2785:Y *264:10 42.369 
2 *264:10 *3155:D 41.5347 
*END

*D_NET *265 0.00080468
*CONN
*I *3157:D I *D sg13g2_dfrbpq_1
*I *2789:Y O *D sg13g2_a21oi_1
*CAP
1 *3157:D 8.05011e-05
2 *2789:Y 0.000117271
3 *265:8 0.000197772
4 *3157:D *2786:A2 1.54008e-05
5 *265:8 *443:18 0
6 *265:8 *843:23 0.000393736
*RES
1 *2789:Y *265:8 41.8334 
2 *265:8 *3157:D 40.7519 
*END

*D_NET *266 0.0019748
*CONN
*I *3476:A I *D sg13g2_dlygate4sd3_1
*I *2793:Y O *D sg13g2_a21oi_1
*CAP
1 *3476:A 0.000119073
2 *2793:Y 0.000106839
3 *266:8 0.000225912
4 *3476:A *750:26 0.000208195
5 *3476:A *832:66 0.000208195
6 *266:8 *393:37 0.000553247
7 *266:8 *448:10 0.000553344
*RES
1 *2793:Y *266:8 42.575 
2 *266:8 *3476:A 41.4008 
*END

*D_NET *267 0.00165885
*CONN
*I *3161:D I *D sg13g2_dfrbpq_1
*I *2797:Y O *D sg13g2_a21oi_1
*CAP
1 *3161:D 0.000135962
2 *2797:Y 0.000290317
3 *267:10 0.000426279
4 *3161:D *1180:37 0
5 *3161:D *1190:31 0.000208824
6 *267:10 *2797:A1 0.000144894
7 *267:10 *2797:B1 0.000112426
8 *267:10 *453:10 0.000340146
9 *267:10 *719:37 0
10 *267:10 *770:32 0
11 *267:10 *1180:37 0
*RES
1 *2797:Y *267:10 43.0179 
2 *267:10 *3161:D 41.4008 
*END

*D_NET *268 0.000329736
*CONN
*I *3163:D I *D sg13g2_dfrbpq_1
*I *2801:Y O *D sg13g2_a21oi_1
*CAP
1 *3163:D 6.84928e-05
2 *2801:Y 9.63752e-05
3 *268:8 0.000164868
4 *268:8 *774:23 0
*RES
1 *2801:Y *268:8 40.8446 
2 *268:8 *3163:D 40.5356 
*END

*D_NET *269 0.000877403
*CONN
*I *3165:D I *D sg13g2_dfrbpq_1
*I *2805:Y O *D sg13g2_a21oi_1
*CAP
1 *3165:D 4.25262e-05
2 *2805:Y 0.000215328
3 *269:8 0.000257855
4 *3165:D *1180:60 8.0216e-05
5 *3165:D *1190:31 8.0216e-05
6 *269:8 *457:8 0.00012785
7 *269:8 *459:10 0
8 *269:8 *776:29 0
9 *269:8 *1184:31 7.34121e-05
*RES
1 *2805:Y *269:8 41.8334 
2 *269:8 *3165:D 40.5356 
*END

*D_NET *270 0.000392267
*CONN
*I *3167:D I *D sg13g2_dfrbpq_1
*I *2809:Y O *D sg13g2_a21oi_1
*CAP
1 *3167:D 4.25262e-05
2 *2809:Y 7.33914e-05
3 *270:8 0.000115918
4 *3167:D *721:77 8.0216e-05
5 *3167:D *722:59 8.0216e-05
*RES
1 *2809:Y *270:8 40.5974 
2 *270:8 *3167:D 40.5356 
*END

*D_NET *271 0.000767793
*CONN
*I *3169:D I *D sg13g2_dfrbpq_1
*I *2813:Y O *D sg13g2_a21oi_1
*CAP
1 *3169:D 0
2 *2813:Y 0.000263081
3 *271:10 0.000263081
4 *271:10 *2812:B1 0
5 *271:10 *781:27 0
6 *271:10 *843:127 0.000241631
7 *271:10 *905:48 0
*RES
1 *2813:Y *271:10 42.9561 
2 *271:10 *3169:D 40 
*END

*D_NET *272 0.000681035
*CONN
*I *3171:D I *D sg13g2_dfrbpq_1
*I *2817:Y O *D sg13g2_a21oi_1
*CAP
1 *3171:D 0.000204292
2 *2817:Y 0.000204292
3 *3171:D *751:33 0.000144261
4 *3171:D *1175:56 0.000128189
*RES
1 *2817:Y *3171:D 42.3175 
*END

*D_NET *273 0.0013873
*CONN
*I *3458:A I *D sg13g2_dlygate4sd3_1
*I *2821:Y O *D sg13g2_a21oi_1
*CAP
1 *3458:A 5.61002e-05
2 *2821:Y 9.77862e-05
3 *273:8 0.000153886
4 *3458:A *747:52 8.00842e-05
5 *273:8 *476:14 0.00049972
6 *273:8 *848:127 0.00049972
*RES
1 *2821:Y *273:8 42.3278 
2 *273:8 *3458:A 40.5356 
*END

*D_NET *274 0.000674047
*CONN
*I *3175:D I *D sg13g2_dfrbpq_1
*I *2825:Y O *D sg13g2_a21oi_1
*CAP
1 *3175:D 0.000216799
2 *2825:Y 0.000216799
3 *3175:D *3723:A 0.000240449
4 *3175:D *789:8 0
5 *3175:D *1189:47 0
*RES
1 *2825:Y *3175:D 42.2145 
*END

*D_NET *275 0.00094736
*CONN
*I *3492:A I *D sg13g2_dlygate4sd3_1
*I *2829:Y O *D sg13g2_a21oi_1
*CAP
1 *3492:A 0.000104264
2 *2829:Y 0.000111256
3 *275:10 0.000215521
4 *3492:A *3177:D 0.000111263
5 *3492:A *3185:RESET_B 0
6 *3492:A *3185:D 0.00017605
7 *275:10 *2845:A1 4.7813e-05
8 *275:10 *3185:D 0
9 *275:10 *788:25 0
10 *275:10 *791:27 0.000181192
11 *275:10 *843:127 0
*RES
1 *2829:Y *275:10 41.3802 
2 *275:10 *3492:A 41.1845 
*END

*D_NET *276 0.00144825
*CONN
*I *3179:D I *D sg13g2_dfrbpq_1
*I *2833:Y O *D sg13g2_a21oi_1
*CAP
1 *3179:D 0.000188106
2 *2833:Y 5.61803e-05
3 *276:8 0.000244286
4 *3179:D *721:87 0.000143932
5 *3179:D *722:73 0.000241111
6 *276:8 *476:20 0.000287316
7 *276:8 *843:98 0.000287316
*RES
1 *2833:Y *276:8 41.339 
2 *276:8 *3179:D 41.9673 
*END

*D_NET *277 0.00186589
*CONN
*I *3181:D I *D sg13g2_dfrbpq_1
*I *2837:Y O *D sg13g2_a21oi_1
*CAP
1 *3181:D 0.00030835
2 *2837:Y 0.000141363
3 *277:8 0.000449713
4 *3181:D *3714:A 0.000531537
5 *3181:D *484:12 0.000434926
6 *3181:D *1175:70 0
7 *277:8 *907:80 0
*RES
1 *2837:Y *277:8 41.0918 
2 *277:8 *3181:D 43.5638 
*END

*D_NET *278 0.00121049
*CONN
*I *3464:A I *D sg13g2_dlygate4sd3_1
*I *2841:Y O *D sg13g2_a21oi_1
*CAP
1 *3464:A 5.10268e-05
2 *2841:Y 0.000144665
3 *278:8 0.000195692
4 *3464:A *3714:A 8.00842e-05
5 *278:8 *751:48 0.000238308
6 *278:8 *907:80 0.000500716
*RES
1 *2841:Y *278:8 42.3278 
2 *278:8 *3464:A 40.5356 
*END

*D_NET *279 0.000734091
*CONN
*I *3487:A I *D sg13g2_dlygate4sd3_1
*I *2845:Y O *D sg13g2_a21oi_1
*CAP
1 *3487:A 0.000151287
2 *2845:Y 0.000215758
3 *279:8 0.000367045
4 *3487:A *3185:D 0
5 *279:8 *489:8 0
6 s_axil_rresp[0] *3487:A 0
*RES
1 *2845:Y *279:8 42.3278 
2 *279:8 *3487:A 41.6171 
*END

*D_NET *280 0.000565022
*CONN
*I *3187:D I *D sg13g2_dfrbpq_1
*I *2847:Y O *D sg13g2_nand2_1
*CAP
1 *3187:D 0.000210452
2 *2847:Y 0.000210452
3 *3187:D *2713:A 0
4 *3187:D *2847:A 0
5 *3187:D *2847:B 0
6 *3187:D *3187:RESET_B 0
7 *3187:D *390:12 0.000144118
8 *3187:D *763:32 0
*RES
1 *2847:Y *3187:D 42.2145 
*END

*D_NET *281 0.000359371
*CONN
*I *3189:D I *D sg13g2_dfrbpq_1
*I *2851:X O *D sg13g2_and2_1
*CAP
1 *3189:D 0.000171985
2 *2851:X 0.000171985
3 *3189:D *2851:A 1.54008e-05
4 *3189:D *3189:RESET_B 0
*RES
1 *2851:X *3189:D 41.5347 
*END

*D_NET *282 0.00135868
*CONN
*I *3191:D I *D sg13g2_dfrbpq_1
*I *2854:X O *D sg13g2_and3_1
*CAP
1 *3191:D 0
2 *2854:X 0.000551279
3 *282:12 0.000551279
4 *282:12 *2854:A 0
5 *282:12 *3120:A 0
6 *282:12 *3621:A 0
7 *282:12 *3625:A 0
8 *282:12 *765:20 0
9 *282:12 *1051:12 0.000234311
10 *282:12 *1129:10 0
11 *282:12 *1168:12 2.18115e-05
12 s_axil_bresp[0] *282:12 0
*RES
1 *2854:X *282:12 45.562 
2 *282:12 *3191:D 40 
*END

*D_NET *283 0.00138429
*CONN
*I *3193:D I *D sg13g2_dfrbpq_1
*I *2859:Y O *D sg13g2_nor2_1
*CAP
1 *3193:D 0.000222063
2 *2859:Y 0.000470082
3 *283:8 0.000692145
4 *3193:D *744:35 0
5 *3193:D *1165:41 0
*RES
1 *2859:Y *283:8 44.7998 
2 *283:8 *3193:D 42.266 
*END

*D_NET *284 0.000554281
*CONN
*I *3195:D I *D sg13g2_dfrbpq_1
*I *2863:Y O *D sg13g2_nor2_1
*CAP
1 *3195:D 0.000277141
2 *2863:Y 0.000277141
3 *3195:D *2860:B1 0
4 *3195:D *1185:28 0
*RES
1 *2863:Y *3195:D 42.9767 
*END

*D_NET *285 0.00199398
*CONN
*I *3197:D I *D sg13g2_dfrbpq_1
*I *2867:Y O *D sg13g2_nor2_1
*CAP
1 *3197:D 0.000197607
2 *2867:Y 0.000427938
3 *285:10 0.000625545
4 *3197:D *379:22 0.000371445
5 *3197:D *1179:32 0.000371445
6 *285:10 *2867:A 0
7 *285:10 *505:8 0
8 *285:10 *508:10 0
9 *285:10 *1020:8 0
10 *285:10 *1178:31 0
*RES
1 *2867:Y *285:10 44.0685 
2 *285:10 *3197:D 42.4823 
*END

*D_NET *286 0.000876488
*CONN
*I *3199:D I *D sg13g2_dfrbpq_1
*I *2871:Y O *D sg13g2_nor2_1
*CAP
1 *3199:D 0.000127065
2 *2871:Y 0.000311179
3 *286:8 0.000438244
4 *286:8 *898:56 0
*RES
1 *2871:Y *286:8 43.3166 
2 *286:8 *3199:D 41.1845 
*END

*D_NET *287 0.00163437
*CONN
*I *3201:D I *D sg13g2_dfrbpq_1
*I *2875:Y O *D sg13g2_nor2_1
*CAP
1 *3201:D 0.000176635
2 *2875:Y 0.000205595
3 *287:8 0.000382229
4 *3201:D *751:33 0.000240536
5 *3201:D *1187:43 0
6 *287:8 *388:12 0.000554163
7 *287:8 *751:8 7.52158e-05
8 *287:8 *799:22 0
*RES
1 *2875:Y *287:8 42.575 
2 *287:8 *3201:D 41.6171 
*END

*D_NET *288 0.000599108
*CONN
*I *3203:D I *D sg13g2_dfrbpq_1
*I *2879:Y O *D sg13g2_nor2_1
*CAP
1 *3203:D 9.86302e-05
2 *2879:Y 0.000128453
3 *288:10 0.000227083
4 *3203:D *2876:B1 0
5 *3203:D *1187:43 0.000144942
*RES
1 *2879:Y *288:10 41.5347 
2 *288:10 *3203:D 40.9682 
*END

*D_NET *289 0.000660042
*CONN
*I *3205:D I *D sg13g2_dfrbpq_1
*I *2883:Y O *D sg13g2_nor2_1
*CAP
1 *3205:D 0
2 *2883:Y 0.000330021
3 *289:10 0.000330021
4 *289:10 *496:68 0
5 *289:10 *501:8 0
6 *289:10 *766:36 0
7 *289:10 *790:18 0
8 *289:10 *824:46 0
*RES
1 *2883:Y *289:10 43.2651 
2 *289:10 *3205:D 40 
*END

*D_NET *290 0.00142953
*CONN
*I *3207:D I *D sg13g2_dfrbpq_1
*I *2887:Y O *D sg13g2_nor2_1
*CAP
1 *3207:D 0
2 *2887:Y 0.000714766
3 *290:10 0.000714766
4 *290:10 *859:19 0
5 *290:10 *861:78 0
6 *290:10 *872:23 0
*RES
1 *2887:Y *290:10 45.7371 
2 *290:10 *3207:D 40 
*END

*D_NET *291 0.00315517
*CONN
*I *3209:D I *D sg13g2_dfrbpq_1
*I *2892:Y O *D sg13g2_nor2_1
*CAP
1 *3209:D 4.34375e-05
2 *2892:Y 0.000585679
3 *291:8 0.000629116
4 *3209:D *363:16 8.01445e-05
5 *3209:D *1162:12 8.00842e-05
6 *291:8 *522:10 0
7 *291:8 *527:10 0.000344053
8 *291:8 *739:26 2.22043e-05
9 *291:8 *861:26 0.00137045
10 *291:8 *861:38 0
*RES
1 *2892:Y *291:8 48.2606 
2 *291:8 *3209:D 40.5356 
*END

*D_NET *292 0.00260382
*CONN
*I *3211:D I *D sg13g2_dfrbpq_1
*I *2896:Y O *D sg13g2_nor2_1
*CAP
1 *3211:D 0
2 *2896:Y 0.00059013
3 *292:10 0.00059013
4 *292:10 *2896:A 0.00011224
5 *292:10 *2896:B 4.77425e-05
6 *292:10 *735:6 0
7 *292:10 *1162:12 0.00126358
*RES
1 *2896:Y *292:10 47.622 
2 *292:10 *3211:D 40 
*END

*D_NET *293 0.00144697
*CONN
*I *3213:D I *D sg13g2_dfrbpq_1
*I *2900:Y O *D sg13g2_nor2_1
*CAP
1 *3213:D 0.000223997
2 *2900:Y 0.000462274
3 *293:8 0.000686271
4 *3213:D *3217:RESET_B 0
5 *3213:D *362:22 0
6 *3213:D *362:32 0
7 *293:8 *530:10 7.44237e-05
8 *293:8 *883:74 0
9 *293:8 *891:75 0
*RES
1 *2900:Y *293:8 44.0582 
2 *293:8 *3213:D 42.0497 
*END

*D_NET *294 0.00157048
*CONN
*I *3215:D I *D sg13g2_dfrbpq_1
*I *2904:Y O *D sg13g2_nor2_1
*CAP
1 *3215:D 0.000161561
2 *2904:Y 0.0004908
3 *294:12 0.000652361
4 *3215:D *1165:22 0
5 *294:12 *2684:A 4.77425e-05
6 *294:12 *361:8 0.000127823
7 *294:12 *1023:32 0
8 *294:12 *1068:16 7.48842e-05
9 *294:12 *1079:24 0
10 *3520:A *3215:D 1.53099e-05
*RES
1 *2904:Y *294:12 44.4496 
2 *294:12 *3215:D 41.6171 
*END

*D_NET *295 0.00172121
*CONN
*I *3217:D I *D sg13g2_dfrbpq_1
*I *2908:Y O *D sg13g2_nor2_1
*CAP
1 *3217:D 6.27949e-05
2 *2908:Y 0.00046753
3 *295:10 0.000530325
4 *3217:D *3217:RESET_B 0
5 *3217:D *362:22 0
6 *295:10 *2908:A 0
7 *295:10 *705:51 0.000660557
8 *295:10 *816:51 0
*RES
1 *2908:Y *295:10 45.7062 
2 *295:10 *3217:D 40.6695 
*END

*D_NET *296 0.00220774
*CONN
*I *3219:D I *D sg13g2_dfrbpq_1
*I *2912:Y O *D sg13g2_nor2_1
*CAP
1 *3219:D 0.000114282
2 *2912:Y 0.000598439
3 *296:8 0.000712721
4 *3219:D *362:32 0
5 *3219:D *697:75 0
6 *296:8 *521:76 0.000603485
7 *296:8 *543:12 0.000178811
8 *296:8 *545:8 0
9 *296:8 *744:16 0
*RES
1 *2912:Y *296:8 47.0246 
2 *296:8 *3219:D 41.1845 
*END

*D_NET *297 0.0015657
*CONN
*I *3221:D I *D sg13g2_dfrbpq_1
*I *2916:Y O *D sg13g2_nor2_1
*CAP
1 *3221:D 0.000161974
2 *2916:Y 0.00026374
3 *297:10 0.000425713
4 *3221:D *883:86 0.000272432
5 *297:10 *2913:A1 0
6 *297:10 *2916:A 4.78521e-05
7 *297:10 *540:8 0.000393986
8 *297:10 *743:14 0
*RES
1 *2916:Y *297:10 42.8943 
2 *297:10 *3221:D 41.8334 
*END

*D_NET *298 0.00256227
*CONN
*I *3223:D I *D sg13g2_dfrbpq_1
*I *2920:Y O *D sg13g2_nor2_1
*CAP
1 *3223:D 0
2 *2920:Y 5.82456e-05
3 *298:16 0.000587048
4 *298:8 0.000645293
5 *298:16 *736:29 0.000575507
6 *298:16 *736:35 0
7 *298:16 *889:58 0
8 *298:16 *1165:22 0.000696176
*RES
1 *2920:Y *298:8 40.5974 
2 *298:8 *298:16 46.9731 
3 *298:16 *3223:D 40 
*END

*D_NET *299 0.00173212
*CONN
*I *3225:D I *D sg13g2_dfrbpq_1
*I *2925:Y O *D sg13g2_nor2_1
*CAP
1 *3225:D 0
2 *2925:Y 0.000560756
3 *299:10 0.000560756
4 *299:10 *2925:A 0
5 *299:10 *546:112 0
6 *299:10 *546:127 0
7 *299:10 *697:17 0
8 *299:10 *707:16 0.000179858
9 *299:10 *707:30 0.000318191
10 *299:10 *707:81 0.000112563
11 *299:10 *885:64 0
12 *299:10 *885:91 0
13 *299:10 *885:99 0
14 *299:10 *885:142 0
*RES
1 *2925:Y *299:10 45.459 
2 *299:10 *3225:D 40 
*END

*D_NET *300 0.00104513
*CONN
*I *3227:D I *D sg13g2_dfrbpq_1
*I *2929:Y O *D sg13g2_nor2_1
*CAP
1 *3227:D 0.000131017
2 *2929:Y 0.000140318
3 *300:8 0.000271335
4 *3227:D *3229:D 0
5 *3227:D *646:14 0
6 *300:8 *546:59 0.000502462
7 *300:8 *798:22 0
*RES
1 *2929:Y *300:8 42.3278 
2 *300:8 *3227:D 41.1845 
*END

*D_NET *301 0.00163904
*CONN
*I *3229:D I *D sg13g2_dfrbpq_1
*I *2933:Y O *D sg13g2_nor2_1
*CAP
1 *3229:D 0.000512743
2 *2933:Y 0.000181665
3 *301:10 0.000694408
4 *3229:D *2929:B 0
5 *3229:D *3227:RESET_B 2.4729e-05
6 *3229:D *3229:RESET_B 0
7 *3229:D *646:14 0
8 *3229:D *759:45 0
9 *301:10 *550:8 0.000130011
10 *301:10 *723:54 4.77425e-05
11 *301:10 *759:39 4.77425e-05
12 *3227:D *3229:D 0
*RES
1 *2933:Y *301:10 42.1527 
2 *301:10 *3229:D 44.0334 
*END

*D_NET *302 0.000352288
*CONN
*I *3231:D I *D sg13g2_dfrbpq_1
*I *2937:Y O *D sg13g2_nor2_1
*CAP
1 *3231:D 0.000176144
2 *2937:Y 0.000176144
3 *3231:D *2937:B 0
4 *3231:D *3231:RESET_B 0
5 *3231:D *766:16 0
*RES
1 *2937:Y *3231:D 41.7819 
*END

*D_NET *303 0.000222053
*CONN
*I *3233:D I *D sg13g2_dfrbpq_1
*I *2941:Y O *D sg13g2_nor2_1
*CAP
1 *3233:D 0.000111026
2 *2941:Y 0.000111026
3 *3233:D *2937:B 0
4 *3233:D *2941:B 0
5 *3233:D *1181:31 0
*RES
1 *2941:Y *3233:D 41.133 
*END

*D_NET *304 0.00105598
*CONN
*I *3235:D I *D sg13g2_dfrbpq_1
*I *2945:Y O *D sg13g2_nor2_1
*CAP
1 *3235:D 0
2 *2945:Y 0.000406878
3 *304:10 0.000406878
4 *304:10 *2927:C 0.00024222
5 *304:10 *778:22 0
6 *304:10 *819:12 0
7 *304:10 *819:16 0
8 *304:10 *855:82 0
9 *304:10 *879:30 0
*RES
1 *2945:Y *304:10 44.1921 
2 *304:10 *3235:D 40 
*END

*D_NET *305 0.00222549
*CONN
*I *3237:D I *D sg13g2_dfrbpq_1
*I *2949:Y O *D sg13g2_nor2_1
*CAP
1 *3237:D 0
2 *2949:Y 0.000568611
3 *305:16 0.000568611
4 *305:16 *2949:A 0.000274452
5 *305:16 *3080:A1 0
6 *305:16 *3237:CLK 0.00014502
7 *305:16 *733:8 0
8 *305:16 *790:18 0.000668798
*RES
1 *2949:Y *305:16 46.8186 
2 *305:16 *3237:D 40 
*END

*D_NET *306 0.00247966
*CONN
*I *3239:D I *D sg13g2_dfrbpq_1
*I *2953:Y O *D sg13g2_nor2_1
*CAP
1 *3239:D 0
2 *2953:Y 0.000379262
3 *306:10 0.000379262
4 *306:10 *713:82 0.000500302
5 *306:10 *732:29 0.000466784
6 *306:10 *769:31 0
7 *306:10 *797:29 0.000466707
8 *306:10 *958:10 0.000287343
*RES
1 *2953:Y *306:10 45.459 
2 *306:10 *3239:D 40 
*END

*D_NET *307 0.00119247
*CONN
*I *3241:D I *D sg13g2_dfrbpq_1
*I *2958:Y O *D sg13g2_nor2_1
*CAP
1 *3241:D 0
2 *2958:Y 0.000499667
3 *307:14 0.000499667
4 *307:14 *2958:B 4.79124e-05
5 *307:14 *3241:RESET_B 0
6 *307:14 *3241:CLK 0
7 *307:14 *580:26 0
8 *307:14 *890:14 0.000145222
*RES
1 *2958:Y *307:14 45.5723 
2 *307:14 *3241:D 40 
*END

*D_NET *308 0.00137928
*CONN
*I *3243:D I *D sg13g2_dfrbpq_1
*I *2962:Y O *D sg13g2_nor2_1
*CAP
1 *3243:D 0.000120173
2 *2962:Y 0.000569466
3 *308:8 0.000689639
4 *308:8 *577:8 0
5 *308:8 *578:8 0
*RES
1 *2962:Y *308:8 46.5302 
2 *308:8 *3243:D 41.1845 
*END

*D_NET *309 0.00150193
*CONN
*I *3245:D I *D sg13g2_dfrbpq_1
*I *2966:Y O *D sg13g2_nor2_1
*CAP
1 *3245:D 0
2 *2966:Y 0.00011197
3 *309:16 0.000598838
4 *309:8 0.000710808
5 *309:8 *3243:CLK 0
6 *309:16 *3243:CLK 0
7 *309:16 *3245:CLK 0
8 *309:16 *580:26 8.03091e-05
*RES
1 *2966:Y *309:8 41.0918 
2 *309:8 *309:16 45.1904 
3 *309:16 *3245:D 40 
*END

*D_NET *310 0.000927313
*CONN
*I *3247:D I *D sg13g2_dfrbpq_1
*I *2970:Y O *D sg13g2_nor2_1
*CAP
1 *3247:D 0.000184555
2 *2970:Y 0.000167465
3 *310:8 0.00035202
4 *3247:D *2921:B 0.00011159
5 *3247:D *2921:C 0.000111683
6 *3247:D *3053:A 0
7 *3247:D *722:39 0
8 *310:8 *885:99 0
*RES
1 *2970:Y *310:8 41.339 
2 *310:8 *3247:D 42.0291 
*END

*D_NET *311 0.000855313
*CONN
*I *3249:D I *D sg13g2_dfrbpq_1
*I *2974:Y O *D sg13g2_nor2_1
*CAP
1 *3249:D 0.000132367
2 *2974:Y 0.000177511
3 *311:8 0.000309878
4 *3249:D *706:29 0
5 *311:8 *3103:A1 0.000235556
6 *311:8 *706:12 0
7 *311:8 *706:14 0
*RES
1 *2974:Y *311:8 42.3278 
2 *311:8 *3249:D 41.1845 
*END

*D_NET *312 0.00161047
*CONN
*I *3251:D I *D sg13g2_dfrbpq_1
*I *2978:Y O *D sg13g2_nor2_1
*CAP
1 *3251:D 0
2 *2978:Y 0.00025178
3 *312:10 0.00025178
4 *312:10 *2975:B1 0
5 *312:10 *354:24 0
6 *312:10 *698:40 0.000553661
7 *312:10 *883:62 0.000553246
*RES
1 *2978:Y *312:10 43.7595 
2 *312:10 *3251:D 40 
*END

*D_NET *313 0.000794697
*CONN
*I *3253:D I *D sg13g2_dfrbpq_1
*I *2982:Y O *D sg13g2_nor2_1
*CAP
1 *3253:D 0.000110545
2 *2982:Y 0.000286804
3 *313:8 0.000397349
4 *3253:D *3253:RESET_B 0
5 *3253:D *722:39 0
6 *313:8 *571:16 0
7 *313:8 *698:38 0
*RES
1 *2982:Y *313:8 42.575 
2 *313:8 *3253:D 41.1845 
*END

*D_NET *314 0.000616588
*CONN
*I *3255:D I *D sg13g2_dfrbpq_1
*I *2986:Y O *D sg13g2_nor2_1
*CAP
1 *3255:D 0.000247414
2 *2986:Y 0.000247414
3 *3255:D *357:26 0.000121759
4 *3255:D *357:28 0
5 *3255:D *571:37 0
6 *3255:D *758:32 0
7 *3255:D *820:58 0
*RES
1 *2986:Y *3255:D 42.7089 
*END

*D_NET *315 0.00205385
*CONN
*I *3257:D I *D sg13g2_dfrbpq_1
*I *2991:Y O *D sg13g2_nor2_1
*CAP
1 *3257:D 0.000117475
2 *2991:Y 0.000665731
3 *315:12 0.000783205
4 *3257:D *2882:A1 0.000176334
5 *3257:D *1179:32 0
6 *315:12 *2988:B1 0
7 *315:12 *2991:A 4.78356e-05
8 *315:12 *697:248 0
9 *315:12 *872:23 0
10 *315:12 *875:52 0.000102251
11 *315:12 *875:59 0.000161019
*RES
1 *2991:Y *315:12 45.5311 
2 *315:12 *3257:D 41.1845 
*END

*D_NET *316 0.000789218
*CONN
*I *3259:D I *D sg13g2_dfrbpq_1
*I *2995:Y O *D sg13g2_nor2_1
*CAP
1 *3259:D 0.00019982
2 *2995:Y 0.000194789
3 *316:8 0.000394609
4 *3259:D *2992:A1 0
5 *3259:D *2992:A2 0
6 *3259:D *697:278 0
7 *3259:D *1188:12 0
*RES
1 *2995:Y *316:8 41.8334 
2 *316:8 *3259:D 42.0497 
*END

*D_NET *317 0.000405826
*CONN
*I *3261:D I *D sg13g2_dfrbpq_1
*I *2999:Y O *D sg13g2_nor2_1
*CAP
1 *3261:D 5.98757e-05
2 *2999:Y 0.000143037
3 *317:8 0.000202913
4 *3261:D *1183:31 0
5 *3261:D *1186:25 0
6 *317:8 *318:8 0
7 *317:8 *605:8 0
*RES
1 *2999:Y *317:8 41.5862 
2 *317:8 *3261:D 40.5356 
*END

*D_NET *318 0.000859001
*CONN
*I *3263:D I *D sg13g2_dfrbpq_1
*I *3003:Y O *D sg13g2_nor2_1
*CAP
1 *3263:D 0.000104341
2 *3003:Y 0.00023647
3 *318:8 0.000340812
4 *3263:D *1180:33 0
5 *3263:D *1183:31 0.000177378
6 *318:8 *605:8 0
7 *318:8 *1189:14 0
8 *317:8 *318:8 0
*RES
1 *3003:Y *318:8 42.0806 
2 *318:8 *3263:D 41.1845 
*END

*D_NET *319 0.000425223
*CONN
*I *3265:D I *D sg13g2_dfrbpq_1
*I *3007:Y O *D sg13g2_nor2_1
*CAP
1 *3265:D 0
2 *3007:Y 9.90607e-05
3 *319:10 9.90607e-05
4 *319:10 *3007:A 4.77863e-05
5 *319:10 *3007:B 0
6 *319:10 *609:8 0
7 *319:10 *823:91 0.000179315
*RES
1 *3007:Y *319:10 41.1639 
2 *319:10 *3265:D 40 
*END

*D_NET *320 0.00156063
*CONN
*I *3267:D I *D sg13g2_dfrbpq_1
*I *3011:Y O *D sg13g2_nor2_1
*CAP
1 *3267:D 0
2 *3011:Y 0.000301926
3 *320:10 0.000301926
4 *320:10 *3008:B1 1.54556e-05
5 *320:10 *3011:A 0.000144942
6 *320:10 *711:64 0
7 *320:10 *824:88 0.00024222
8 *320:10 *1180:33 0
9 *320:10 *1192:10 0.000554164
*RES
1 *3011:Y *320:10 44.1921 
2 *320:10 *3267:D 40 
*END

*D_NET *321 0.00106265
*CONN
*I *3269:D I *D sg13g2_dfrbpq_1
*I *3015:Y O *D sg13g2_nor2_1
*CAP
1 *3269:D 0
2 *3015:Y 0.00021982
3 *321:8 0.00021982
4 *321:8 *375:14 0
5 *321:8 *718:8 0.00044538
6 *321:8 *718:12 0.000177632
7 *321:8 *719:27 0
*RES
1 *3015:Y *321:8 42.8222 
2 *321:8 *3269:D 40 
*END

*D_NET *322 0.00084251
*CONN
*I *3271:D I *D sg13g2_dfrbpq_1
*I *3019:Y O *D sg13g2_nor2_1
*CAP
1 *3271:D 0.000165601
2 *3019:Y 0.000134635
3 *322:8 0.000300235
4 *3271:D *824:88 0.000242039
5 *3271:D *1180:33 0
*RES
1 *3019:Y *322:8 41.339 
2 *322:8 *3271:D 41.6171 
*END

*D_NET *323 0.00239051
*CONN
*I *3501:A I *D sg13g2_dlygate4sd3_1
*I *3024:Y O *D sg13g2_nor2_1
*CAP
1 *3501:A 0.000200689
2 *3024:Y 0.000585713
3 *323:12 0.000786402
4 *3501:A *3273:RESET_B 0
5 *3501:A *1089:12 0
6 *3501:A *1096:14 0.000339683
7 *323:12 *2694:A 0.000143358
8 *323:12 *3021:A2 0
9 *323:12 *3024:A 0.000143374
10 *323:12 *3024:B 0.000143374
11 *323:12 *3357:A 4.79124e-05
12 *323:12 *821:88 0
*RES
1 *3024:Y *323:12 45.562 
2 *323:12 *3501:A 42.266 
*END

*D_NET *324 0.00258261
*CONN
*I *3503:A I *D sg13g2_dlygate4sd3_1
*I *3028:Y O *D sg13g2_nor2_1
*CAP
1 *3503:A 4.61224e-05
2 *3028:Y 0.000360199
3 *324:8 0.000406321
4 *3503:A *366:16 8.00842e-05
5 *3503:A *821:82 4.77425e-05
6 *324:8 *621:10 0.000346091
7 *324:8 *628:8 0.000500302
8 *324:8 *811:39 0
9 *324:8 *811:49 0
10 *324:8 *821:27 7.62389e-05
11 *324:8 *821:33 0.000719504
*RES
1 *3028:Y *324:8 45.2942 
2 *324:8 *3503:A 40.5356 
*END

*D_NET *325 0.00105962
*CONN
*I *3510:A I *D sg13g2_dlygate4sd3_1
*I *3032:Y O *D sg13g2_nor2_1
*CAP
1 *3510:A 0.000207381
2 *3032:Y 5.63574e-05
3 *325:8 0.000263738
4 *3510:A *2910:B 0.000306964
5 *3510:A *3277:D 0.000177438
6 *3510:A *811:49 0
7 *3510:A *867:80 4.77425e-05
8 *325:8 *857:62 0
*RES
1 *3032:Y *325:8 40.5974 
2 *325:8 *3510:A 42.266 
*END

*D_NET *326 0.00110889
*CONN
*I *3505:A I *D sg13g2_dlygate4sd3_1
*I *3036:Y O *D sg13g2_nor2_1
*CAP
1 *3505:A 6.67398e-05
2 *3036:Y 0.000142079
3 *326:8 0.000208819
4 *3505:A *492:16 0
5 *3505:A *821:10 0
6 *326:8 *825:10 0.000237686
7 *326:8 *1152:14 0.000453571
*RES
1 *3036:Y *326:8 42.3278 
2 *326:8 *3505:A 40.5356 
*END

*D_NET *327 0.000615709
*CONN
*I *3516:A I *D sg13g2_dlygate4sd3_1
*I *3040:Y O *D sg13g2_nor2_1
*CAP
1 *3516:A 0.000202921
2 *3040:Y 0.000202921
3 *3516:A *3040:A 0.000209867
4 *3516:A *374:18 0
*RES
1 *3040:Y *3516:A 42.2454 
*END

*D_NET *328 0.00105833
*CONN
*I *3523:A I *D sg13g2_dlygate4sd3_1
*I *3044:Y O *D sg13g2_nor2_1
*CAP
1 *3523:A 0
2 *3044:Y 0.000411846
3 *328:10 0.000411846
4 *328:10 *3041:A1 0.00018128
5 *328:10 *3044:A 0
6 *328:10 *3045:A2 0
7 *328:10 *621:82 0
8 *328:10 *637:8 0
9 *328:10 *825:38 5.33604e-05
10 *328:10 *895:42 0
*RES
1 *3044:Y *328:10 43.6977 
2 *328:10 *3523:A 40 
*END

*D_NET *329 0.00125706
*CONN
*I *3513:A I *D sg13g2_dlygate4sd3_1
*I *3048:Y O *D sg13g2_nor2_1
*CAP
1 *3513:A 0.000170196
2 *3048:Y 0.000170616
3 *329:8 0.000340812
4 *3513:A *3045:B1 0
5 *3513:A *821:42 0
6 *329:8 *2913:A1 0.00039332
7 *329:8 *3045:A1 0.000182121
8 *329:8 *1185:18 0
*RES
1 *3048:Y *329:8 42.575 
2 *329:8 *3513:A 41.4008 
*END

*D_NET *330 0.00114659
*CONN
*I *3528:A I *D sg13g2_dlygate4sd3_1
*I *3052:Y O *D sg13g2_nor2_1
*CAP
1 *3528:A 0.000148478
2 *3052:Y 0.000400947
3 *330:8 0.000549426
4 *3528:A *709:73 4.77425e-05
5 *3528:A *1167:8 0
6 *3528:A *1180:33 0
7 *330:8 *645:8 0
8 *330:8 *709:73 0
*RES
1 *3052:Y *330:8 43.5638 
2 *330:8 *3528:A 41.4008 
*END

*D_NET *331 0.000318707
*CONN
*I *3289:D I *D sg13g2_dfrbpq_1
*I *3057:Y O *D sg13g2_nor2_1
*CAP
1 *3289:D 0.000119169
2 *3057:Y 0.000119169
3 *3289:D *2944:B1 8.03692e-05
4 *3289:D *3057:B 0
*RES
1 *3057:Y *3289:D 41.3802 
*END

*D_NET *332 0.000559092
*CONN
*I *3291:D I *D sg13g2_dfrbpq_1
*I *3061:Y O *D sg13g2_nor2_1
*CAP
1 *3291:D 0.000159182
2 *3061:Y 0.000159182
3 *3291:D *736:35 0
4 *3291:D *1174:26 0.000240728
*RES
1 *3061:Y *3291:D 41.6171 
*END

*D_NET *333 0.00146206
*CONN
*I *3293:D I *D sg13g2_dfrbpq_1
*I *3065:Y O *D sg13g2_nor2_1
*CAP
1 *3293:D 0.00020203
2 *3065:Y 0.000126819
3 *333:8 0.000328849
4 *3293:D *3062:B1 4.76874e-05
5 *3293:D *3065:A 0
6 *3293:D *710:46 0.000305738
7 *333:8 *670:8 0
8 *333:8 *795:26 0.000450938
*RES
1 *3065:Y *333:8 42.0806 
2 *333:8 *3293:D 42.0497 
*END

*D_NET *334 0.000860616
*CONN
*I *3295:D I *D sg13g2_dfrbpq_1
*I *3069:Y O *D sg13g2_nor2_1
*CAP
1 *3295:D 0.000157427
2 *3069:Y 0.000272881
3 *334:8 0.000430308
4 *3295:D *3295:RESET_B 0
*RES
1 *3069:Y *334:8 43.3166 
2 *334:8 *3295:D 41.6171 
*END

*D_NET *335 0.000841383
*CONN
*I *3297:D I *D sg13g2_dfrbpq_1
*I *3073:Y O *D sg13g2_nor2_1
*CAP
1 *3297:D 0.000156717
2 *3073:Y 0.000263974
3 *335:8 0.000420691
4 *3297:D *3297:RESET_B 0
5 *335:8 *661:16 0
*RES
1 *3073:Y *335:8 43.0694 
2 *335:8 *3297:D 41.6171 
*END

*D_NET *336 0.000893347
*CONN
*I *3299:D I *D sg13g2_dfrbpq_1
*I *3077:Y O *D sg13g2_nor2_1
*CAP
1 *3299:D 0.000132072
2 *3077:Y 0.000314601
3 *336:8 0.000446673
4 *3299:D *646:86 0
5 *3299:D *646:96 0
6 *3299:D *744:35 0
7 *336:8 *646:109 0
8 *336:8 *735:37 0
9 *336:8 *795:26 0
10 *336:8 *824:54 0
11 *336:8 *1174:8 0
*RES
1 *3077:Y *336:8 42.8222 
2 *336:8 *3299:D 41.1845 
*END

*D_NET *337 0.00134496
*CONN
*I *3301:D I *D sg13g2_dfrbpq_1
*I *3081:Y O *D sg13g2_nor2_1
*CAP
1 *3301:D 0.000479414
2 *3081:Y 0.000479414
3 *3301:D *3081:B 0
4 *3301:D *3301:RESET_B 1.54556e-05
5 *3301:D *796:18 0.000370677
6 *3301:D *1173:25 0
*RES
1 *3081:Y *3301:D 45.0058 
*END

*D_NET *338 0.000454224
*CONN
*I *3303:D I *D sg13g2_dfrbpq_1
*I *3085:Y O *D sg13g2_nor2_1
*CAP
1 *3303:D 0.000163747
2 *3085:Y 0.000163747
3 *3303:D *3085:A 1.53311e-05
4 *3303:D *710:61 0.000111399
*RES
1 *3085:Y *3303:D 41.7819 
*END

*D_NET *339 0.00124705
*CONN
*I *3305:D I *D sg13g2_dfrbpq_1
*I *3090:Y O *D sg13g2_nor2_1
*CAP
1 *3305:D 0
2 *3090:Y 0.000381416
3 *339:10 0.000381416
4 *339:10 *3305:CLK 0.00024211
5 *339:10 *890:14 0.00024211
6 *3:18 *339:10 0
*RES
1 *3090:Y *339:10 44.6865 
2 *339:10 *3305:D 40 
*END

*D_NET *340 0.000647106
*CONN
*I *3307:D I *D sg13g2_dfrbpq_1
*I *3094:Y O *D sg13g2_nor2_1
*CAP
1 *3307:D 0.000202998
2 *3094:Y 0.000202998
3 *3307:D *3093:B1 0.000241111
4 *3307:D *3094:B 0
*RES
1 *3094:Y *3307:D 41.9673 
*END

*D_NET *341 0.000191078
*CONN
*I *3309:D I *D sg13g2_dfrbpq_1
*I *3098:Y O *D sg13g2_nor2_1
*CAP
1 *3309:D 9.55391e-05
2 *3098:Y 9.55391e-05
3 *3309:D *3098:B 0
4 *3309:D *3309:RESET_B 0
*RES
1 *3098:Y *3309:D 40.7634 
*END

*D_NET *342 0.00138465
*CONN
*I *3311:D I *D sg13g2_dfrbpq_1
*I *3102:Y O *D sg13g2_nor2_1
*CAP
1 *3311:D 0.000104109
2 *3102:Y 0.000193347
3 *342:8 0.000297456
4 *3311:D *3099:A1 0
5 *3311:D *3099:B1 0.000176351
6 *3311:D *866:66 0.000143932
7 *342:8 *2968:B 0.000287757
8 *342:8 *2968:D 0.000181694
*RES
1 *3102:Y *342:8 42.3278 
2 *342:8 *3311:D 41.1845 
*END

*D_NET *343 0.000606945
*CONN
*I *3313:D I *D sg13g2_dfrbpq_1
*I *3106:Y O *D sg13g2_nor2_1
*CAP
1 *3313:D 0.000303472
2 *3106:Y 0.000303472
*RES
1 *3106:Y *3313:D 43.6153 
*END

*D_NET *344 0.000820523
*CONN
*I *3315:D I *D sg13g2_dfrbpq_1
*I *3110:Y O *D sg13g2_nor2_1
*CAP
1 *3315:D 4.37077e-05
2 *3110:Y 7.72865e-05
3 *344:10 0.000120994
4 *3315:D *2977:A2 8.00842e-05
5 *3315:D *354:24 8.00842e-05
6 *344:10 *3110:B 4.77425e-05
7 *344:10 *354:24 1.54008e-05
8 *344:10 *803:37 0.000178187
9 *344:10 *881:27 5.20154e-05
10 *344:10 *881:29 0.000125021
*RES
1 *3110:Y *344:10 41.1639 
2 *344:10 *3315:D 40.5356 
*END

*D_NET *345 0.00195432
*CONN
*I *3317:D I *D sg13g2_dfrbpq_1
*I *3114:Y O *D sg13g2_nor2_1
*CAP
1 *3317:D 0
2 *3114:Y 0.000479086
3 *345:14 0.000479086
4 *345:14 *3114:A 0.000112671
5 *345:14 *3114:B 4.78359e-05
6 *345:14 *3317:CLK 0.000345425
7 *345:14 *352:16 0
8 *345:14 *722:10 0
9 *345:14 *808:16 0.00014479
10 *345:14 *866:43 0.000345425
11 *345:14 *881:10 0
12 *345:14 *881:98 0
*RES
1 *3114:Y *345:14 45.6032 
2 *345:14 *3317:D 40 
*END

*D_NET *346 0.00051899
*CONN
*I *3319:D I *D sg13g2_dfrbpq_1
*I *3118:Y O *D sg13g2_nor2_1
*CAP
1 *3319:D 0.000107435
2 *3118:Y 0.000107435
3 *3319:D *3118:A 1.54008e-05
4 *3319:D *3118:B 0.000176586
5 *3319:D *891:51 0.000112133
*RES
1 *3118:Y *3319:D 41.1845 
*END

*D_NET *347 0.000876169
*CONN
*I *3453:A I *D sg13g2_dlygate4sd3_1
*I *3120:Y O *D sg13g2_nand3_1
*CAP
1 *3453:A 0
2 *3120:Y 0.000149495
3 *347:10 0.000149495
4 *347:10 *2854:A 0.000112638
5 *347:10 *2854:B 0.000127455
6 *347:10 *491:10 0.000127455
7 *347:10 *714:16 0
8 *347:10 *1168:12 0.000209632
*RES
1 *3120:Y *347:10 41.9982 
2 *347:10 *3453:A 40 
*END

*D_NET *348 0.00185678
*CONN
*I *2984:A I *D sg13g2_nand4_1
*I *3116:A I *D sg13g2_nand4_1
*I *2671:Y O *D sg13g2_inv_1
*CAP
1 *2984:A 0
2 *3116:A 4.98478e-05
3 *2671:Y 0.000632932
4 *348:10 0.00068278
5 *3116:A *863:40 0.000234726
6 *3116:A *885:41 0.000181279
7 *348:10 *363:16 0
8 *348:10 *863:40 7.52149e-05
9 *3:18 *348:10 0
*RES
1 *2671:Y *348:10 46.4787 
2 *348:10 *3116:A 41.0918 
3 *348:10 *2984:A 40 
*END

*D_NET *349 0.00197425
*CONN
*I *2980:A I *D sg13g2_nand4_1
*I *3112:A I *D sg13g2_nand4_1
*I *2672:Y O *D sg13g2_inv_1
*CAP
1 *2980:A 0.000428382
2 *3112:A 0
3 *2672:Y 4.15384e-05
4 *349:12 0.000549904
5 *349:8 0.000163061
6 *2980:A *2851:A 0
7 *2980:A *2851:B 0
8 *2980:A *2980:B 0.000112689
9 *2980:A *3111:A2 0
10 *2980:A *3112:B 0.000144025
11 *2980:A *591:10 1.54008e-05
12 *349:8 *1141:14 0.000235556
13 *349:8 *1156:16 0.000236057
14 *349:12 *2851:A 0
15 *349:12 *3112:B 4.76345e-05
*RES
1 *2672:Y *349:8 41.0918 
2 *349:8 *349:12 20.9682 
3 *349:12 *3112:A 20 
4 *349:12 *2980:A 24.1 
*END

*D_NET *350 0.00231932
*CONN
*I *3108:A I *D sg13g2_nand4_1
*I *2976:A I *D sg13g2_nand4_1
*I *2673:Y O *D sg13g2_inv_1
*CAP
1 *3108:A 0
2 *2976:A 0.000127603
3 *2673:Y 0.000157443
4 *350:10 0.000285046
5 *2976:A *862:110 0.000715421
6 *2976:A *885:33 0.000722113
7 *350:10 *352:16 0
8 *350:10 *862:110 7.57164e-05
9 *350:10 *873:26 0
10 *350:10 *884:126 7.52149e-05
11 *350:10 *885:33 0.000160758
*RES
1 *2673:Y *350:10 41.8128 
2 *350:10 *2976:A 43.3166 
3 *350:10 *3108:A 40 
*END

*D_NET *351 0.00613897
*CONN
*I *2972:A I *D sg13g2_nand4_1
*I *3104:A I *D sg13g2_nand4_1
*I *2674:Y O *D sg13g2_inv_1
*CAP
1 *2972:A 0
2 *3104:A 0.000137857
3 *2674:Y 0.000427919
4 *351:16 0.000137857
5 *351:14 0.00206965
6 *351:10 0.00249757
7 *3104:A *3104:C 0
8 *3104:A *671:137 0
9 *3104:A *865:22 0.000285952
10 *351:10 *3414:A 0
11 *351:10 *3423:A 0.000176452
12 *351:10 *355:12 0.000183395
13 *351:10 *883:8 0.000111027
14 *351:10 *884:29 0
15 *351:10 *890:46 0
16 *351:10 *1023:12 0.000111296
17 *351:14 *717:16 0
18 *351:14 *728:10 0
19 *351:14 *856:31 0
20 *351:14 *862:46 0
*RES
1 *2674:Y *351:10 44.1303 
2 *351:10 *351:14 42.5982 
3 *351:14 *351:16 20 
4 *351:16 *3104:A 41.5862 
5 *351:16 *2972:A 40 
*END

*D_NET *352 0.00718465
*CONN
*I *2968:A I *D sg13g2_nand4_1
*I *3100:A I *D sg13g2_nand4_1
*I *2675:Y O *D sg13g2_inv_1
*CAP
1 *2968:A 0.000322192
2 *3100:A 0
3 *2675:Y 0.00019248
4 *352:16 0.00233497
5 *352:8 0.00220526
6 *2968:A *2969:A2 0
7 *2968:A *3100:D 0
8 *2968:A *682:10 0
9 *2968:A *866:66 0
10 *2968:A *883:127 0
11 *352:8 *1141:14 0.000609685
12 *352:8 *1158:14 0
13 *352:16 *3100:D 0
14 *352:16 *3114:A 0
15 *352:16 *3253:RESET_B 0.000339174
16 *352:16 *3315:CLK 0
17 *352:16 *3364:A 0
18 *352:16 *698:6 0
19 *352:16 *698:12 0.00118088
20 *352:16 *722:10 0
21 *352:16 *817:10 0
22 *352:16 *866:43 0
23 *352:16 *881:27 0
24 *352:16 *883:127 0
25 *345:14 *352:16 0
26 *350:10 *352:16 0
*RES
1 *2675:Y *352:8 42.8222 
2 *352:8 *352:16 40.8884 
3 *352:16 *3100:A 20 
4 *352:16 *2968:A 23.1312 
*END

*D_NET *353 0.00364705
*CONN
*I *2964:A I *D sg13g2_nand4_1
*I *3096:A I *D sg13g2_nand4_1
*I *2676:Y O *D sg13g2_inv_1
*CAP
1 *2964:A 4.95144e-05
2 *3096:A 0
3 *2676:Y 0.000195073
4 *353:22 0.000102574
5 *353:12 0.000515109
6 *353:8 0.000558093
7 *2964:A *862:16 4.77425e-05
8 *2964:A *862:25 3.23417e-05
9 *353:8 *2706:A 0.000447597
10 *353:8 *1012:18 0.000661801
11 *353:8 *1023:18 0
12 *353:8 *1157:14 0
13 *353:12 *2706:A 4.74145e-05
14 *353:12 *3414:A 0
15 *353:12 *3425:A 0
16 *353:12 *803:47 8.00842e-05
17 *353:12 *803:58 0.000306244
18 *353:12 *862:16 0.000145023
19 *353:22 *3096:B 0.000228641
20 *353:22 *3096:C 0
21 *353:22 *3096:D 0.000229792
22 *353:22 *3097:A2 0
*RES
1 *2676:Y *353:8 43.3166 
2 *353:8 *353:12 23.5638 
3 *353:12 *353:22 41.4703 
4 *353:22 *3096:A 20 
5 *353:12 *2964:A 20.5356 
*END

*D_NET *354 0.00795709
*CONN
*I *3092:A I *D sg13g2_nand4_1
*I *2960:A I *D sg13g2_nand4_1
*I *2677:Y O *D sg13g2_inv_1
*CAP
1 *3092:A 0
2 *2960:A 0
3 *2677:Y 0.00244773
4 *354:32 0.000412492
5 *354:24 0.00286022
6 *354:24 *2975:B1 0
7 *354:24 *2976:D 4.77863e-05
8 *354:24 *2977:A2 0
9 *354:24 *2978:B 0
10 *354:24 *3110:B 0.000144491
11 *354:24 *3251:RESET_B 0.000111878
12 *354:24 *359:14 0
13 *354:24 *360:20 1.54556e-05
14 *354:24 *360:30 0.000824784
15 *354:24 *757:27 0
16 *354:24 *866:18 0.000241979
17 *354:24 *880:49 0
18 *354:24 *884:83 0
19 *354:24 *930:12 0
20 *354:24 *1012:32 0
21 *354:24 *1141:14 0
22 *354:32 *571:61 0
23 *354:32 *571:74 0
24 *354:32 *576:16 0
25 *354:32 *671:122 0.000467532
26 *354:32 *862:76 0.000287256
27 *354:32 *891:12 0
28 *3315:D *354:24 8.00842e-05
29 *312:10 *354:24 0
30 *344:10 *354:24 1.54008e-05
*RES
1 *2677:Y *354:24 43.439 
2 *354:24 *354:32 44.4702 
3 *354:32 *2960:A 20 
4 *354:24 *3092:A 20 
*END

*D_NET *355 0.00792894
*CONN
*I *2956:A I *D sg13g2_nand4_1
*I *3088:A I *D sg13g2_nand4_1
*I *2678:Y O *D sg13g2_inv_1
*CAP
1 *2956:A 0.000385116
2 *3088:A 0
3 *2678:Y 0.000341274
4 *355:24 0.00103862
5 *355:20 0.00108606
6 *355:12 0.000773828
7 *2956:A *3088:B 8.01064e-05
8 *2956:A *671:93 0
9 *2956:A *803:69 0
10 *2956:A *803:80 0.000468094
11 *2956:A *862:61 0.00035629
12 *2956:A *891:12 0
13 *355:12 *2707:A 0
14 *355:12 *3403:A 1.54008e-05
15 *355:12 *883:8 0.000111027
16 *355:12 *884:101 0.000288317
17 *355:12 *890:46 0
18 *355:12 *1012:18 0
19 *355:20 *3403:A 0
20 *355:20 *3414:A 0.000207854
21 *355:20 *3425:A 0.000175699
22 *355:20 *671:14 0
23 *355:20 *862:16 0
24 *355:20 *881:59 0.000217609
25 *355:24 *3309:CLK 0.00108494
26 *355:24 *3403:A 0
27 *355:24 *671:93 0
28 *355:24 *673:12 7.97663e-05
29 *355:24 *803:58 0.000436937
30 *355:24 *803:69 0.000598608
31 *351:10 *355:12 0.000183395
*RES
1 *2678:Y *355:12 43.7389 
2 *355:12 *355:20 44.0376 
3 *355:20 *355:24 28.1061 
4 *355:24 *3088:A 20 
5 *355:24 *2956:A 24.3466 
*END

*D_NET *356 0.0186606
*CONN
*I *3083:A I *D sg13g2_nand4_1
*I *2951:A I *D sg13g2_nand4_1
*I *2679:Y O *D sg13g2_inv_1
*CAP
1 *3083:A 0
2 *2951:A 0.00073274
3 *2679:Y 0.000347662
4 *356:18 0.00073274
5 *356:16 0.0027235
6 *356:14 0.00322441
7 *356:8 0.000848564
8 *2951:A *2951:B 1.54008e-05
9 *2951:A *569:10 1.54008e-05
10 *2951:A *651:8 0.000127262
11 *2951:A *790:18 0
12 *2951:A *794:33 0
13 *2951:A *878:70 0.000181273
14 *356:8 *2895:B1 2.16289e-05
15 *356:8 *527:10 0.00017909
16 *356:8 *739:16 0.000233463
17 *356:8 *861:38 0
18 *356:8 *1068:8 7.30101e-05
19 *356:16 *361:12 0.00494519
20 *356:16 *361:35 0.000150173
21 *356:16 *737:27 0.00410911
*RES
1 *2679:Y *356:8 43.0694 
2 *356:8 *356:14 25.7062 
3 *356:14 *356:16 35.638 
4 *356:16 *356:18 20 
5 *356:18 *2951:A 45.9328 
6 *356:18 *3083:A 40 
*END

*D_NET *357 0.0139343
*CONN
*I *3079:A I *D sg13g2_nand4_1
*I *2947:A I *D sg13g2_nand4_1
*I *2680:Y O *D sg13g2_inv_1
*CAP
1 *3079:A 8.91742e-05
2 *2947:A 0
3 *2680:Y 4.18248e-05
4 *357:28 0.00167231
5 *357:26 0.00361106
6 *357:16 0.00247857
7 *357:8 0.000492465
8 *3079:A *2947:B 3.22045e-05
9 *3079:A *3080:A1 0.000144025
10 *3079:A *879:37 0
11 *357:8 *1156:16 0.000235187
12 *357:8 *1158:14 0.000235971
13 *357:16 *805:8 7.34842e-05
14 *357:16 *866:43 0
15 *357:26 *2980:C 4.6793e-05
16 *357:26 *3352:A 8.01938e-05
17 *357:26 *3356:A 0.000112198
18 *357:26 *571:37 1.53992e-05
19 *357:26 *591:10 0
20 *357:26 *671:39 0.00111578
21 *357:26 *808:27 0
22 *357:26 *820:36 0
23 *357:26 *820:58 0
24 *357:28 *2947:B 4.77425e-05
25 *357:28 *3080:A1 0.000888663
26 *357:28 *3237:CLK 0
27 *357:28 *3311:CLK 0
28 *357:28 *707:16 0
29 *357:28 *758:32 0
30 *357:28 *808:27 0.00104198
31 *357:28 *808:59 0.000629901
32 *357:28 *856:79 0.000727639
33 *3255:D *357:26 0.000121759
34 *3255:D *357:28 0
*RES
1 *2680:Y *357:8 41.0918 
2 *357:8 *357:16 44.9955 
3 *357:16 *357:26 38.9211 
4 *357:26 *357:28 16.9126 
5 *357:28 *2947:A 20 
6 *357:28 *3079:A 20.9682 
*END

*D_NET *358 0.0175887
*CONN
*I *3075:A I *D sg13g2_nand4_1
*I *2943:A I *D sg13g2_nand4_1
*I *2681:Y O *D sg13g2_inv_1
*CAP
1 *3075:A 0
2 *2943:A 0
3 *2681:Y 0.000639135
4 *358:33 0.00055972
5 *358:20 0.00183287
6 *358:18 0.00340105
7 *358:8 0.00276703
8 *358:8 *809:30 7.49652e-05
9 *358:8 *821:88 0
10 *358:8 *873:32 0
11 *358:8 *1023:32 0
12 *358:8 *1163:16 0.00156668
13 *358:18 *3211:CLK 0.000171356
14 *358:18 *3213:RESET_B 0
15 *358:18 *3613:A 0
16 *358:18 *3615:A 8.0194e-05
17 *358:18 *362:22 0
18 *358:18 *362:32 0
19 *358:18 *1165:22 0.00223602
20 *358:20 *3223:RESET_B 0
21 *358:20 *362:32 0
22 *358:20 *563:10 8.02763e-05
23 *358:20 *725:29 0
24 *358:20 *864:38 0.000889632
25 *358:20 *864:49 3.24568e-05
26 *358:20 *878:34 0.00111643
27 *358:20 *898:54 0
28 *358:20 *1165:22 0
29 *358:33 *725:29 0.000501648
30 *358:33 *766:32 0.000386402
31 *358:33 *778:22 0.000703598
32 *358:33 *861:91 0.000371849
33 *358:33 *864:49 0.000177399
*RES
1 *2681:Y *358:8 48.5078 
2 *358:8 *358:18 41.9493 
3 *358:18 *358:20 13.0192 
4 *358:20 *2943:A 20 
5 *358:20 *358:33 47.313 
6 *358:33 *3075:A 20 
*END

*D_NET *359 0.0159594
*CONN
*I *2939:A I *D sg13g2_nand4_1
*I *3071:A I *D sg13g2_nand4_1
*I *2682:Y O *D sg13g2_inv_1
*CAP
1 *2939:A 7.61048e-05
2 *3071:A 0.00054899
3 *2682:Y 0.000877315
4 *359:24 0.00119806
5 *359:20 0.00288538
6 *359:14 0.00318973
7 *2939:A *2939:B 4.74163e-05
8 *2939:A *757:27 0.000177257
9 *3071:A *2936:A2 0.000306832
10 *3071:A *2939:B 0
11 *3071:A *2939:D 0
12 *3071:A *360:30 0.000176405
13 *3071:A *360:49 4.77425e-05
14 *3071:A *757:27 0
15 *3071:A *879:51 0
16 *3071:A *879:55 0
17 *359:14 *2977:A2 7.92311e-05
18 *359:14 *3315:RESET_B 0
19 *359:14 *803:27 0.00033012
20 *359:14 *803:37 0.00037157
21 *359:14 *889:35 0.000177548
22 *359:14 *889:39 0
23 *359:14 *1141:14 7.98712e-05
24 *359:20 *2975:A1 0
25 *359:20 *2978:B 0
26 *359:20 *3307:CLK 0
27 *359:20 *386:10 0.00012816
28 *359:20 *571:12 0.000306832
29 *359:20 *722:39 0
30 *359:20 *757:27 0
31 *359:20 *818:14 0.000287256
32 *359:20 *885:111 0
33 *359:20 *889:39 0.00248466
34 *359:20 *1181:31 0.00108281
35 *359:24 *360:30 0
36 *359:24 *706:8 8.01116e-05
37 *359:24 *757:27 0.00102
38 *359:24 *892:114 0
39 *354:24 *359:14 0
*RES
1 *2682:Y *359:14 29.0125 
2 *359:14 *359:20 46.162 
3 *359:20 *359:24 26.8083 
4 *359:24 *3071:A 26.2521 
5 *359:24 *2939:A 21.1845 
*END

*D_NET *360 0.0158593
*CONN
*I *3067:A I *D sg13g2_nand4_1
*I *2935:A I *D sg13g2_nand4_1
*I *2683:Y O *D sg13g2_inv_1
*CAP
1 *3067:A 0
2 *2935:A 0
3 *2683:Y 0.00177061
4 *360:49 0.000525655
5 *360:30 0.00295651
6 *360:20 0.00420147
7 *360:20 *3110:B 0
8 *360:20 *3251:RESET_B 0.000241341
9 *360:20 *3404:A 0.000279758
10 *360:20 *3408:A 8.01447e-05
11 *360:20 *717:12 0
12 *360:20 *803:37 0.000224795
13 *360:20 *803:47 8.00842e-05
14 *360:20 *866:18 0
15 *360:20 *873:26 4.77425e-05
16 *360:20 *881:67 0.000370938
17 *360:20 *884:75 0
18 *360:20 *1012:18 0.000208683
19 *360:20 *1012:32 0
20 *360:20 *1141:14 0
21 *360:30 *2935:B 4.72458e-05
22 *360:30 *3091:B1 4.77866e-05
23 *360:30 *3093:B1 0
24 *360:30 *3093:A2 0
25 *360:30 *3432:A 0.000209637
26 *360:30 *671:137 0
27 *360:30 *803:95 0.000176543
28 *360:30 *817:69 0.000595434
29 *360:30 *856:46 0
30 *360:30 *865:46 0.0013566
31 *360:30 *880:62 0
32 *360:30 *884:75 0.000500688
33 *360:30 *884:83 0
34 *360:30 *892:6 0
35 *360:30 *892:8 0
36 *360:30 *892:114 0.000209746
37 *360:49 *2935:B 3.23417e-05
38 *360:49 *2935:C 0.00012816
39 *360:49 *3071:C 0
40 *360:49 *657:10 1.54556e-05
41 *360:49 *660:8 0
42 *360:49 *778:22 0
43 *360:49 *865:54 0.000306673
44 *360:49 *879:51 0.000180885
45 *360:49 *909:78 0
46 *3071:A *360:30 0.000176405
47 *3071:A *360:49 4.77425e-05
48 *354:24 *360:20 1.54556e-05
49 *354:24 *360:30 0.000824784
50 *359:24 *360:30 0
*RES
1 *2683:Y *360:20 38.1898 
2 *360:20 *360:30 25.8839 
3 *360:30 *2935:A 20 
4 *360:30 *360:49 45.768 
5 *360:49 *3067:A 20 
*END

*D_NET *361 0.0198172
*CONN
*I *3063:A I *D sg13g2_nand4_1
*I *2931:A I *D sg13g2_nand4_1
*I *2684:Y O *D sg13g2_inv_1
*CAP
1 *3063:A 0
2 *2931:A 0.000441295
3 *2684:Y 6.95208e-05
4 *361:35 0.000188288
5 *361:18 0.000956452
6 *361:12 0.00371184
7 *361:10 0.00300839
8 *361:8 6.95208e-05
9 *2931:A *732:29 0.000241863
10 *2931:A *806:47 0
11 *2931:A *820:104 4.77425e-05
12 *2931:A *864:63 0.000435193
13 *2931:A *864:74 0.000112426
14 *2931:A *864:93 4.77425e-05
15 *361:8 *1023:32 0.000234807
16 *361:12 *742:23 0.00271693
17 *361:18 *3075:B 0
18 *361:18 *654:10 7.30101e-05
19 *361:18 *732:14 0
20 *361:18 *778:22 0.00160385
21 *361:18 *861:78 0
22 *361:18 *872:23 0
23 *361:18 *1165:49 0.00028128
24 *361:35 *654:10 7.93156e-05
25 *361:35 *697:11 0
26 *361:35 *742:23 0.000134197
27 *361:35 *766:36 0.000125013
28 *361:35 *872:10 0
29 *361:35 *872:61 1.54008e-05
30 *294:12 *361:8 0.000127823
31 *356:16 *361:12 0.00494519
32 *356:16 *361:35 0.000150173
*RES
1 *2684:Y *361:8 41.0918 
2 *361:8 *361:10 20 
3 *361:10 *361:12 38.8207 
4 *361:12 *361:18 47.519 
5 *361:18 *2931:A 24.429 
6 *361:12 *361:35 42.1012 
7 *361:35 *3063:A 20 
*END

*D_NET *362 0.0126758
*CONN
*I *3059:A I *D sg13g2_nand4_1
*I *2927:A I *D sg13g2_nand4_1
*I *2685:Y O *D sg13g2_inv_1
*CAP
1 *3059:A 3.19102e-05
2 *2927:A 0
3 *2685:Y 0.000361045
4 *362:44 0.000282117
5 *362:32 0.00337284
6 *362:22 0.00435272
7 *362:8 0.00165495
8 *362:22 *3211:RESET_B 0
9 *362:22 *3211:CLK 0.00011224
10 *362:22 *3213:RESET_B 0
11 *362:22 *3217:RESET_B 0.000112656
12 *362:22 *764:19 0
13 *362:32 *3059:B 0.000112426
14 *362:32 *3213:RESET_B 8.02485e-05
15 *362:32 *3219:RESET_B 0
16 *362:32 *3223:RESET_B 0.000338876
17 *362:32 *725:29 0.000614209
18 *362:32 *732:6 0
19 *362:32 *732:29 0
20 *362:32 *806:34 0
21 *362:32 *806:47 0
22 *362:32 *820:66 0
23 *362:32 *878:8 0
24 *362:32 *878:34 0
25 *362:32 *885:159 0
26 *362:32 *898:54 0.000371752
27 *362:44 *2927:D 0.000125021
28 *362:44 *2928:A2 0
29 *362:44 *864:93 0.000228573
30 *362:44 *878:70 0.000183827
31 *362:44 *878:72 0.000340396
32 *3213:D *362:22 0
33 *3213:D *362:32 0
34 *3217:D *362:22 0
35 *3219:D *362:32 0
36 *358:18 *362:22 0
37 *358:18 *362:32 0
38 *358:20 *362:32 0
*RES
1 *2685:Y *362:8 43.3166 
2 *362:8 *362:22 33.0707 
3 *362:22 *362:32 28.7711 
4 *362:32 *362:44 43.4711 
5 *362:44 *2927:A 20 
6 *362:32 *3059:A 20.3193 
*END

*D_NET *363 0.007251
*CONN
*I *2923:A I *D sg13g2_nand4_1
*I *3055:A I *D sg13g2_nand4_1
*I *2686:Y O *D sg13g2_inv_1
*CAP
1 *2923:A 0
2 *3055:A 0
3 *2686:Y 0.00283444
4 *363:22 0.000260595
5 *363:16 0.00309503
6 *363:16 *2671:A 0.000521532
7 *363:16 *2923:B 0.000112689
8 *363:16 *3189:CLK 0
9 *363:16 *3332:A 0
10 *363:16 *548:10 8.02105e-05
11 *363:16 *697:75 0
12 *363:16 *697:77 0
13 *363:16 *705:12 0
14 *363:16 *723:12 0
15 *363:16 *723:32 0.00026636
16 *363:16 *723:54 0
17 *363:16 *759:10 0
18 *363:16 *1162:12 0
19 *363:22 *2923:D 0
20 *363:22 *697:59 0
21 *363:22 *864:23 0
22 *363:22 *879:8 0
23 *363:22 *885:84 0
24 *3209:D *363:16 8.01445e-05
25 *348:10 *363:16 0
*RES
1 *2686:Y *363:16 46.9139 
2 *363:16 *363:22 42.0806 
3 *363:22 *3055:A 20 
4 *363:16 *2923:A 20 
*END

*D_NET *364 0.0034165
*CONN
*I *2918:A I *D sg13g2_nand4_1
*I *3050:A I *D sg13g2_nand4_1
*I *2687:Y O *D sg13g2_inv_1
*CAP
1 *2918:A 0.000145988
2 *3050:A 0
3 *2687:Y 0.000898089
4 *364:12 0.000208499
5 *364:6 0.00125258
6 *2918:A *2918:B 0
7 *2918:A *2918:C 0
8 *2918:A *877:44 0
9 *364:6 *2918:C 0
10 *364:6 *378:12 0
11 *364:6 *379:22 0
12 *364:12 *639:10 7.4559e-05
13 *364:12 *697:218 0
14 *364:12 *868:63 0.000232389
15 *364:12 *873:55 0.000604395
16 *364:12 *1166:62 0
*RES
1 *2687:Y *364:6 27.8898 
2 *364:6 *364:12 43.0694 
3 *364:12 *3050:A 20 
4 *364:6 *2918:A 21.3184 
*END

*D_NET *365 0.00591109
*CONN
*I *2914:A I *D sg13g2_nand4_1
*I *3046:A I *D sg13g2_nand4_1
*I *2688:Y O *D sg13g2_inv_1
*CAP
1 *2914:A 0
2 *3046:A 0
3 *2688:Y 0.000467514
4 *365:29 0.000185117
5 *365:16 0.00108896
6 *365:8 0.00137136
7 *365:8 *2708:A 0
8 *365:8 *492:22 0
9 *365:8 *535:12 0.000821622
10 *365:8 *626:10 0.000340982
11 *365:8 *868:44 0.000396603
12 *365:16 *3028:A 4.77425e-05
13 *365:16 *3028:B 0.000209505
14 *365:16 *3046:B 4.77425e-05
15 *365:16 *3277:RESET_B 0
16 *365:16 *621:10 0
17 *365:16 *811:49 0.000501079
18 *365:16 *867:80 0
19 *365:16 *886:52 0
20 *365:29 *3046:B 4.77201e-05
21 *365:29 *811:49 0
22 *365:29 *868:82 0.000385144
*RES
1 *2688:Y *365:8 45.7886 
2 *365:8 *365:16 28.9919 
3 *365:16 *3046:A 20 
4 *365:16 *365:29 42.3072 
5 *365:29 *2914:A 20 
*END

*D_NET *366 0.0080633
*CONN
*I *3042:A I *D sg13g2_nand4_1
*I *2910:A I *D sg13g2_nand4_1
*I *2689:Y O *D sg13g2_inv_1
*CAP
1 *3042:A 0.000213878
2 *2910:A 0.000444943
3 *2689:Y 0.000867416
4 *366:16 0.00152624
5 *2910:A *2910:B 8.0216e-05
6 *2910:A *2918:C 0.000660556
7 *2910:A *3046:C 0.000128662
8 *2910:A *857:84 0.000926962
9 *2910:A *873:55 0
10 *2910:A *886:63 0.00111865
11 *3042:A *2918:C 0.000212215
12 *3042:A *868:52 8.00842e-05
13 *3042:A *868:63 3.23417e-05
14 *3042:A *886:63 0.000497964
15 *366:16 *2688:A 0
16 *366:16 *2689:A 4.78521e-05
17 *366:16 *3025:A2 8.00842e-05
18 *366:16 *3025:B1 0.000339525
19 *366:16 *3275:RESET_B 0.000339464
20 *366:16 *379:22 8.00951e-05
21 *366:16 *708:44 0
22 *366:16 *708:69 0
23 *366:16 *821:82 7.93152e-05
24 *366:16 *1096:14 0
25 *366:16 *1178:25 0.000226753
26 *366:16 *1179:12 0
27 *366:16 *1179:32 0
28 *3503:A *366:16 8.00842e-05
*RES
1 *2689:Y *366:16 49.785 
2 *366:16 *2910:A 48.0237 
3 *366:16 *3042:A 43.0797 
*END

*D_NET *367 0.00255092
*CONN
*I *3038:A I *D sg13g2_nand4_1
*I *2906:A I *D sg13g2_nand4_1
*I *2690:Y O *D sg13g2_inv_1
*CAP
1 *3038:A 0.000484088
2 *2906:A 9.61294e-05
3 *2690:Y 0
4 *367:6 0.000580217
5 *2906:A *868:44 0
6 *2906:A *889:98 0.000237803
7 *3038:A *635:8 0
8 *3038:A *811:28 0
9 *3038:A *868:100 0
10 *3038:A *877:33 0
11 *3038:A *889:98 0.00115268
*RES
1 *2690:Y *367:6 40 
2 *367:6 *2906:A 41.0918 
3 *367:6 *3038:A 45.5414 
*END

*D_NET *368 0.00820829
*CONN
*I *3034:A I *D sg13g2_nand4_1
*I *2902:A I *D sg13g2_nand4_1
*I *2691:Y O *D sg13g2_inv_1
*CAP
1 *3034:A 6.68549e-05
2 *2902:A 0
3 *2691:Y 0.00068789
4 *368:33 0.000613861
5 *368:16 0.00058719
6 *368:6 0.00182209
7 *3034:A *3035:A1 0
8 *3034:A *3035:A2 2.12795e-05
9 *3034:A *3607:A 0
10 *3034:A *868:114 4.78521e-05
11 *3034:A *886:121 0
12 *368:6 *2691:A 0.00043341
13 *368:6 *2906:C 0
14 *368:6 *3024:B 0
15 *368:6 *626:10 0
16 *368:6 *809:10 8.0216e-05
17 *368:6 *868:38 0
18 *368:6 *894:75 0.000112635
19 *368:6 *894:81 0
20 *368:16 *2694:A 0
21 *368:16 *3023:A2 0
22 *368:16 *371:10 0
23 *368:16 *532:12 0.000156323
24 *368:16 *867:35 4.77425e-05
25 *368:16 *886:121 0
26 *368:16 *1083:14 0
27 *368:33 *3034:D 0
28 *368:33 *3035:A2 4.68039e-05
29 *368:33 *868:114 0
30 *368:33 *876:10 0.00129446
31 *368:33 *876:12 7.62464e-05
32 *368:33 *877:8 0.000130055
33 *368:33 *886:121 0.00198339
34 *368:33 *895:88 0
*RES
1 *2691:Y *368:6 26.1594 
2 *368:6 *368:16 45.253 
3 *368:16 *2902:A 20 
4 *368:6 *368:33 49.9266 
5 *368:33 *3034:A 20.8884 
*END

*D_NET *369 0.00283904
*CONN
*I *3030:A I *D sg13g2_nand4_1
*I *2898:A I *D sg13g2_nand4_1
*I *2692:Y O *D sg13g2_inv_1
*CAP
1 *3030:A 0
2 *2898:A 0.000628964
3 *2692:Y 0.000362343
4 *369:10 0.000991307
5 *2898:A *3030:C 0
6 *2898:A *857:51 0
7 *2898:A *857:62 0
8 *2898:A *861:61 0
9 *2898:A *861:74 0.000469379
10 *369:10 *2692:A 4.77425e-05
11 *369:10 *3028:B 0
12 *369:10 *3030:C 0
13 *369:10 *625:8 0.000291566
14 *369:10 *626:10 4.77425e-05
15 *369:10 *627:8 0
16 *369:10 *861:61 0
17 *369:10 *886:52 0
18 *369:10 *894:57 0
*RES
1 *2692:Y *369:10 43.4161 
2 *369:10 *2898:A 46.798 
3 *369:10 *3030:A 40 
*END

*D_NET *370 0.00332156
*CONN
*I *3026:A I *D sg13g2_nand4_1
*I *2894:A I *D sg13g2_nand4_1
*I *2693:Y O *D sg13g2_inv_1
*CAP
1 *3026:A 0
2 *2894:A 0
3 *2693:Y 0.00035825
4 *370:26 0.000425156
5 *370:10 0.000783406
6 *370:10 *2693:A 0.000143182
7 *370:10 *3593:A 0
8 *370:10 *626:10 4.74248e-05
9 *370:10 *1023:32 0
10 *370:26 *3409:A 0.000111568
11 *370:26 *3593:A 0
12 *370:26 *523:10 0
13 *370:26 *626:10 1.54008e-05
14 *370:26 *867:8 0.000304879
15 *370:26 *867:58 0.00047234
16 *370:26 *876:33 3.64377e-05
17 *370:26 *894:81 0.000446405
18 *370:26 *1127:10 0.000177109
*RES
1 *2693:Y *370:10 23.3681 
2 *370:10 *370:26 45.6557 
3 *370:26 *2894:A 20 
4 *370:10 *3026:A 20 
*END

*D_NET *371 0.00309308
*CONN
*I *3022:A I *D sg13g2_nand4_1
*I *2890:A I *D sg13g2_nand4_1
*I *2694:Y O *D sg13g2_inv_1
*CAP
1 *3022:A 0
2 *2890:A 0.000445571
3 *2694:Y 0.000374159
4 *371:10 0.00081973
5 *2890:A *2890:B 0.000342864
6 *2890:A *532:12 0
7 *2890:A *809:20 0
8 *2890:A *867:23 0.00031562
9 *2890:A *867:35 0.000342145
10 *2890:A *1083:14 2.20966e-05
11 *371:10 *2694:A 0.000144102
12 *371:10 *3273:D 0
13 *371:10 *809:20 0
14 *371:10 *821:88 0
15 *371:10 *886:121 0
16 *371:10 *1083:14 0.000286789
17 *368:16 *371:10 0
*RES
1 *2694:Y *371:10 43.7904 
2 *371:10 *2890:A 45.047 
3 *371:10 *3022:A 40 
*END

*D_NET *372 0.00842276
*CONN
*I *3017:A I *D sg13g2_nand4_1
*I *2885:A I *D sg13g2_nand4_1
*I *2695:Y O *D sg13g2_inv_1
*CAP
1 *3017:A 3.65924e-05
2 *2885:A 0.00055343
3 *2695:Y 0.00233694
4 *372:20 0.000719136
5 *372:16 0.00246605
6 *2885:A *3009:B 0
7 *2885:A *613:8 0.000287256
8 *2885:A *858:97 0
9 *2885:A *858:112 0.000229431
10 *2885:A *875:52 4.72443e-05
11 *2885:A *887:42 0
12 *2885:A *887:87 0
13 *3017:A *619:10 4.72443e-05
14 *372:16 *2696:A 0
15 *372:16 *2998:A1 4.77425e-05
16 *372:16 *3002:B1 0
17 *372:16 *3002:A2 0
18 *372:16 *3010:A1 0
19 *372:16 *3279:CLK 0.000209681
20 *372:16 *3281:RESET_B 0
21 *372:16 *3283:RESET_B 0
22 *372:16 *3287:RESET_B 0.000112558
23 *372:16 *3287:D 0.000274769
24 *372:16 *373:22 0
25 *372:16 *376:10 0
26 *372:16 *709:14 0
27 *372:16 *813:10 0.000112579
28 *372:16 *813:30 0.000337901
29 *372:16 *814:10 0.000111744
30 *372:16 *932:10 0.000177257
31 *372:16 *1167:8 0
32 *372:20 *3002:B1 0
33 *372:20 *613:8 0.000315205
34 *372:20 *824:25 0
*RES
1 *2695:Y *372:16 43.7312 
2 *372:16 *372:20 21.5862 
3 *372:20 *2885:A 44.8719 
4 *372:20 *3017:A 40.3193 
*END

*D_NET *373 0.00881813
*CONN
*I *3013:A I *D sg13g2_nand4_1
*I *2881:A I *D sg13g2_nand4_1
*I *2696:Y O *D sg13g2_inv_1
*CAP
1 *3013:A 3.25644e-05
2 *2881:A 0
3 *2696:Y 0.00276067
4 *373:30 0.000449961
5 *373:22 0.0032432
6 *373:22 *3001:C 1.54008e-05
7 *373:22 *3002:B1 0
8 *373:22 *3002:A2 0.000111853
9 *373:22 *3013:C 0
10 *373:22 *3017:B 0.000176564
11 *373:22 *3049:A1 0
12 *373:22 *3052:A 0
13 *373:22 *3283:RESET_B 0
14 *373:22 *3287:RESET_B 0
15 *373:22 *3287:D 0
16 *373:22 *3361:A 0
17 *373:22 *3415:A 0
18 *373:22 *3436:A 0
19 *373:22 *374:18 0
20 *373:22 *619:10 0.000532482
21 *373:22 *709:8 0
22 *373:22 *709:14 0.000177598
23 *373:22 *813:30 0
24 *373:22 *825:34 0.000663548
25 *373:22 *887:87 0
26 *373:22 *887:93 0.000533036
27 *373:30 *513:10 0
28 *373:30 *516:8 7.35191e-05
29 *373:30 *823:43 0
30 *373:30 *870:45 4.77299e-05
31 *373:30 *898:84 0
32 *372:16 *373:22 0
*RES
1 *2696:Y *373:22 48.3062 
2 *373:22 *373:30 44.1303 
3 *373:30 *2881:A 20 
4 *373:22 *3013:A 20.3193 
*END

*D_NET *374 0.00631141
*CONN
*I *3009:A I *D sg13g2_nand4_1
*I *2877:A I *D sg13g2_nand4_1
*I *2697:Y O *D sg13g2_inv_1
*CAP
1 *3009:A 0.000132538
2 *2877:A 0
3 *2697:Y 0.00208252
4 *374:26 0.000244062
5 *374:18 0.00245912
6 *3009:A *3009:C 0
7 *3009:A *1167:31 0
8 *374:18 *3037:A1 0.000210026
9 *374:18 *3040:A 0
10 *374:18 *3049:A2 0.00017663
11 *374:18 *3415:A 0
12 *374:18 *377:10 0
13 *374:18 *604:10 0
14 *374:18 *621:82 0
15 *374:18 *639:10 0
16 *374:18 *811:81 4.77425e-05
17 *374:18 *825:34 0
18 *374:18 *825:53 0
19 *374:18 *874:8 0
20 *374:18 *875:15 0
21 *374:18 *887:108 0
22 *374:18 *895:42 0.00024211
23 *374:18 *895:54 0.000209637
24 *374:18 *1167:31 0
25 *374:26 *2877:B 4.78359e-05
26 *374:26 *3009:C 0
27 *374:26 *513:10 1.54556e-05
28 *374:26 *814:20 0.000341535
29 *374:26 *825:59 0
30 *374:26 *858:112 0
31 *374:26 *869:29 8.00954e-05
32 *374:26 *875:25 2.20966e-05
33 *3516:A *374:18 0
34 *373:22 *374:18 0
*RES
1 *2697:Y *374:18 40.0953 
2 *374:18 *374:26 42.7707 
3 *374:26 *2877:A 20 
4 *374:18 *3009:A 21.1845 
*END

*D_NET *375 0.0150533
*CONN
*I *3005:A I *D sg13g2_nand4_1
*I *2873:A I *D sg13g2_nand4_1
*I *2698:Y O *D sg13g2_inv_1
*CAP
1 *3005:A 6.05289e-05
2 *2873:A 0
3 *2698:Y 0.00219345
4 *375:24 0.000265103
5 *375:14 0.00103984
6 *375:12 0.00257193
7 *375:8 0.00405118
8 *3005:A *3005:B 0.000112558
9 *375:8 *2698:A 0.000467114
10 *375:8 *3706:A 0
11 *375:8 *709:42 0
12 *375:8 *982:12 0.00046894
13 *375:8 *1028:10 0
14 *375:8 *1051:12 4.77425e-05
15 *375:8 *1183:14 0
16 *375:8 *1183:31 0
17 *375:8 *1186:25 0.000219036
18 *375:12 *3261:RESET_B 0.00053386
19 *375:12 *3261:CLK 0
20 *375:12 *3267:RESET_B 0
21 *375:12 *3271:CLK 0.000273617
22 *375:12 *702:69 0
23 *375:12 *711:68 0
24 *375:12 *1186:25 0
25 *375:14 *3005:B 5.38157e-05
26 *375:14 *718:8 0
27 *375:14 *718:12 0
28 *375:14 *719:27 0
29 *375:14 *790:18 0.00221752
30 *375:24 *3005:B 0.000238973
31 *375:24 *697:278 0
32 *375:24 *790:18 0.000238126
33 s_axil_bresp[0] *375:8 0
34 *241:12 *375:8 0
35 *321:8 *375:14 0
*RES
1 *2698:Y *375:8 43.2883 
2 *375:8 *375:12 39.9408 
3 *375:12 *375:14 10.2382 
4 *375:14 *375:24 43.1518 
5 *375:24 *2873:A 40 
6 *375:14 *3005:A 40.9682 
*END

*D_NET *376 0.00844022
*CONN
*I *3001:A I *D sg13g2_nand4_1
*I *2869:A I *D sg13g2_nand4_1
*I *2699:Y O *D sg13g2_inv_1
*CAP
1 *3001:A 0
2 *2869:A 0.000400695
3 *2699:Y 0.00206347
4 *376:14 0.000654935
5 *376:10 0.00231771
6 *2869:A *2865:A 0.00012816
7 *2869:A *2997:A 0.000265354
8 *2869:A *3001:B 0
9 *376:10 *2699:A 1.54008e-05
10 *376:10 *2703:A 0
11 *376:10 *2849:B 0
12 *376:10 *2850:A 0
13 *376:10 *3279:CLK 0
14 *376:10 *3281:RESET_B 0
15 *376:10 *3611:A 0
16 *376:10 *3612:A 0.000307002
17 *376:10 *714:48 0
18 *376:10 *932:10 0
19 *376:10 *1155:10 7.94445e-05
20 *376:10 *1167:8 0.00220805
21 *376:10 *1180:33 0
22 *376:14 *1167:16 0
23 *372:16 *376:10 0
*RES
1 *2699:Y *376:10 41.321 
2 *376:10 *376:14 22.575 
3 *376:14 *2869:A 44.4496 
4 *376:14 *3001:A 40 
*END

*D_NET *377 0.00707281
*CONN
*I *2997:A I *D sg13g2_nand4_1
*I *2865:A I *D sg13g2_nand4_1
*I *2700:Y O *D sg13g2_inv_1
*CAP
1 *2997:A 5.4059e-05
2 *2865:A 0.000129852
3 *2700:Y 0.00184978
4 *377:12 0.000183911
5 *377:10 0.00184978
6 *2865:A *2869:C 0.000339409
7 *2865:A *869:12 0.000390749
8 *2865:A *869:67 0.000159096
9 *2997:A *869:67 0.000287343
10 *377:10 *2700:A 0
11 *377:10 *3038:B 0
12 *377:10 *3041:A1 4.77425e-05
13 *377:10 *3041:B1 8.00842e-05
14 *377:10 *3050:C 0
15 *377:10 *3051:A1 3.24568e-05
16 *377:10 *3051:A2 0
17 *377:10 *3412:A 0
18 *377:10 *621:82 4.77425e-05
19 *377:10 *621:91 0
20 *377:10 *636:10 0.000339135
21 *377:10 *811:20 0.000209315
22 *377:10 *811:28 0
23 *377:10 *811:73 8.00954e-05
24 *377:10 *825:53 0
25 *377:10 *870:6 0
26 *377:10 *895:42 0
27 *377:10 *895:54 0.000598746
28 *377:10 *1166:43 0
29 *2869:A *2865:A 0.00012816
30 *2869:A *2997:A 0.000265354
31 *374:18 *377:10 0
*RES
1 *2700:Y *377:10 37.6439 
2 *377:10 *377:12 20 
3 *377:12 *2865:A 42.575 
4 *377:12 *2997:A 41.339 
*END

*D_NET *378 0.00867035
*CONN
*I *2861:A I *D sg13g2_nand4_1
*I *2993:A I *D sg13g2_nand4_1
*I *2701:Y O *D sg13g2_inv_1
*CAP
1 *2861:A 0
2 *2993:A 0
3 *2701:Y 0.000965477
4 *378:36 0.000184346
5 *378:30 0.000369974
6 *378:22 0.000347094
7 *378:16 0.00247065
8 *378:12 0.00327466
9 *378:12 *2687:A 7.00275e-05
10 *378:12 *2701:A 4.78521e-05
11 *378:12 *868:52 0
12 *378:16 *514:14 0
13 *378:16 *711:25 0
14 *378:16 *872:29 0
15 *378:16 *887:42 0
16 *378:16 *1177:23 0
17 *378:22 *2874:A2 4.78521e-05
18 *378:22 *2879:B 0
19 *378:22 *1187:43 8.03692e-05
20 *378:30 *2882:A1 0
21 *378:30 *790:18 0.000237686
22 *378:30 *858:75 7.35388e-05
23 *378:30 *870:79 4.78688e-05
24 *378:36 *870:79 0.000452949
25 *364:6 *378:12 0
*RES
1 *2701:Y *378:12 48.1267 
2 *378:12 *378:16 46.059 
3 *378:16 *378:22 41.4008 
4 *378:22 *378:30 42.06 
5 *378:30 *378:36 42.0806 
6 *378:36 *2993:A 20 
7 *378:30 *2861:A 20 
*END

*D_NET *379 0.00852029
*CONN
*I *2989:A I *D sg13g2_nand4_1
*I *2857:A I *D sg13g2_nand4_1
*I *2702:Y O *D sg13g2_inv_1
*CAP
1 *2989:A 0
2 *2857:A 0
3 *2702:Y 0.00256908
4 *379:28 8.3984e-05
5 *379:22 0.00265307
6 *379:22 *2702:A 4.78521e-05
7 *379:22 *2866:B1 0.000144942
8 *379:22 *2866:A1 0
9 *379:22 *2918:C 2.21754e-05
10 *379:22 *2918:D 8.0216e-05
11 *379:22 *2987:A 8.02431e-05
12 *379:22 *2989:D 0
13 *379:22 *2990:A2 1.54008e-05
14 *379:22 *544:8 0
15 *379:22 *596:18 0.000208405
16 *379:22 *708:59 0.00027465
17 *379:22 *708:69 0.000629775
18 *379:22 *858:41 0
19 *379:22 *859:33 0
20 *379:22 *1179:32 0.000524843
21 *379:22 *1185:10 0
22 *379:28 *2855:B 7.55443e-05
23 *379:28 *2857:B 0.000340374
24 *379:28 *814:20 0
25 *379:28 *887:23 0.000318191
26 *3197:D *379:22 0.000371445
27 *364:6 *379:22 0
28 *366:16 *379:22 8.00951e-05
*RES
1 *2702:Y *379:22 46.4195 
2 *379:22 *379:28 41.8334 
3 *379:28 *2857:A 20 
4 *379:22 *2989:A 20 
*END

*D_NET *380 0.00214045
*CONN
*I *2850:A I *D sg13g2_nand4_1
*I *2703:Y O *D sg13g2_inv_1
*CAP
1 *2850:A 0.000596588
2 *2703:Y 0.00012255
3 *380:8 0.000719138
4 *2850:A *2850:B 1.54556e-05
5 *2850:A *2850:C 0
6 *2850:A *2850:D 0
7 *2850:A *3612:A 0.000274638
8 *2850:A *3621:A 0
9 *2850:A *493:16 2.56991e-05
10 *2850:A *714:48 0.000274545
11 *2850:A *1164:8 0.000111838
12 *380:8 *714:48 0
13 *380:8 *1180:12 0
14 *376:10 *2850:A 0
*RES
1 *2703:Y *380:8 40.8446 
2 *380:8 *2850:A 46.1259 
*END

*D_NET *381 0.00247408
*CONN
*I *2849:B I *D sg13g2_nor3_1
*I *2704:Y O *D sg13g2_inv_1
*CAP
1 *2849:B 0.000809164
2 *2704:Y 0.000809164
3 *2849:B *2695:A 0
4 *2849:B *2696:A 0
5 *2849:B *2703:A 0
6 *2849:B *2849:A 0
7 *2849:B *3279:CLK 0
8 *2849:B *3611:A 0.000274507
9 *2849:B *491:22 0.000209769
10 *2849:B *492:12 0
11 *2849:B *1152:14 0.000371477
12 *376:10 *2849:B 0
*RES
1 *2704:Y *2849:B 47.8074 
*END

*D_NET *382 0.00255548
*CONN
*I *2987:C I *D sg13g2_nor3_1
*I *2855:C I *D sg13g2_nor3_1
*I *2705:Y O *D sg13g2_inv_1
*CAP
1 *2987:C 6.27123e-05
2 *2855:C 0.000356759
3 *2705:Y 3.59608e-05
4 *382:8 0.000455433
5 *2855:C *2855:A 0
6 *2855:C *2855:B 1.54008e-05
7 *2855:C *2864:A2 0.000177268
8 *2855:C *2987:A 0.000553661
9 *2855:C *3369:A 0.000241979
10 *2855:C *508:10 0
11 *2855:C *596:18 0.000181192
12 *2855:C *596:33 0.000106064
13 *2855:C *814:20 0
14 *2855:C *858:56 0
15 *2987:C *858:41 1.54556e-05
16 *2987:C *858:56 0.000112716
17 *2987:C *859:33 0.000112716
18 *382:8 *596:33 0.00012816
*RES
1 *2705:Y *382:8 40.5974 
2 *382:8 *2855:C 44.9337 
3 *382:8 *2987:C 40.7519 
*END

*D_NET *383 0.00141592
*CONN
*I *3414:A I *D sg13g2_buf_1
*I *2706:Y O *D sg13g2_inv_1
*CAP
1 *3414:A 0.000427779
2 *2706:Y 0.000427779
3 *3414:A *3403:A 0.0001122
4 *3414:A *3423:A 0.000161352
5 *3414:A *3425:A 0
6 *3414:A *1023:12 7.89542e-05
7 *351:10 *3414:A 0
8 *353:12 *3414:A 0
9 *355:20 *3414:A 0.000207854
*RES
1 *2706:Y *3414:A 44.4393 
*END

*D_NET *384 0.00204292
*CONN
*I *3403:A I *D sg13g2_buf_1
*I *2707:Y O *D sg13g2_inv_1
*CAP
1 *3403:A 0.000665811
2 *2707:Y 0.000665811
3 *3403:A *2707:A 4.75212e-05
4 *3403:A *3309:CLK 0
5 *3403:A *671:14 0
6 *3403:A *861:16 0
7 *3403:A *861:26 1.53931e-05
8 *3403:A *873:14 8.48894e-05
9 *3403:A *873:26 0
10 *3403:A *881:59 0.000435892
11 *3414:A *3403:A 0.0001122
12 *355:12 *3403:A 1.54008e-05
13 *355:20 *3403:A 0
14 *355:24 *3403:A 0
*RES
1 *2707:Y *3403:A 46.489 
*END

*D_NET *385 0.00172381
*CONN
*I *3020:C I *D sg13g2_nor3_1
*I *2888:C I *D sg13g2_nor3_1
*I *2708:Y O *D sg13g2_inv_1
*CAP
1 *3020:C 0.000134568
2 *2888:C 0.000169619
3 *2708:Y 0
4 *385:6 0.000304187
5 *2888:C *886:26 0.000453454
6 *3020:C *2708:A 0.00034087
7 *3020:C *535:12 0
8 *3020:C *886:26 0.000321111
*RES
1 *2708:Y *385:6 40 
2 *385:6 *2888:C 42.0806 
3 *385:6 *3020:C 42.0806 
*END

*D_NET *386 0.00254951
*CONN
*I *3053:C I *D sg13g2_nor3_1
*I *2921:C I *D sg13g2_nor3_1
*I *2709:Y O *D sg13g2_inv_1
*CAP
1 *3053:C 0
2 *2921:C 0.000119376
3 *2709:Y 0.000331981
4 *386:34 0.000122673
5 *386:28 0.000301362
6 *386:10 0.000272668
7 *2921:C *2921:B 0
8 *2921:C *722:39 8.03091e-05
9 *386:10 *581:8 0.000286896
10 *386:10 *818:14 0
11 *386:10 *885:111 0.000499952
12 *386:10 *1181:31 4.76068e-05
13 *386:28 *2967:B1 0
14 *386:34 *855:47 0.000246843
15 *3247:D *2921:C 0.000111683
16 *359:20 *386:10 0.00012816
*RES
1 *2709:Y *386:10 42.6471 
2 *386:10 *2921:C 41.1845 
3 *2709:Y *386:28 41.5862 
4 *386:28 *386:34 41.6171 
5 *386:34 *3053:C 40 
*END

*D_NET *387 0.000712167
*CONN
*I *2954:C I *D sg13g2_nor3_1
*I *3086:C I *D sg13g2_nor3_1
*I *2710:Y O *D sg13g2_inv_1
*CAP
1 *2954:C 0.000121947
2 *3086:C 4.7999e-05
3 *2710:Y 4.97797e-05
4 *387:6 0.000219726
5 *2954:C *2710:A 0
6 *2954:C *671:93 0.000194143
7 *2954:C *883:54 0
8 *2954:C *884:52 4.77425e-05
9 *3086:C *2710:A 0
10 *3086:C *3086:A 0
11 *3086:C *671:93 1.54008e-05
12 *3086:C *856:22 1.54285e-05
*RES
1 *2710:Y *387:6 20.5974 
2 *387:6 *3086:C 20.5356 
3 *387:6 *2954:C 21.4008 
*END

*D_NET *388 0.0164279
*CONN
*I *3382:A I *D sg13g2_buf_1
*I *3379:A I *D sg13g2_buf_1
*I *2711:Y O *D sg13g2_nor2b_1
*CAP
1 *3382:A 7.75956e-05
2 *3379:A 0.000863423
3 *2711:Y 0.000201945
4 *388:12 0.00330176
5 *388:10 0.00271788
6 *3379:A *2756:A1 0
7 *3379:A *745:28 0.00133448
8 *3379:A *834:14 0
9 *3382:A *837:14 6.31433e-05
10 *388:10 *389:12 0
11 *388:10 *702:48 0
12 *388:10 *799:22 0
13 *388:10 *800:33 0.000607109
14 *388:10 *835:12 0.000212543
15 *388:12 *509:8 0
16 *388:12 *710:61 0
17 *388:12 *726:20 0.000127823
18 *388:12 *751:8 0
19 *388:12 *799:18 0
20 *388:12 *799:22 0
21 *388:12 *800:33 0.00618442
22 *388:12 *835:12 0.000181608
23 *287:8 *388:12 0.000554163
*RES
1 *2711:Y *388:10 43.1415 
2 *388:10 *388:12 31.003 
3 *388:12 *3379:A 48.9713 
4 *388:10 *3382:A 40.7519 
*END

*D_NET *389 0.015154
*CONN
*I *3377:A I *D sg13g2_buf_1
*I *3375:A I *D sg13g2_buf_1
*I *2712:Y O *D sg13g2_nand2b_1
*CAP
1 *3377:A 2.98749e-05
2 *3375:A 0
3 *2712:Y 0.000997065
4 *389:24 0.00227029
5 *389:20 0.00332597
6 *389:14 0.00155689
7 *389:12 0.0014684
8 *3377:A *719:37 4.77425e-05
9 *389:12 *2712:A_N 0
10 *389:12 *2800:A1 8.02431e-05
11 *389:12 *3163:CLK 0
12 *389:12 *3187:RESET_B 0.000273098
13 *389:12 *702:48 0
14 *389:12 *763:32 0
15 *389:12 *835:21 0
16 *389:12 *835:38 0
17 *389:14 *393:18 0.00063473
18 *389:14 *772:25 0
19 *389:14 *774:23 0.0016134
20 *389:14 *843:12 0
21 *389:14 *843:127 0
22 *389:14 *905:75 0
23 *389:20 *2784:A1 0.000763219
24 *389:20 *393:18 0.00028427
25 *389:20 *444:10 0
26 *389:20 *772:25 0
27 *389:20 *774:23 0.00015611
28 *389:20 *832:10 0
29 *389:20 *843:23 0
30 *389:24 *2792:A1 0
31 *389:24 *3153:CLK 0.000446132
32 *389:24 *393:37 0
33 *389:24 *450:10 0.000605949
34 *389:24 *700:69 0.000600563
35 *389:24 *776:29 0
36 *389:24 *1173:40 0
37 *264:10 *389:20 0
38 *388:10 *389:12 0
*RES
1 *2712:Y *389:12 49.245 
2 *389:12 *389:14 7.519 
3 *389:14 *389:20 32.0407 
4 *389:20 *389:24 41.115 
5 *389:24 *3375:A 40 
6 *389:14 *3377:A 40.3193 
*END

*D_NET *390 0.000868882
*CONN
*I *2847:A I *D sg13g2_nand2_1
*I *2714:A I *D sg13g2_inv_1
*I *2713:Y O *D sg13g2_nand2_1
*CAP
1 *2847:A 4.70616e-05
2 *2714:A 2.88998e-05
3 *2713:Y 6.04819e-05
4 *390:12 0.000227114
5 *390:8 0.000211634
6 *2714:A *2713:A 0
7 *390:8 *798:24 0
8 *390:12 *2713:A 0.000149572
9 *390:12 *2847:B 0
10 *3121:D *2714:A 0
11 *3121:D *2847:A 0
12 *3187:D *2847:A 0
13 *3187:D *390:12 0.000144118
*RES
1 *2713:Y *390:8 40.5974 
2 *390:8 *390:12 21.6171 
3 *390:12 *2714:A 20.3502 
4 *390:12 *2847:A 20.5974 
*END

*D_NET *391 0.0160293
*CONN
*I *3397:A I *D sg13g2_buf_1
*I *2779:A2 I *D sg13g2_a22oi_1
*I *3394:A I *D sg13g2_buf_1
*I *2715:Y O *D sg13g2_nor2_1
*CAP
1 *3397:A 0.000927861
2 *2779:A2 2.13921e-05
3 *3394:A 0.000742793
4 *2715:Y 0.000773052
5 *391:37 0.000408164
6 *391:12 0.0040646
7 *391:8 0.00463594
8 *2779:A2 *440:10 0
9 *2779:A2 *1174:26 3.15716e-05
10 *3394:A *452:18 0.000272995
11 *3394:A *458:10 0
12 *3394:A *460:20 0.000284223
13 *3394:A *760:26 0.000194517
14 *3394:A *770:49 0
15 *3394:A *848:8 4.76053e-05
16 *3394:A *848:27 2.17891e-05
17 *3394:A *851:8 0
18 *3394:A *1174:26 0
19 *3397:A *2822:B1 0
20 *3397:A *2836:A1 0
21 *3397:A *3181:CLK 0.00033743
22 *3397:A *3717:A 0
23 *3397:A *3727:A 0
24 *3397:A *791:12 0.000564047
25 *3397:A *791:27 0.000161915
26 *3397:A *854:10 0
27 *3397:A *1179:63 0
28 *3397:A *1191:26 0
29 *391:8 *2816:A1 4.77425e-05
30 *391:8 *2816:A2 0
31 *391:8 *905:38 0
32 *391:8 *905:119 0
33 *391:12 *2808:A1 0
34 *391:12 *452:10 0
35 *391:12 *460:20 0
36 *391:12 *461:10 0
37 *391:12 *462:10 0.000600627
38 *391:12 *464:10 0
39 *391:12 *721:87 0.000335499
40 *391:12 *770:49 0
41 *391:12 *781:27 0
42 *391:12 *831:81 0.000288502
43 *391:12 *846:55 0.000127744
44 *391:12 *852:14 0
45 *391:12 *854:24 0
46 *391:12 *854:30 0
47 *391:37 *440:10 0.000335652
48 *391:37 *741:32 0.000401901
49 *391:37 *770:20 0.000401767
50 *391:37 *827:20 0
51 *22:10 *3397:A 0
*RES
1 *2715:Y *391:8 26.5096 
2 *391:8 *391:12 45.3174 
3 *391:12 *3394:A 47.622 
4 *391:12 *391:37 44.2848 
5 *391:37 *2779:A2 40.2112 
6 *391:8 *3397:A 29.5378 
*END

*D_NET *392 0.0161327
*CONN
*I *3390:A I *D sg13g2_buf_1
*I *3389:A I *D sg13g2_buf_1
*I *3392:A I *D sg13g2_buf_1
*I *2716:Y O *D sg13g2_nor2b_1
*CAP
1 *3390:A 0
2 *3389:A 0.000291707
3 *3392:A 0
4 *2716:Y 0.000563124
5 *392:41 0.00104994
6 *392:30 0.00100447
7 *392:22 0.00066158
8 *392:18 0.00249268
9 *392:12 0.00264046
10 *3389:A *3135:RESET_B 8.00842e-05
11 *3389:A *3135:D 4.78356e-05
12 *3389:A *757:77 0
13 *3389:A *829:10 0.000176274
14 *3389:A *1060:12 0
15 *3389:A *1065:24 0
16 *392:12 *3171:CLK 0.000394151
17 *392:12 *781:27 0
18 *392:12 *831:65 0
19 *392:12 *832:18 0
20 *392:12 *905:38 0
21 *392:12 *905:119 0
22 *392:18 *449:8 0
23 *392:18 *458:18 0
24 *392:18 *458:32 0
25 *392:18 *697:301 0
26 *392:18 *703:10 0
27 *392:18 *703:16 0
28 *392:18 *745:28 0.000304338
29 *392:18 *748:37 0
30 *392:18 *781:27 0
31 *392:18 *843:74 0.000234311
32 *392:18 *854:30 0
33 *392:18 *1185:34 0.00134997
34 *392:22 *460:20 0
35 *392:22 *793:12 0
36 *392:30 *2779:B1 4.78356e-05
37 *392:30 *460:20 0
38 *392:30 *782:16 0.000761234
39 *392:30 *793:12 0.000865537
40 *392:30 *1174:26 4.77425e-05
41 *392:41 *2779:B1 0.00012923
42 *392:41 *2783:B2 0
43 *392:41 *760:14 0.00122981
44 *392:41 *770:49 0.000389867
45 *392:41 *797:29 0
46 *392:41 *840:88 0
47 *392:41 *851:20 0
48 *392:41 *1171:18 0.00112954
49 *392:41 *1174:26 0.000240957
*RES
1 *2716:Y *392:12 45.9637 
2 *392:12 *392:18 41.6815 
3 *392:18 *392:22 23.0694 
4 *392:22 *392:30 24.6968 
5 *392:30 *3392:A 20 
6 *392:30 *392:41 30.6193 
7 *392:41 *3389:A 42.8325 
8 *392:22 *3390:A 40 
*END

*D_NET *393 0.0164001
*CONN
*I *3384:A I *D sg13g2_buf_1
*I *3387:A I *D sg13g2_buf_1
*I *2717:Y O *D sg13g2_nor2b_1
*CAP
1 *3384:A 0
2 *3387:A 0
3 *2717:Y 5.11945e-05
4 *393:37 0.00181013
5 *393:31 0.00261888
6 *393:18 0.000338371
7 *393:12 0.0013627
8 *393:8 0.00026677
9 *393:8 *767:29 0.000232418
10 *393:8 *770:32 0.000232418
11 *393:12 *718:14 0.000404099
12 *393:12 *1191:20 0.000403858
13 *393:18 *772:25 0
14 *393:18 *832:10 0
15 *393:18 *843:12 0
16 *393:31 *2715:B 0.000393908
17 *393:31 *2788:A1 4.81157e-05
18 *393:31 *2788:A2 0.000496248
19 *393:31 *718:14 0.000580872
20 *393:31 *835:53 0.000953993
21 *393:31 *990:33 0.00039125
22 *393:31 *1191:20 0.000596273
23 *393:37 *2754:A2 0.000341249
24 *393:37 *2780:A1 0
25 *393:37 *2788:B1 0
26 *393:37 *3153:CLK 0.000424381
27 *393:37 *447:8 0.000872788
28 *393:37 *450:10 0.000606037
29 *393:37 *455:20 0
30 *393:37 *700:69 0.000394285
31 *393:37 *744:47 8.00842e-05
32 *393:37 *909:32 0.00102755
33 *266:8 *393:37 0.000553247
34 *389:14 *393:18 0.00063473
35 *389:20 *393:18 0.00028427
36 *389:24 *393:37 0
*RES
1 *2717:Y *393:8 41.0918 
2 *393:8 *393:12 22.6986 
3 *393:12 *393:18 44.3054 
4 *393:18 *3387:A 20 
5 *393:12 *393:31 31.3094 
6 *393:31 *393:37 40.909 
7 *393:37 *3384:A 20 
*END

*D_NET *394 0.0011402
*CONN
*I *2721:A1 I *D sg13g2_a21oi_1
*I *2718:Y O *D sg13g2_a21oi_1
*CAP
1 *2721:A1 0.000498909
2 *2718:Y 0.000498909
3 *2721:A1 *2721:B1 1.54008e-05
4 *2721:A1 *3574:A 0
5 *2721:A1 *699:67 0.000111879
6 *2721:A1 *901:20 1.51e-05
*RES
1 *2718:Y *2721:A1 44.3672 
*END

*D_NET *395 0.0011856
*CONN
*I *2721:A2 I *D sg13g2_a21oi_1
*I *2719:Y O *D sg13g2_a22oi_1
*CAP
1 *2721:A2 0
2 *2719:Y 0.000286159
3 *395:10 0.000286159
4 *395:10 *839:70 4.77425e-05
5 *395:10 *839:87 3.23417e-05
6 *395:10 *968:12 0.000485455
7 *395:10 *1169:22 4.77425e-05
*RES
1 *2719:Y *395:10 42.8634 
2 *395:10 *2721:A2 40 
*END

*D_NET *396 0.00179078
*CONN
*I *2721:B1 I *D sg13g2_a21oi_1
*I *2720:Y O *D sg13g2_o21ai_1
*CAP
1 *2721:B1 0.000127188
2 *2720:Y 0.000412297
3 *396:8 0.000539485
4 *2721:B1 *699:67 0
5 *2721:B1 *901:20 0.000209664
6 *396:8 *400:10 0.000486744
7 *396:8 *717:39 0
8 *396:8 *728:14 0
9 *396:8 *901:20 0
10 *396:8 *968:12 0
11 *2721:A1 *2721:B1 1.54008e-05
12 *248:8 *396:8 0
*RES
1 *2720:Y *396:8 44.0582 
2 *396:8 *2721:B1 41.4008 
*END

*D_NET *397 0.00334002
*CONN
*I *2725:A1 I *D sg13g2_a21oi_1
*I *2722:Y O *D sg13g2_a21oi_1
*CAP
1 *2725:A1 0.00065664
2 *2722:Y 0.000332757
3 *397:14 0.000989397
4 *2725:A1 *2725:A2 1.00105e-05
5 *2725:A1 *399:22 0
6 *2725:A1 *1029:8 0.0007173
7 *2725:A1 *1030:10 0.000286322
8 *2725:A1 *1035:14 0
9 *2725:A1 *1078:28 7.46939e-05
10 *2725:A1 *1182:8 0
11 *397:14 *398:8 0
12 *397:14 *828:99 0
13 *397:14 *860:18 0.00011247
14 *3448:A *397:14 0
15 *3471:A *397:14 8.0216e-05
16 *3480:A *397:14 8.0216e-05
*RES
1 *2722:Y *397:14 43.502 
2 *397:14 *2725:A1 48.0186 
*END

*D_NET *398 0.0033955
*CONN
*I *2725:A2 I *D sg13g2_a21oi_1
*I *2723:Y O *D sg13g2_a22oi_1
*CAP
1 *2725:A2 0.000859644
2 *2723:Y 0.000624437
3 *398:8 0.00148408
4 *2725:A2 *860:18 0
5 *2725:A2 *1035:14 0
6 *2725:A2 *1078:28 4.77425e-05
7 *398:8 *2723:B1 0.000144768
8 *398:8 *2723:B2 4.77425e-05
9 *398:8 *2735:B2 0
10 *398:8 *839:87 0
11 *398:8 *860:18 0
12 *398:8 *1022:10 0.000177071
13 *398:8 *1059:10 0
14 *2725:A1 *2725:A2 1.00105e-05
15 *397:14 *398:8 0
*RES
1 *2723:Y *398:8 45.5105 
2 *398:8 *2725:A2 47.3851 
*END

*D_NET *399 0.0034626
*CONN
*I *2725:B1 I *D sg13g2_a21oi_1
*I *2724:Y O *D sg13g2_o21ai_1
*CAP
1 *2725:B1 0
2 *2724:Y 0.000189465
3 *399:22 0.000730511
4 *399:14 0.000919975
5 *399:14 *2718:A2 0.000287256
6 *399:14 *2735:B1 4.7154e-05
7 *399:14 *699:67 7.94957e-05
8 *399:14 *1063:20 0.000128662
9 *399:14 *1138:14 0.000355958
10 *399:22 *3125:RESET_B 0
11 *399:22 *3551:A 0
12 *399:22 *3574:A 0
13 *399:22 *1030:10 0.000181298
14 *399:22 *1035:14 0.000447239
15 *399:22 *1078:28 0
16 *399:22 *1138:14 8.01886e-05
17 *2725:A1 *399:22 0
18 *3125:D *399:22 0
19 *3456:A *399:22 1.54008e-05
*RES
1 *2724:Y *399:14 43.0385 
2 *399:14 *399:22 47.1585 
3 *399:22 *2725:B1 40 
*END

*D_NET *400 0.00238766
*CONN
*I *2729:A1 I *D sg13g2_a21oi_1
*I *2726:Y O *D sg13g2_a21oi_1
*CAP
1 *2729:A1 9.79219e-05
2 *2726:Y 0.000268382
3 *400:18 0.000350539
4 *400:10 0.000520999
5 *2729:A1 *2729:A2 2.07911e-05
6 *2729:A1 *2729:B1 0
7 *2729:A1 *1169:22 0
8 *400:10 *828:74 4.76053e-05
9 *400:10 *839:70 4.76053e-05
10 *400:18 *833:80 0.000318407
11 *400:18 *893:16 0.000228663
12 *396:8 *400:10 0.000486744
*RES
1 *2726:Y *400:10 42.6471 
2 *400:10 *400:18 42.9252 
3 *400:18 *2729:A1 40.8601 
*END

*D_NET *401 0.00152402
*CONN
*I *2729:A2 I *D sg13g2_a21oi_1
*I *2727:Y O *D sg13g2_a22oi_1
*CAP
1 *2729:A2 9.22165e-05
2 *2727:Y 0.000341386
3 *401:12 0.000433602
4 *2729:A2 *2719:A2 7.46939e-05
5 *401:12 *844:18 0.000175721
6 *401:12 *893:16 0
7 *401:12 *968:12 0.000385606
8 *2729:A1 *2729:A2 2.07911e-05
*RES
1 *2727:Y *401:12 43.3372 
2 *401:12 *2729:A2 40.9888 
*END

*D_NET *402 0.00224527
*CONN
*I *2729:B1 I *D sg13g2_a21oi_1
*I *2728:Y O *D sg13g2_o21ai_1
*CAP
1 *2729:B1 0.000436613
2 *2728:Y 0.000242523
3 *402:10 0.000679136
4 *2729:B1 *407:20 0.000339245
5 *2729:B1 *699:67 0.000128492
6 *2729:B1 *839:70 0
7 *2729:B1 *1169:22 0
8 *402:10 *2736:B1 1.54008e-05
9 *402:10 *740:52 7.33256e-05
10 *402:10 *790:10 0.000124862
11 *402:10 *839:59 4.77425e-05
12 *402:10 *901:33 3.23417e-05
13 *2729:A1 *2729:B1 0
14 *250:12 *2729:B1 0
15 *250:12 *402:10 0.00012559
*RES
1 *2728:Y *402:10 42.1527 
2 *402:10 *2729:B1 44.1251 
*END

*D_NET *403 0.00108976
*CONN
*I *2733:A1 I *D sg13g2_a21oi_1
*I *2730:Y O *D sg13g2_a21oi_1
*CAP
1 *2733:A1 7.47813e-05
2 *2730:Y 0.000235906
3 *403:8 0.000310687
4 *2733:A1 *2733:A2 1.54008e-05
5 *2733:A1 *2767:B1 0.000112285
6 *2733:A1 *755:35 0
7 *403:8 *833:99 0.000340704
8 *403:8 *850:14 0
9 *403:8 *901:55 0
10 *403:8 *901:66 0
*RES
1 *2730:Y *403:8 42.3278 
2 *403:8 *2733:A1 40.7519 
*END

*D_NET *404 0.00131567
*CONN
*I *2733:A2 I *D sg13g2_a21oi_1
*I *2731:Y O *D sg13g2_a22oi_1
*CAP
1 *2733:A2 0.00041044
2 *2731:Y 0.00041044
3 *2733:A2 *2731:B2 0.00014338
4 *2733:A2 *2731:A1 0
5 *2733:A2 *2767:B1 7.94443e-05
6 *2733:A2 *755:35 0.000241166
7 *2733:A2 *844:85 1.54008e-05
8 *2733:A2 *850:31 0
9 *2733:A1 *2733:A2 1.54008e-05
*RES
1 *2731:Y *2733:A2 44.017 
*END

*D_NET *405 0.000425787
*CONN
*I *2733:B1 I *D sg13g2_a21oi_1
*I *2732:Y O *D sg13g2_o21ai_1
*CAP
1 *2733:B1 0
2 *2732:Y 0.000212894
3 *405:8 0.000212894
4 *405:8 *833:99 0
5 *405:8 *850:14 0
*RES
1 *2732:Y *405:8 41.5862 
2 *405:8 *2733:B1 40 
*END

*D_NET *406 0.0013347
*CONN
*I *2737:A1 I *D sg13g2_a21oi_1
*I *2734:Y O *D sg13g2_a21oi_1
*CAP
1 *2737:A1 0.000376739
2 *2734:Y 0.000376739
3 *2737:A1 *2737:B1 0
4 *2737:A1 *407:20 0
5 *2737:A1 *721:44 0
6 *2737:A1 *740:36 0.000403824
7 *2737:A1 *909:66 0
8 *252:10 *2737:A1 0.000177394
*RES
1 *2734:Y *2737:A1 44.1921 
*END

*D_NET *407 0.00681161
*CONN
*I *2737:A2 I *D sg13g2_a21oi_1
*I *2735:Y O *D sg13g2_a22oi_1
*CAP
1 *2737:A2 0
2 *2735:Y 0.000132521
3 *407:20 0.00104619
4 *407:14 0.00142505
5 *407:8 0.000511377
6 *407:8 *2735:B1 0.000177082
7 *407:8 *2735:B2 4.77425e-05
8 *407:8 *2735:A2 0
9 *407:14 *778:14 0.000197311
10 *407:14 *778:16 0.000507999
11 *407:14 *833:80 0.000310527
12 *407:20 *3131:CLK 0
13 *407:20 *699:67 0.000500368
14 *407:20 *740:36 0.00130934
15 *407:20 *828:59 0
16 *407:20 *1172:28 0.00030686
17 *2729:B1 *407:20 0.000339245
18 *2737:A1 *407:20 0
19 *250:12 *407:20 0
*RES
1 *2735:Y *407:8 41.4008 
2 *407:8 *407:14 44.6453 
3 *407:14 *407:20 32.3497 
4 *407:20 *2737:A2 20 
*END

*D_NET *408 0.000428426
*CONN
*I *2737:B1 I *D sg13g2_a21oi_1
*I *2736:Y O *D sg13g2_o21ai_1
*CAP
1 *2737:B1 0.000214213
2 *2736:Y 0.000214213
3 *2737:B1 *721:44 0
4 *2737:A1 *2737:B1 0
5 *3145:D *2737:B1 0
6 *252:10 *2737:B1 0
*RES
1 *2736:Y *2737:B1 42.0961 
*END

*D_NET *409 0.00186397
*CONN
*I *2741:A1 I *D sg13g2_a21oi_1
*I *2738:Y O *D sg13g2_a21oi_1
*CAP
1 *2741:A1 0.000337246
2 *2738:Y 0.000145265
3 *409:8 0.000482511
4 *2741:A1 *410:14 0.000559441
5 *2741:A1 *1181:43 0.000339507
6 *409:8 *833:25 0
*RES
1 *2738:Y *409:8 41.5862 
2 *409:8 *2741:A1 44.0479 
*END

*D_NET *410 0.00713821
*CONN
*I *2741:A2 I *D sg13g2_a21oi_1
*I *2739:Y O *D sg13g2_a22oi_1
*CAP
1 *2741:A2 0
2 *2739:Y 0.00193181
3 *410:14 0.00193181
4 *410:14 *2764:A1 4.77425e-05
5 *410:14 *3133:RESET_B 0
6 *410:14 *3145:CLK 0
7 *410:14 *3348:A 0.000144251
8 *410:14 *3438:A 0.000176482
9 *410:14 *730:26 0
10 *410:14 *757:41 0
11 *410:14 *757:51 0.000595495
12 *410:14 *946:8 0
13 *410:14 *1149:14 0.000143253
14 *410:14 *1181:43 0.00160792
15 *2741:A1 *410:14 0.000559441
16 *3133:D *410:14 0
*RES
1 *2739:Y *410:14 40.43 
2 *410:14 *2741:A2 20 
*END

*D_NET *411 0.000103768
*CONN
*I *2741:B1 I *D sg13g2_a21oi_1
*I *2740:Y O *D sg13g2_o21ai_1
*CAP
1 *2741:B1 0
2 *2740:Y 5.18838e-05
3 *411:8 5.18838e-05
4 *411:8 *646:37 0
*RES
1 *2740:Y *411:8 40.5974 
2 *411:8 *2741:B1 40 
*END

*D_NET *412 0.000677554
*CONN
*I *2745:A1 I *D sg13g2_a21oi_1
*I *2742:Y O *D sg13g2_a21oi_1
*CAP
1 *2745:A1 0.000162765
2 *2742:Y 0.000162765
3 *2745:A1 *2745:A2 0.000143999
4 *2745:A1 *3565:A 0.000208025
5 *2745:A1 *758:46 0
*RES
1 *2742:Y *2745:A1 41.751 
*END

*D_NET *413 0.00389871
*CONN
*I *2745:A2 I *D sg13g2_a21oi_1
*I *2743:Y O *D sg13g2_a22oi_1
*CAP
1 *2745:A2 0.000249152
2 *2743:Y 0.000783802
3 *413:16 0.00103295
4 *2745:A2 *460:20 0
5 *2745:A2 *758:46 0.000143999
6 *2745:A2 *840:26 0.000333547
7 *2745:A2 *1171:18 0.000546029
8 *413:16 *2743:B1 8.00842e-05
9 *413:16 *2830:A1 0
10 *413:16 *2830:B1 2.43244e-05
11 *413:16 *757:77 0
12 *413:16 *830:29 0.000143639
13 *413:16 *830:42 0.00030564
14 *413:16 *1039:16 0
15 *413:16 *1060:12 0
16 *413:16 *1065:24 0.000111547
17 gpio_out[0] *413:16 0
18 *2745:A1 *2745:A2 0.000143999
*RES
1 *2743:Y *413:16 47.7456 
2 *413:16 *2745:A2 43.5432 
*END

*D_NET *414 0.0014695
*CONN
*I *2745:B1 I *D sg13g2_a21oi_1
*I *2744:Y O *D sg13g2_o21ai_1
*CAP
1 *2745:B1 0
2 *2744:Y 0.000134857
3 *414:8 0.000134857
4 *414:8 *460:20 0.000599891
5 *414:8 *782:16 0.000599891
*RES
1 *2744:Y *414:8 42.8222 
2 *414:8 *2745:B1 40 
*END

*D_NET *415 0.00160734
*CONN
*I *2749:A1 I *D sg13g2_a21oi_1
*I *2746:Y O *D sg13g2_a21oi_1
*CAP
1 *2749:A1 5.37171e-05
2 *2746:Y 0.000175614
3 *415:8 0.000229331
4 *2749:A1 *2749:A2 1.54008e-05
5 *2749:A1 *3137:RESET_B 8.00842e-05
6 *415:8 *433:10 0.000393773
7 *415:8 *826:14 0
8 *415:8 *845:39 0
9 *415:8 *1149:14 0.000659416
*RES
1 *2746:Y *415:8 43.0694 
2 *415:8 *2749:A1 40.5356 
*END

*D_NET *416 0.00140308
*CONN
*I *2749:A2 I *D sg13g2_a21oi_1
*I *2747:Y O *D sg13g2_a22oi_1
*CAP
1 *2749:A2 5.37171e-05
2 *2747:Y 0.000526915
3 *416:10 0.000580632
4 *2749:A2 *1075:12 8.00842e-05
5 *416:10 *3565:A 0
6 *416:10 *433:10 0
7 *416:10 *733:41 0
8 *416:10 *759:71 2.1786e-05
9 *416:10 *833:124 0
10 *416:10 *851:79 0.000124547
11 *416:10 *1071:10 0
12 *2749:A1 *2749:A2 1.54008e-05
13 *3498:A *416:10 0
*RES
1 *2747:Y *416:10 44.4084 
2 *416:10 *2749:A2 40.5356 
*END

*D_NET *417 0.00120149
*CONN
*I *2749:B1 I *D sg13g2_a21oi_1
*I *2748:Y O *D sg13g2_o21ai_1
*CAP
1 *2749:B1 2.13412e-05
2 *2748:Y 0.000333594
3 *417:10 0.000354935
4 *2749:B1 *3137:RESET_B 3.15716e-05
5 *417:10 *851:79 0.000124547
6 *417:10 *1078:14 0
7 *417:10 *1149:14 0.000335499
8 *3137:D *2749:B1 0
*RES
1 *2748:Y *417:10 43.1415 
2 *417:10 *2749:B1 40.2112 
*END

*D_NET *418 0.00289593
*CONN
*I *2753:A1 I *D sg13g2_a21oi_1
*I *2750:Y O *D sg13g2_a21oi_1
*CAP
1 *2753:A1 0.000144235
2 *2750:Y 0.00043172
3 *418:10 0.000575955
4 *2753:A1 *2753:A2 0
5 *2753:A1 *3139:D 0
6 *2753:A1 *759:49 0
7 *418:10 *2750:B1 0.000305362
8 *418:10 *2757:A2 0.000286126
9 *418:10 *2772:B1 0.000337569
10 *418:10 *721:71 0
11 *418:10 *830:12 5.30319e-05
12 *418:10 *830:14 0.000761932
13 *256:8 *418:10 0
*RES
1 *2750:Y *418:10 46.077 
2 *418:10 *2753:A1 41.1845 
*END

*D_NET *419 0.00521409
*CONN
*I *2753:A2 I *D sg13g2_a21oi_1
*I *2751:Y O *D sg13g2_a22oi_1
*CAP
1 *2753:A2 0.00064648
2 *2751:Y 2.08029e-05
3 *419:16 0.00164383
4 *419:8 0.00101816
5 *2753:A2 *3139:RESET_B 0
6 *2753:A2 *3139:D 0
7 *2753:A2 *3649:A 0
8 *2753:A2 *700:36 0
9 *2753:A2 *723:54 0.000888138
10 *419:8 *727:24 7.30101e-05
11 *419:8 *851:38 7.30101e-05
12 *419:16 *723:62 0
13 *419:16 *728:26 0
14 *419:16 *752:43 0.000306304
15 *419:16 *761:23 0
16 *419:16 *827:20 7.34778e-05
17 *419:16 *849:8 0
18 *419:16 *1055:12 0
19 *419:16 *1065:16 0
20 *2753:A1 *2753:A2 0
21 *79:18 *419:16 0.000470882
*RES
1 *2751:Y *419:8 40.3502 
2 *419:8 *419:16 49.5378 
3 *419:16 *2753:A2 46.5096 
*END

*D_NET *420 0.00139648
*CONN
*I *2753:B1 I *D sg13g2_a21oi_1
*I *2752:Y O *D sg13g2_o21ai_1
*CAP
1 *2753:B1 0
2 *2752:Y 0.000147768
3 *420:8 0.000147768
4 *420:8 *2757:A2 0
5 *420:8 *721:71 0.000602373
6 *256:8 *420:8 0.00049857
*RES
1 *2752:Y *420:8 42.8222 
2 *420:8 *2753:B1 40 
*END

*D_NET *421 0.00155537
*CONN
*I *2757:A1 I *D sg13g2_a21oi_1
*I *2754:Y O *D sg13g2_a21oi_1
*CAP
1 *2757:A1 2.82325e-05
2 *2754:Y 0.000299657
3 *421:8 0.000327889
4 *2757:A1 *2757:A2 4.78524e-05
5 *2757:A1 *2757:B1 1.54008e-05
6 *421:8 *455:20 0.000710188
7 *421:8 *721:71 0
8 *421:8 *770:20 0.000126146
*RES
1 *2754:Y *421:8 43.5638 
2 *421:8 *2757:A1 40.3193 
*END

*D_NET *422 0.00725471
*CONN
*I *2757:A2 I *D sg13g2_a21oi_1
*I *2755:Y O *D sg13g2_a22oi_1
*CAP
1 *2757:A2 0.000640761
2 *2755:Y 0.000221884
3 *422:24 0.00135074
4 *422:18 0.00131505
5 *422:10 0.000826952
6 *2757:A2 *721:71 0
7 *2757:A2 *735:59 4.73796e-05
8 *2757:A2 *736:35 0.000144661
9 *2757:A2 *741:32 0
10 *2757:A2 *799:33 0
11 *2757:A2 *830:12 0
12 *422:10 *2755:B1 0.000111749
13 *422:10 *826:20 0
14 *422:10 *848:55 0
15 *422:18 *460:20 7.31628e-05
16 *422:18 *731:50 0.000921527
17 *422:18 *761:23 0
18 *422:18 *782:16 7.34081e-05
19 *422:24 *697:165 0
20 *422:24 *759:49 0
21 *422:24 *834:93 0.000951428
22 *2757:A1 *2757:A2 4.78524e-05
23 *97:26 *422:18 0.000242033
24 *256:8 *2757:A2 0
25 *418:10 *2757:A2 0.000286126
26 *420:8 *2757:A2 0
*RES
1 *2755:Y *422:10 41.751 
2 *422:10 *422:18 46.5096 
3 *422:18 *422:24 47.0246 
4 *422:24 *2757:A2 46.0152 
*END

*D_NET *423 0.00195684
*CONN
*I *2757:B1 I *D sg13g2_a21oi_1
*I *2756:Y O *D sg13g2_o21ai_1
*CAP
1 *2757:B1 0.000421609
2 *2756:Y 0.000219939
3 *423:8 0.000641548
4 *2757:B1 *3141:D 0
5 *2757:B1 *736:35 0
6 *2757:B1 *741:32 0
7 *423:8 *772:25 0.000658343
8 *423:8 *1175:44 0
9 *2757:A1 *2757:B1 1.54008e-05
*RES
1 *2756:Y *423:8 43.0694 
2 *423:8 *2757:B1 43.914 
*END

*D_NET *424 0.00088175
*CONN
*I *2761:A1 I *D sg13g2_a21oi_1
*I *2758:Y O *D sg13g2_a21oi_1
*CAP
1 *2761:A1 0.00019773
2 *2758:Y 9.21291e-05
3 *424:8 0.000289859
4 *2761:A1 *2761:B1 0
5 *2761:A1 *425:14 1.54008e-05
6 *2761:A1 *753:18 0
7 *2761:A1 *800:27 0
8 *424:8 *713:82 0
9 *424:8 *769:31 0.000286631
10 *424:8 *832:74 0
*RES
1 *2758:Y *424:8 41.339 
2 *424:8 *2761:A1 41.6171 
*END

*D_NET *425 0.01047
*CONN
*I *2761:A2 I *D sg13g2_a21oi_1
*I *2759:Y O *D sg13g2_a22oi_1
*CAP
1 *2761:A2 0
2 *2759:Y 0.000215069
3 *425:14 0.00290536
4 *425:8 0.00312043
5 *425:8 *2759:B1 0.000111749
6 *425:8 *435:10 8.00842e-05
7 *425:8 *729:33 0
8 *425:8 *826:20 0.00033743
9 *425:14 *3143:D 0
10 *425:14 *434:14 0.000493274
11 *425:14 *470:10 0
12 *425:14 *478:18 0.00138578
13 *425:14 *481:24 0
14 *425:14 *747:52 0.000135043
15 *425:14 *748:37 0
16 *425:14 *753:18 0
17 *425:14 *753:28 0
18 *425:14 *800:27 0.000176426
19 *425:14 *848:127 0
20 *425:14 *853:42 0.000338455
21 *425:14 *907:12 0.000497347
22 *425:14 *1056:14 0.000658111
23 *2761:A1 *425:14 1.54008e-05
24 *258:10 *425:14 0
*RES
1 *2759:Y *425:8 42.266 
2 *425:8 *425:14 48.6958 
3 *425:14 *2761:A2 20 
*END

*D_NET *426 0.00178464
*CONN
*I *2761:B1 I *D sg13g2_a21oi_1
*I *2760:Y O *D sg13g2_o21ai_1
*CAP
1 *2761:B1 0.000157367
2 *2760:Y 0.000262934
3 *426:10 0.0004203
4 *2761:B1 *753:18 0.000139945
5 *426:10 *2760:B1 1.54008e-05
6 *426:10 *2760:A2 0
7 *426:10 *452:30 0.000394441
8 *426:10 *754:47 0
9 *426:10 *770:32 0.000394248
10 *2761:A1 *2761:B1 0
*RES
1 *2760:Y *426:10 43.2342 
2 *426:10 *2761:B1 41.7845 
*END

*D_NET *427 0.000745787
*CONN
*I *2765:A1 I *D sg13g2_a21oi_1
*I *2762:Y O *D sg13g2_a21oi_1
*CAP
1 *2765:A1 6.13589e-05
2 *2762:Y 4.45861e-05
3 *427:8 0.000105945
4 *2765:A1 *428:10 0.000112426
5 *2765:A1 *730:26 0.000112426
6 *427:8 *828:31 0.00012816
7 *427:8 *839:29 0.000180885
8 *427:8 *903:14 0
*RES
1 *2762:Y *427:8 40.8446 
2 *427:8 *2765:A1 40.7519 
*END

*D_NET *428 0.00444908
*CONN
*I *2765:A2 I *D sg13g2_a21oi_1
*I *2763:Y O *D sg13g2_a22oi_1
*CAP
1 *2765:A2 0
2 *2763:Y 0.00149415
3 *428:10 0.00149415
4 *428:10 *2720:A1 0
5 *428:10 *2762:B1 0.000144179
6 *428:10 *3562:A 0
7 *428:10 *730:26 0.000209164
8 *428:10 *826:8 7.93334e-05
9 *428:10 *828:48 0.000241244
10 *428:10 *844:18 0
11 *428:10 *845:39 6.40177e-05
12 *428:10 *903:8 0.00020836
13 *428:10 *903:14 0
14 *428:10 *909:14 0
15 *428:10 *909:58 0.000370375
16 *428:10 *934:18 3.16813e-05
17 *2765:A1 *428:10 0.000112426
*RES
1 *2763:Y *428:10 33.8587 
2 *428:10 *2765:A2 20 
*END

*D_NET *429 0.000317348
*CONN
*I *2765:B1 I *D sg13g2_a21oi_1
*I *2764:Y O *D sg13g2_o21ai_1
*CAP
1 *2765:B1 0
2 *2764:Y 3.40991e-05
3 *429:10 3.40991e-05
4 *429:10 *833:42 0.000124575
5 *429:10 *1172:49 0.000124575
*RES
1 *2764:Y *429:10 40.7004 
2 *429:10 *2765:B1 40 
*END

*D_NET *430 0.00257434
*CONN
*I *2769:A1 I *D sg13g2_a21oi_1
*I *2766:Y O *D sg13g2_a21oi_1
*CAP
1 *2769:A1 0.00014587
2 *2766:Y 0.000406304
3 *430:8 0.000552174
4 *2769:A1 *2769:A2 0
5 *2769:A1 *3147:D 0
6 *2769:A1 *731:33 7.92377e-05
7 *430:8 *2732:A1 0
8 *430:8 *697:167 0
9 *430:8 *699:12 0
10 *430:8 *699:22 0
11 *430:8 *731:46 0
12 *430:8 *1182:12 0.0012474
13 *3451:A *2769:A1 0.000143358
*RES
1 *2766:Y *430:8 45.7886 
2 *430:8 *2769:A1 41.6171 
*END

*D_NET *431 0.0004995
*CONN
*I *2769:A2 I *D sg13g2_a21oi_1
*I *2767:Y O *D sg13g2_a22oi_1
*CAP
1 *2769:A2 0.00024975
2 *2767:Y 0.00024975
3 *2769:A2 *731:33 0
4 *2769:A2 *1181:43 0
5 *2769:A1 *2769:A2 0
*RES
1 *2767:Y *2769:A2 42.4308 
*END

*D_NET *432 0.00111677
*CONN
*I *2769:B1 I *D sg13g2_a21oi_1
*I *2768:Y O *D sg13g2_o21ai_1
*CAP
1 *2769:B1 0
2 *2768:Y 0.00045352
3 *432:10 0.00045352
4 *432:10 *2768:B1 0.00020973
5 *432:10 *720:41 0
6 *432:10 *721:71 0
7 *432:10 *731:33 0
8 *432:10 *755:33 0
9 *432:10 *834:49 0
10 *432:10 *1182:12 0
*RES
1 *2768:Y *432:10 44.9646 
2 *432:10 *2769:B1 40 
*END

*D_NET *433 0.00584954
*CONN
*I *2773:A1 I *D sg13g2_a21oi_1
*I *2770:Y O *D sg13g2_a21oi_1
*CAP
1 *2773:A1 0.00047194
2 *2770:Y 0.000731141
3 *433:10 0.00120308
4 *2773:A1 *2773:A2 0.000112381
5 *2773:A1 *2834:B1 0
6 *2773:A1 *3149:D 0.000175944
7 *2773:A1 *700:53 0.000390043
8 *2773:A1 *760:14 0
9 *2773:A1 *826:14 0.000706762
10 *2773:A1 *826:20 0
11 *433:10 *437:8 0.000178388
12 *433:10 *723:70 0.000702964
13 *433:10 *826:14 0
14 *433:10 *833:124 0
15 *433:10 *845:12 0.00054275
16 *97:20 *2773:A1 0.000112209
17 *255:10 *433:10 0.00012816
18 *415:8 *433:10 0.000393773
19 *416:10 *433:10 0
*RES
1 *2770:Y *433:10 48.3327 
2 *433:10 *2773:A1 46.0152 
*END

*D_NET *434 0.00285158
*CONN
*I *2773:A2 I *D sg13g2_a21oi_1
*I *2771:Y O *D sg13g2_a22oi_1
*CAP
1 *2773:A2 7.63222e-05
2 *2771:Y 0.000789884
3 *434:14 0.000866206
4 *2773:A2 *848:55 1.54008e-05
5 *434:14 *2783:B2 0
6 *434:14 *481:16 0.000385469
7 *434:14 *481:24 0
8 *434:14 *700:53 0.000112644
9 *434:14 *851:8 0
10 *2773:A1 *2773:A2 0.000112381
11 *99:14 *434:14 0
12 *425:14 *434:14 0.000493274
*RES
1 *2771:Y *434:14 47.4263 
2 *434:14 *2773:A2 40.7519 
*END

*D_NET *435 0.00176581
*CONN
*I *2773:B1 I *D sg13g2_a21oi_1
*I *2772:Y O *D sg13g2_o21ai_1
*CAP
1 *2773:B1 0
2 *2772:Y 0.000505725
3 *435:10 0.000505725
4 *435:10 *2772:B1 1.54008e-05
5 *435:10 *3149:RESET_B 0
6 *435:10 *3149:D 0
7 *435:10 *478:18 0.000282146
8 *435:10 *729:33 0.000200172
9 *435:10 *760:14 0
10 *435:10 *762:37 0.000176551
11 *435:10 *826:20 0
12 *425:8 *435:10 8.00842e-05
*RES
1 *2772:Y *435:10 45.3354 
2 *435:10 *2773:B1 40 
*END

*D_NET *436 0.000347158
*CONN
*I *2777:A1 I *D sg13g2_a21oi_1
*I *2774:Y O *D sg13g2_a21oi_1
*CAP
1 *2777:A1 0.000161244
2 *2774:Y 0.000161244
3 *2777:A1 *733:31 2.46687e-05
4 *2777:A1 *794:27 0
5 *2777:A1 *839:14 0
*RES
1 *2774:Y *2777:A1 41.751 
*END

*D_NET *437 0.00622741
*CONN
*I *2777:A2 I *D sg13g2_a21oi_1
*I *2775:Y O *D sg13g2_a22oi_1
*CAP
1 *2777:A2 0
2 *2775:Y 5.40732e-05
3 *437:24 9.94331e-05
4 *437:18 0.00124621
5 *437:14 0.00145607
6 *437:8 0.000363366
7 *437:8 *1149:14 0.000125963
8 *437:14 *699:92 0
9 *437:14 *851:66 0.000536221
10 *437:14 *1071:18 0.000373466
11 *437:18 *2768:B1 0
12 *437:18 *2768:A1 0.000144661
13 *437:18 *2806:A1 0
14 *437:18 *3563:A 0
15 *437:18 *699:8 0.000274321
16 *437:18 *720:41 0
17 *437:18 *794:27 0
18 *437:18 *901:85 0
19 *437:18 *1075:12 4.77425e-05
20 *437:18 *1173:25 0.000985789
21 *437:24 *2774:A1 0
22 *437:24 *722:45 0.000341707
23 *437:24 *1172:49 0
24 *433:10 *437:8 0.000178388
*RES
1 *2775:Y *437:8 40.8446 
2 *437:8 *437:14 43.5638 
3 *437:14 *437:18 31.7832 
4 *437:18 *437:24 41.5862 
5 *437:24 *2777:A2 20 
*END

*D_NET *438 0.00106775
*CONN
*I *2777:B1 I *D sg13g2_a21oi_1
*I *2776:Y O *D sg13g2_o21ai_1
*CAP
1 *2777:B1 0
2 *2776:Y 0.000234714
3 *438:8 0.000234714
4 *438:8 *722:45 0.000598323
5 *438:8 *834:41 0
6 *438:8 *1175:44 0
*RES
1 *2776:Y *438:8 42.8222 
2 *438:8 *2777:B1 40 
*END

*D_NET *439 0.00159798
*CONN
*I *2781:A1 I *D sg13g2_a21oi_1
*I *2778:Y O *D sg13g2_a21oi_1
*CAP
1 *2781:A1 2.76211e-05
2 *2778:Y 0.000274164
3 *439:8 0.000301785
4 *2781:A1 *2781:A2 4.75265e-05
5 *2781:A1 *3153:RESET_B 0
6 *439:8 *441:14 0.000552398
7 *439:8 *458:18 0.000394484
*RES
1 *2778:Y *439:8 43.5638 
2 *439:8 *2781:A1 40.3193 
*END

*D_NET *440 0.0011943
*CONN
*I *3466:A I *D sg13g2_dlygate4sd3_1
*I *2779:Y O *D sg13g2_a22oi_1
*CAP
1 *3466:A 0
2 *2779:Y 0.000298893
3 *440:10 0.000298893
4 *440:10 *2779:B1 4.78521e-05
5 *440:10 *2779:B2 3.16237e-05
6 *440:10 *458:18 0
7 *440:10 *734:27 0
8 *440:10 *736:43 0
9 *440:10 *797:29 0
10 *440:10 *827:20 0
11 *440:10 *852:93 0.000181387
12 *440:10 *1174:26 0
13 *2779:A2 *440:10 0
14 *391:37 *440:10 0.000335652
*RES
1 *2779:Y *440:10 43.3578 
2 *440:10 *3466:A 40 
*END

*D_NET *441 0.0025892
*CONN
*I *2781:B1 I *D sg13g2_a21oi_1
*I *2780:Y O *D sg13g2_o21ai_1
*CAP
1 *2781:B1 0
2 *2780:Y 0.000496793
3 *441:14 0.000496793
4 *441:14 *725:66 0.000550115
5 *441:14 *745:28 0.000240474
6 *441:14 *748:37 0
7 *441:14 *832:94 0.000140198
8 *3467:A *441:14 0.000112426
9 *439:8 *441:14 0.000552398
*RES
1 *2780:Y *441:14 46.592 
2 *441:14 *2781:B1 40 
*END

*D_NET *442 0.000596522
*CONN
*I *2785:A1 I *D sg13g2_a21oi_1
*I *2782:Y O *D sg13g2_a21oi_1
*CAP
1 *2785:A1 5.59762e-05
2 *2782:Y 0.000111381
3 *442:8 0.000167358
4 *2785:A1 *1187:43 8.01118e-05
5 *442:8 *444:10 0
6 *442:8 *772:25 0
7 *442:8 *1175:44 0.000181695
*RES
1 *2782:Y *442:8 41.339 
2 *442:8 *2785:A1 40.5356 
*END

*D_NET *443 0.0138844
*CONN
*I *2785:A2 I *D sg13g2_a21oi_1
*I *2783:Y O *D sg13g2_a22oi_1
*CAP
1 *2785:A2 0
2 *2783:Y 0
3 *443:18 0.00188738
4 *443:10 0.00349412
5 *443:6 0.00160675
6 *443:10 *732:41 0.000861441
7 *443:10 *734:35 0
8 *443:10 *736:43 0
9 *443:10 *762:31 0
10 *443:10 *848:37 0.00011296
11 *443:18 *843:23 0
12 *443:18 *967:10 0.000287256
13 *443:18 *970:10 0.000499649
14 *443:18 *1172:49 0.00346215
15 *443:18 *1175:44 0.00167273
16 *265:8 *443:18 0
*RES
1 *2783:Y *443:6 40 
2 *443:6 *443:10 37.1907 
3 *443:10 *443:18 44.2565 
4 *443:18 *2785:A2 40 
*END

*D_NET *444 0.001791
*CONN
*I *2785:B1 I *D sg13g2_a21oi_1
*I *2784:Y O *D sg13g2_o21ai_1
*CAP
1 *2785:B1 0
2 *2784:Y 0.000531158
3 *444:10 0.000531158
4 *444:10 *2784:B1 0.000209807
5 *444:10 *2784:A2 0.000209807
6 *444:10 *772:25 0
7 *444:10 *1175:44 7.51285e-05
8 *444:10 *1177:31 0.000233942
9 *389:20 *444:10 0
10 *442:8 *444:10 0
*RES
1 *2784:Y *444:10 45.459 
2 *444:10 *2785:B1 40 
*END

*D_NET *445 0.00112928
*CONN
*I *2789:A1 I *D sg13g2_a21oi_1
*I *2786:Y O *D sg13g2_a21oi_1
*CAP
1 *2789:A1 8.33655e-05
2 *2786:Y 0.000185689
3 *445:10 0.000269055
4 *2789:A1 *3708:A 0.000143638
5 *2789:A1 *446:12 0.000143952
6 *445:10 *3715:A 1.54008e-05
7 *445:10 *447:8 0
8 *445:10 *773:23 0.000288184
*RES
1 *2786:Y *445:10 41.8746 
2 *445:10 *2789:A1 40.9682 
*END

*D_NET *446 0.00755067
*CONN
*I *2789:A2 I *D sg13g2_a21oi_1
*I *2787:Y O *D sg13g2_a22oi_1
*CAP
1 *2789:A2 0
2 *2787:Y 0
3 *446:12 0.00190092
4 *446:6 0.00190092
5 *446:12 *3708:A 0
6 *446:12 *725:66 0.00118636
7 *446:12 *832:94 0
8 *446:12 *843:61 0
9 *446:12 *907:25 0.000285801
10 *446:12 *907:33 0.000978747
11 *446:12 *1172:61 0.000530907
12 *446:12 *1173:40 0
13 *446:12 *1176:31 0.000126146
14 *2789:A1 *446:12 0.000143952
15 *263:8 *446:12 0.00049691
*RES
1 *2787:Y *446:6 40 
2 *446:6 *446:12 40.2292 
3 *446:12 *2789:A2 20 
*END

*D_NET *447 0.00213272
*CONN
*I *2789:B1 I *D sg13g2_a21oi_1
*I *2788:Y O *D sg13g2_o21ai_1
*CAP
1 *2789:B1 0.000138315
2 *2788:Y 0.000347578
3 *447:8 0.000485893
4 *2789:B1 *3708:A 0.000208063
5 *2789:B1 *1179:32 8.00842e-05
6 *447:8 *2786:A2 0
7 *393:37 *447:8 0.000872788
8 *445:10 *447:8 0
*RES
1 *2788:Y *447:8 44.0582 
2 *447:8 *2789:B1 41.4008 
*END

*D_NET *448 0.00215984
*CONN
*I *2793:A1 I *D sg13g2_a21oi_1
*I *2790:Y O *D sg13g2_a21oi_1
*CAP
1 *2793:A1 8.06276e-05
2 *2790:Y 0.00030019
3 *448:10 0.000380817
4 *2793:A1 *2793:A2 1.54008e-05
5 *2793:A1 *3446:A 4.76068e-05
6 *448:10 *2790:A1 1.54556e-05
7 *448:10 *832:66 0
8 *448:10 *843:38 0.0007664
9 *266:8 *448:10 0.000553344
*RES
1 *2790:Y *448:10 44.3157 
2 *448:10 *2793:A1 40.7519 
*END

*D_NET *449 0.00420774
*CONN
*I *2793:A2 I *D sg13g2_a21oi_1
*I *2791:Y O *D sg13g2_a22oi_1
*CAP
1 *2793:A2 0.000473843
2 *2791:Y 0.000819372
3 *449:8 0.00129321
4 *2793:A2 *743:29 0
5 *2793:A2 *843:55 0.000337561
6 *2793:A2 *843:68 0.000305903
7 *2793:A2 *843:81 4.77425e-05
8 *449:8 *827:20 0.000659239
9 *449:8 *843:74 7.51285e-05
10 *449:8 *852:83 0.000180331
11 *449:8 *854:30 0
12 *2793:A1 *2793:A2 1.54008e-05
13 *392:18 *449:8 0
*RES
1 *2791:Y *449:8 48.0134 
2 *449:8 *2793:A2 44.429 
*END

*D_NET *450 0.00222698
*CONN
*I *2793:B1 I *D sg13g2_a21oi_1
*I *2792:Y O *D sg13g2_o21ai_1
*CAP
1 *2793:B1 0
2 *2792:Y 0.000362921
3 *450:10 0.000362921
4 *450:10 *746:35 0.000176592
5 *450:10 *832:66 0.000112558
6 *450:10 *837:69 0
7 *389:24 *450:10 0.000605949
8 *393:37 *450:10 0.000606037
*RES
1 *2792:Y *450:10 45.0882 
2 *450:10 *2793:B1 40 
*END

*D_NET *451 0.000745575
*CONN
*I *2797:A1 I *D sg13g2_a21oi_1
*I *2794:Y O *D sg13g2_a21oi_1
*CAP
1 *2797:A1 0.000212021
2 *2794:Y 0.000212021
3 *2797:A1 *452:30 0.000176639
4 *2797:A1 *719:37 0
5 *2797:A1 *1180:37 0
6 *267:10 *2797:A1 0.000144894
*RES
1 *2794:Y *2797:A1 42.2145 
*END

*D_NET *452 0.0207343
*CONN
*I *2797:A2 I *D sg13g2_a21oi_1
*I *2795:Y O *D sg13g2_a22oi_1
*CAP
1 *2797:A2 0
2 *2795:Y 0.00077214
3 *452:30 0.00218902
4 *452:24 0.00273577
5 *452:18 0.00200185
6 *452:10 0.00222724
7 *452:10 *727:24 4.77425e-05
8 *452:10 *770:49 0
9 *452:10 *804:12 0.000495493
10 *452:10 *846:70 0.000456133
11 *452:10 *852:14 0
12 *452:10 *852:18 0
13 *452:18 *458:10 0.00072535
14 *452:18 *735:59 0
15 *452:18 *736:35 0
16 *452:18 *970:10 0.000274057
17 *452:18 *1174:26 0.0017525
18 *452:24 *722:45 0
19 *452:24 *769:31 0
20 *452:24 *770:32 0.000394925
21 *452:30 *719:37 0.000176639
22 *452:30 *769:31 0.00129353
23 *452:30 *769:37 0
24 *452:30 *770:32 0.00434785
25 *2797:A1 *452:30 0.000176639
26 *3394:A *452:18 0.000272995
27 *391:12 *452:10 0
28 *426:10 *452:30 0.000394441
*RES
1 *2795:Y *452:10 47.622 
2 *452:10 *452:18 35.5118 
3 *452:18 *452:24 25.1191 
4 *452:24 *452:30 48.4795 
5 *452:30 *2797:A2 20 
*END

*D_NET *453 0.00232227
*CONN
*I *2797:B1 I *D sg13g2_a21oi_1
*I *2796:Y O *D sg13g2_o21ai_1
*CAP
1 *2797:B1 6.13589e-05
2 *2796:Y 0.000296214
3 *453:10 0.000357573
4 *2797:B1 *1180:37 0.000112426
5 *453:10 *2796:B1 0.000112552
6 *453:10 *769:37 0.000817019
7 *453:10 *770:32 0
8 *453:10 *1186:39 0.000112552
9 *267:10 *2797:B1 0.000112426
10 *267:10 *453:10 0.000340146
*RES
1 *2796:Y *453:10 44.5629 
2 *453:10 *2797:B1 40.7519 
*END

*D_NET *454 0.000761205
*CONN
*I *2801:A1 I *D sg13g2_a21oi_1
*I *2798:Y O *D sg13g2_a21oi_1
*CAP
1 *2801:A1 3.31742e-05
2 *2798:Y 6.27003e-05
3 *454:8 9.58745e-05
4 *2801:A1 *1186:39 4.78028e-05
5 *454:8 *455:24 0.000234311
6 *454:8 *837:31 0.000287342
*RES
1 *2798:Y *454:8 41.339 
2 *454:8 *2801:A1 40.3193 
*END

*D_NET *455 0.0149357
*CONN
*I *2801:A2 I *D sg13g2_a21oi_1
*I *2799:Y O *D sg13g2_a22oi_1
*CAP
1 *2801:A2 0
2 *2799:Y 0
3 *455:24 0.00211178
4 *455:20 0.00359351
5 *455:10 0.002856
6 *455:6 0.00137427
7 *455:10 *735:78 0.000180683
8 *455:10 *736:43 0
9 *455:10 *739:28 0
10 *455:10 *848:27 0
11 *455:20 *2754:A1 0
12 *455:20 *2754:A2 0
13 *455:20 *2754:B1 0
14 *455:20 *2780:A1 0
15 *455:20 *726:46 0
16 *455:20 *735:55 0.000340239
17 *455:20 *773:23 0
18 *455:20 *907:12 0.00044287
19 *455:24 *726:46 0.000713588
20 *455:24 *773:23 0
21 *455:24 *831:56 0.000659727
22 *455:24 *837:31 0.00171853
23 *455:24 *843:23 0
24 *393:37 *455:20 0
25 *421:8 *455:20 0.000710188
26 *454:8 *455:24 0.000234311
*RES
1 *2799:Y *455:6 40 
2 *455:6 *455:10 30.1034 
3 *455:10 *455:20 33.9462 
4 *455:20 *455:24 41.3622 
5 *455:24 *2801:A2 20 
*END

*D_NET *456 0.00120765
*CONN
*I *2801:B1 I *D sg13g2_a21oi_1
*I *2800:Y O *D sg13g2_o21ai_1
*CAP
1 *2801:B1 0
2 *2800:Y 0.000434258
3 *456:12 0.000434258
4 *456:12 *3163:RESET_B 0
5 *456:12 *774:23 0
6 *456:12 *835:49 0
7 *456:12 *837:23 0.000339135
*RES
1 *2800:Y *456:12 44.2024 
2 *456:12 *2801:B1 40 
*END

*D_NET *457 0.000740353
*CONN
*I *2805:A1 I *D sg13g2_a21oi_1
*I *2802:Y O *D sg13g2_a21oi_1
*CAP
1 *2805:A1 6.50954e-05
2 *2802:Y 6.00502e-05
3 *457:8 0.000125146
4 *2805:A1 *458:32 1.54556e-05
5 *2805:A1 *1188:31 0.000112651
6 *2805:A1 *1191:20 0
7 *457:8 *776:29 0.000234106
8 *269:8 *457:8 0.00012785
*RES
1 *2802:Y *457:8 41.0918 
2 *457:8 *2805:A1 40.7519 
*END

*D_NET *458 0.0139352
*CONN
*I *2805:A2 I *D sg13g2_a21oi_1
*I *2803:Y O *D sg13g2_a22oi_1
*CAP
1 *2805:A2 0
2 *2803:Y 0.00108868
3 *458:32 0.00181887
4 *458:26 0.00189546
5 *458:18 0.00138975
6 *458:10 0.00240184
7 *458:10 *2799:B2 0
8 *458:10 *735:59 0.00146896
9 *458:10 *741:32 0
10 *458:10 *760:26 0.000176301
11 *458:18 *2787:A1 0
12 *458:18 *725:66 0
13 *458:18 *846:24 0.000657214
14 *458:18 *852:83 0
15 *458:18 *852:93 0
16 *458:18 *1176:44 0.000442347
17 *458:32 *697:301 0
18 *458:32 *703:10 0
19 *458:32 *703:16 0
20 *458:32 *725:66 0.000340704
21 *458:32 *776:29 0
22 *458:32 *831:33 0.000234726
23 *458:32 *905:42 0.000869698
24 *458:32 *907:100 0
25 *458:32 *1188:31 0
26 *458:32 *1191:20 1.54008e-05
27 *2805:A1 *458:32 1.54556e-05
28 *3394:A *458:10 0
29 *392:18 *458:18 0
30 *392:18 *458:32 0
31 *439:8 *458:18 0.000394484
32 *440:10 *458:18 0
33 *452:18 *458:10 0.00072535
*RES
1 *2803:Y *458:10 32.1128 
2 *458:10 *458:18 33.6269 
3 *458:18 *458:26 40.9167 
4 *458:26 *458:32 37.4482 
5 *458:32 *2805:A2 20 
*END

*D_NET *459 0.00192759
*CONN
*I *2805:B1 I *D sg13g2_a21oi_1
*I *2804:Y O *D sg13g2_o21ai_1
*CAP
1 *2805:B1 0
2 *2804:Y 0.00075012
3 *459:10 0.00075012
4 *459:10 *2804:A2 0
5 *459:10 *780:16 0
6 *459:10 *905:48 0
7 *459:10 *905:62 1.54556e-05
8 *459:10 *1184:31 7.33256e-05
9 *459:10 *1186:39 0.000338569
10 *269:8 *459:10 0
*RES
1 *2804:Y *459:10 46.5714 
2 *459:10 *2805:B1 40 
*END

*D_NET *460 0.00828861
*CONN
*I *2809:A1 I *D sg13g2_a21oi_1
*I *2806:Y O *D sg13g2_a21oi_1
*CAP
1 *2809:A1 0
2 *2806:Y 0.000238041
3 *460:20 0.00267634
4 *460:12 0.00291438
5 *460:12 *2730:A2 7.34121e-05
6 *460:12 *2806:A1 0.000143932
7 *460:12 *833:112 0.000388701
8 *460:12 *840:26 0.000258868
9 *460:12 *840:28 0.000106807
10 *460:12 *901:85 0
11 *460:20 *2744:A1 0
12 *460:20 *2779:B1 0
13 *460:20 *461:10 7.51285e-05
14 *460:20 *754:47 8.00842e-05
15 *460:20 *782:16 0
16 *460:20 *797:29 0
17 *460:20 *846:55 0.000127823
18 *460:20 *882:24 1.54008e-05
19 *460:20 *1065:24 0.000232421
20 *460:20 *1171:18 0
21 *2745:A2 *460:20 0
22 *3394:A *460:20 0.000284223
23 *391:12 *460:20 0
24 *392:22 *460:20 0
25 *392:30 *460:20 0
26 *414:8 *460:20 0.000599891
27 *422:18 *460:20 7.31628e-05
*RES
1 *2806:Y *460:12 43.3681 
2 *460:12 *460:20 42.2171 
3 *460:20 *2809:A1 20 
*END

*D_NET *461 0.00133681
*CONN
*I *2809:A2 I *D sg13g2_a21oi_1
*I *2807:Y O *D sg13g2_a22oi_1
*CAP
1 *2809:A2 0
2 *2807:Y 0.000558423
3 *461:10 0.000558423
4 *461:10 *2807:A2 0
5 *461:10 *721:87 0
6 *461:10 *743:54 0
7 *461:10 *832:54 0.000144833
8 *461:10 *854:30 0
9 *391:12 *461:10 0
10 *460:20 *461:10 7.51285e-05
*RES
1 *2807:Y *461:10 44.9028 
2 *461:10 *2809:A2 40 
*END

*D_NET *462 0.00217364
*CONN
*I *2809:B1 I *D sg13g2_a21oi_1
*I *2808:Y O *D sg13g2_o21ai_1
*CAP
1 *2809:B1 8.19246e-05
2 *2808:Y 0.000181353
3 *462:10 0.000263277
4 *2809:B1 *722:59 0.000143781
5 *2809:B1 *754:47 0.000143781
6 *462:10 *464:10 0.000600981
7 *462:10 *832:54 7.89557e-05
8 *462:10 *907:41 7.89557e-05
9 *391:12 *462:10 0.000600627
*RES
1 *2808:Y *462:10 43.3578 
2 *462:10 *2809:B1 40.9682 
*END

*D_NET *463 0.000919686
*CONN
*I *2813:A1 I *D sg13g2_a21oi_1
*I *2810:Y O *D sg13g2_a21oi_1
*CAP
1 *2813:A1 0.000162986
2 *2810:Y 0.000130877
3 *463:8 0.000293864
4 *2813:A1 *2813:A2 1.54008e-05
5 *2813:A1 *841:69 0
6 *2813:A1 *843:127 0.000241429
7 *2813:A1 *1190:31 0
8 *463:8 *1183:50 7.51285e-05
9 *463:8 *1186:39 0
*RES
1 *2810:Y *463:8 41.339 
2 *463:8 *2813:A1 41.6171 
*END

*D_NET *464 0.00886942
*CONN
*I *2813:A2 I *D sg13g2_a21oi_1
*I *2811:Y O *D sg13g2_a22oi_1
*CAP
1 *2813:A2 0.000140666
2 *2811:Y 3.51404e-05
3 *464:10 0.00353076
4 *464:8 0.00342524
5 *2813:A2 *843:127 0
6 *2813:A2 *1190:31 0
7 *464:8 *782:16 6.33886e-05
8 *464:8 *846:55 6.33024e-05
9 *464:10 *2816:A1 0
10 *464:10 *2820:A2 0.000921222
11 *464:10 *467:12 0
12 *464:10 *718:22 0
13 *464:10 *784:27 0
14 *464:10 *832:24 0
15 *464:10 *832:101 0
16 *464:10 *837:80 0
17 *464:10 *852:14 0
18 *464:10 *852:73 0
19 *464:10 *1189:30 7.33225e-05
20 *464:10 *1190:39 0
21 *2813:A1 *2813:A2 1.54008e-05
22 *391:12 *464:10 0
23 *462:10 *464:10 0.000600981
*RES
1 *2811:Y *464:8 40.4274 
2 *464:8 *464:10 31.9918 
3 *464:10 *2813:A2 41.1845 
*END

*D_NET *465 0.000724889
*CONN
*I *2813:B1 I *D sg13g2_a21oi_1
*I *2812:Y O *D sg13g2_o21ai_1
*CAP
1 *2813:B1 0
2 *2812:Y 0.000137608
3 *465:8 0.000137608
4 *465:8 *781:27 0
5 *465:8 *784:27 0.000449672
*RES
1 *2812:Y *465:8 42.0806 
2 *465:8 *2813:B1 40 
*END

*D_NET *466 0.000634808
*CONN
*I *2817:A1 I *D sg13g2_a21oi_1
*I *2814:Y O *D sg13g2_a21oi_1
*CAP
1 *2817:A1 2.52951e-05
2 *2814:Y 0.000116077
3 *466:8 0.000141372
4 *2817:A1 *467:12 4.79124e-05
5 *2817:A1 *751:33 4.77425e-05
6 *466:8 *468:8 0.000181192
7 *466:8 *781:27 0
8 *466:8 *831:81 7.52158e-05
*RES
1 *2814:Y *466:8 41.339 
2 *466:8 *2817:A1 40.3193 
*END

*D_NET *467 0.00414573
*CONN
*I *2817:A2 I *D sg13g2_a21oi_1
*I *2815:Y O *D sg13g2_a22oi_1
*CAP
1 *2817:A2 0
2 *2815:Y 0
3 *467:12 0.00185284
4 *467:6 0.00185284
5 *467:12 *3715:A 0
6 *467:12 *722:73 0
7 *467:12 *751:33 0.000240668
8 *467:12 *785:8 0
9 *467:12 *785:23 0
10 *467:12 *804:12 7.58806e-05
11 *467:12 *837:80 0
12 *467:12 *846:42 7.55794e-05
13 *467:12 *907:47 0
14 *2817:A1 *467:12 4.79124e-05
15 *464:10 *467:12 0
*RES
1 *2815:Y *467:6 40 
2 *467:6 *467:12 37.9426 
3 *467:12 *2817:A2 20 
*END

*D_NET *468 0.00131484
*CONN
*I *2817:B1 I *D sg13g2_a21oi_1
*I *2816:Y O *D sg13g2_o21ai_1
*CAP
1 *2817:B1 0
2 *2816:Y 0.000252634
3 *468:8 0.000252634
4 *468:8 *781:27 0
5 *468:8 *831:81 0.000341119
6 *468:8 *841:71 0
7 *468:8 *1187:59 0.000287256
8 *466:8 *468:8 0.000181192
*RES
1 *2816:Y *468:8 43.3166 
2 *468:8 *2817:B1 40 
*END

*D_NET *469 0.000512531
*CONN
*I *2821:A1 I *D sg13g2_a21oi_1
*I *2818:Y O *D sg13g2_a21oi_1
*CAP
1 *2821:A1 0.000160623
2 *2818:Y 0.000160623
3 *2821:A1 *754:47 1.66316e-05
4 *2821:A1 *882:24 0.000174653
*RES
1 *2818:Y *2821:A1 41.8025 
*END

*D_NET *470 0.00260514
*CONN
*I *2821:A2 I *D sg13g2_a21oi_1
*I *2819:Y O *D sg13g2_a22oi_1
*CAP
1 *2821:A2 0
2 *2819:Y 0.000561535
3 *470:10 0.000561535
4 *470:10 *3654:A 0
5 *470:10 *476:14 0.000708002
6 *470:10 *804:20 0.000207768
7 *470:10 *853:42 0.000566298
8 *470:10 *1033:8 0
9 *425:14 *470:10 0
*RES
1 *2819:Y *470:10 46.6332 
2 *470:10 *2821:A2 40 
*END

*D_NET *471 0.00134301
*CONN
*I *2821:B1 I *D sg13g2_a21oi_1
*I *2820:Y O *D sg13g2_o21ai_1
*CAP
1 *2821:B1 0.000373181
2 *2820:Y 0.000373181
3 *2821:B1 *2820:A1 0
4 *2821:B1 *753:28 0
5 *2821:B1 *882:24 0.000596646
*RES
1 *2820:Y *2821:B1 43.9964 
*END

*D_NET *472 0.00134359
*CONN
*I *2825:A1 I *D sg13g2_a21oi_1
*I *2822:Y O *D sg13g2_a21oi_1
*CAP
1 *2825:A1 0.00042601
2 *2822:Y 0.00042601
3 *2825:A1 *3727:A 0
4 *2825:A1 *1189:47 0.00049157
5 *2825:A1 *1191:26 0
*RES
1 *2822:Y *2825:A1 44.017 
*END

*D_NET *473 0.00823017
*CONN
*I *2825:A2 I *D sg13g2_a21oi_1
*I *2823:Y O *D sg13g2_a22oi_1
*CAP
1 *2825:A2 0
2 *2823:Y 2.50478e-05
3 *473:14 0.00172473
4 *473:8 0.00174977
5 *473:14 *3181:CLK 0.000530647
6 *473:14 *476:14 0
7 *473:14 *488:10 0.000546859
8 *473:14 *488:24 1.55212e-05
9 *473:14 *703:44 0.00150915
10 *473:14 *791:27 0
11 *473:14 *847:35 0
12 *473:14 *848:127 0
13 *473:14 *853:10 0.000262174
14 *473:14 *853:12 0.000422514
15 *473:14 *853:14 0.000284138
16 *473:14 *925:8 0.000712013
17 *473:14 *1070:14 0
18 *473:14 *1173:58 0.000447598
*RES
1 *2823:Y *473:8 40.3193 
2 *473:8 *473:14 40.9399 
3 *473:14 *2825:A2 20 
*END

*D_NET *474 0.0019773
*CONN
*I *2825:B1 I *D sg13g2_a21oi_1
*I *2824:Y O *D sg13g2_o21ai_1
*CAP
1 *2825:B1 0
2 *2824:Y 0.00049131
3 *474:10 0.00049131
4 *474:10 *3724:A 0.000370166
5 *474:10 *488:24 0.000447182
6 *474:10 *718:41 0
7 *474:10 *719:47 0
8 *474:10 *1188:31 0.000177334
*RES
1 *2824:Y *474:10 45.6444 
2 *474:10 *2825:B1 40 
*END

*D_NET *475 0.00105066
*CONN
*I *2829:A1 I *D sg13g2_a21oi_1
*I *2826:Y O *D sg13g2_a21oi_1
*CAP
1 *2829:A1 0.000421196
2 *2826:Y 0.000421196
3 *2829:A1 *2829:B1 0
4 *2829:A1 *2842:B1 0
5 *2829:A1 *476:20 0.000208268
6 *2829:A1 *786:8 0
*RES
1 *2826:Y *2829:A1 43.914 
*END

*D_NET *476 0.0110959
*CONN
*I *2829:A2 I *D sg13g2_a21oi_1
*I *2827:Y O *D sg13g2_a22oi_1
*CAP
1 *2829:A2 0
2 *2827:Y 0.000420029
3 *476:20 0.00244652
4 *476:14 0.00286655
5 *476:14 *848:127 0.000180682
6 *476:20 *2824:A1 0
7 *476:20 *2832:A1 0
8 *476:20 *2836:A1 0.000715225
9 *476:20 *2842:B1 0.000208142
10 *476:20 *479:10 0
11 *476:20 *483:10 0.000182121
12 *476:20 *488:10 0
13 *476:20 *704:39 0
14 *476:20 *788:25 0
15 *476:20 *789:29 0.00127256
16 *476:20 *842:16 0
17 *476:20 *843:98 0
18 *476:20 *854:65 0.000870153
19 *476:20 *933:10 0.000230615
20 *476:20 *1180:60 0
21 *476:20 *1188:37 0
22 *476:20 *1191:30 0
23 *476:20 *1192:42 0
24 *2829:A1 *476:20 0.000208268
25 *273:8 *476:14 0.00049972
26 *276:8 *476:20 0.000287316
27 *470:10 *476:14 0.000708002
28 *473:14 *476:14 0
*RES
1 *2827:Y *476:14 45.7268 
2 *476:14 *476:20 44.9878 
3 *476:20 *2829:A2 20 
*END

*D_NET *477 0.00141396
*CONN
*I *2829:B1 I *D sg13g2_a21oi_1
*I *2828:Y O *D sg13g2_o21ai_1
*CAP
1 *2829:B1 0.000335926
2 *2828:Y 0.000279744
3 *477:10 0.00061567
4 *2829:B1 *3177:D 0
5 *2829:B1 *3185:D 2.21754e-05
6 *2829:B1 *786:8 1.54556e-05
7 *477:10 *2844:B1 0.000144992
8 *477:10 *3177:RESET_B 0
9 *477:10 *3691:A 0
10 *477:10 *704:39 0
11 *2829:A1 *2829:B1 0
*RES
1 *2828:Y *477:10 42.5544 
2 *477:10 *2829:B1 43.0488 
*END

*D_NET *478 0.00532883
*CONN
*I *3478:A I *D sg13g2_dlygate4sd3_1
*I *2830:Y O *D sg13g2_a21oi_1
*CAP
1 *3478:A 0
2 *2830:Y 2.41961e-05
3 *478:18 0.00139875
4 *478:8 0.00142295
5 *478:18 *2834:B1 0
6 *478:18 *3653:A 0
7 *478:18 *759:71 0
8 *478:18 *762:37 0
9 *478:18 *846:70 0.000272218
10 *478:18 *848:37 0
11 *478:18 *848:55 0.000542793
12 *478:18 *848:127 0
13 *425:14 *478:18 0.00138578
14 *435:10 *478:18 0.000282146
*RES
1 *2830:Y *478:8 40.3193 
2 *478:8 *478:18 34.6569 
3 *478:18 *3478:A 20 
*END

*D_NET *479 0.00121394
*CONN
*I *2833:A2 I *D sg13g2_a21oi_1
*I *2831:Y O *D sg13g2_a22oi_1
*CAP
1 *2833:A2 0
2 *2831:Y 0.000216692
3 *479:10 0.000216692
4 *479:10 *2831:B2 4.78688e-05
5 *479:10 *480:10 0.00023464
6 *479:10 *843:98 0
7 *479:10 *1188:37 0.000498051
8 *476:20 *479:10 0
*RES
1 *2831:Y *479:10 42.8634 
2 *479:10 *2833:A2 40 
*END

*D_NET *480 0.00215759
*CONN
*I *2833:B1 I *D sg13g2_a21oi_1
*I *2832:Y O *D sg13g2_o21ai_1
*CAP
1 *2833:B1 3.06149e-05
2 *2832:Y 0.000487342
3 *480:10 0.000517957
4 *2833:B1 *907:65 4.75252e-05
5 *480:10 *2832:A2 0.000369865
6 *480:10 *3636:A 0
7 *480:10 *746:35 0
8 *480:10 *843:98 0.000390094
9 *480:10 *907:67 7.95529e-05
10 *480:10 *1188:37 0
11 *479:10 *480:10 0.00023464
*RES
1 *2832:Y *480:10 45.1809 
2 *480:10 *2833:B1 40.3193 
*END

*D_NET *481 0.00579237
*CONN
*I *3490:A I *D sg13g2_dlygate4sd3_1
*I *2834:Y O *D sg13g2_a21oi_1
*CAP
1 *3490:A 0
2 *2834:Y 0.00033861
3 *481:24 0.00176999
4 *481:16 0.0021086
5 *481:16 *2834:A1 4.78521e-05
6 *481:16 *2834:B1 4.77425e-05
7 *481:24 *747:52 0
8 *481:24 *750:34 0
9 *481:24 *760:26 0.000650296
10 *481:24 *785:8 0
11 *481:24 *804:12 0
12 *481:24 *853:42 0.000371345
13 *481:24 *1056:14 0
14 *97:20 *481:16 7.24733e-05
15 *425:14 *481:24 0
16 *434:14 *481:16 0.000385469
17 *434:14 *481:24 0
*RES
1 *2834:Y *481:16 43.6359 
2 *481:16 *481:24 35.9135 
3 *481:24 *3490:A 20 
*END

*D_NET *482 0.00221403
*CONN
*I *2837:A2 I *D sg13g2_a21oi_1
*I *2835:Y O *D sg13g2_a22oi_1
*CAP
1 *2837:A2 0
2 *2835:Y 0.000421604
3 *482:10 0.000421604
4 *482:10 *484:12 0
5 *482:10 *486:12 0
6 *482:10 *751:48 0.000531319
7 *482:10 *907:80 0.000340704
8 *482:10 *1175:70 0.000498797
*RES
1 *2835:Y *482:10 45.15 
2 *482:10 *2837:A2 40 
*END

*D_NET *483 0.00256952
*CONN
*I *2837:B1 I *D sg13g2_a21oi_1
*I *2836:Y O *D sg13g2_o21ai_1
*CAP
1 *2837:B1 0.000343036
2 *2836:Y 0.000241148
3 *483:10 0.000584183
4 *2837:B1 *486:12 0.000306338
5 *2837:B1 *1070:14 0
6 *2837:B1 *1179:63 0
7 *483:10 *788:25 0.000181192
8 *483:10 *906:8 0.000370373
9 *483:10 *1179:63 0.000361132
10 *476:20 *483:10 0.000182121
*RES
1 *2836:Y *483:10 43.3269 
2 *483:10 *2837:B1 43.2651 
*END

*D_NET *484 0.00276268
*CONN
*I *2841:A1 I *D sg13g2_a21oi_1
*I *2838:Y O *D sg13g2_a21oi_1
*CAP
1 *2841:A1 0.000128607
2 *2838:Y 0.000712553
3 *484:12 0.00084116
4 *2841:A1 *2841:B1 0.00014512
5 *2841:A1 *3183:D 0
6 *2841:A1 *3715:A 0
7 *484:12 *2835:B1 0
8 *484:12 *3714:A 0
9 *484:12 *486:12 0.000500312
10 *484:12 *1175:70 0
11 *3181:D *484:12 0.000434926
12 *482:10 *484:12 0
*RES
1 *2838:Y *484:12 47.1379 
2 *484:12 *2841:A1 41.1845 
*END

*D_NET *485 0.00367057
*CONN
*I *2841:A2 I *D sg13g2_a21oi_1
*I *2839:Y O *D sg13g2_a22oi_1
*CAP
1 *2841:A2 0.00052796
2 *2839:Y 0.000394806
3 *485:10 0.000922767
4 *2841:A2 *751:48 0
5 *2841:A2 *907:65 0
6 *2841:A2 *907:80 0.000764235
7 *485:10 *746:39 0
8 *485:10 *751:48 0.000932646
9 *485:10 *753:41 0.00012816
10 *485:10 *847:15 0
*RES
1 *2839:Y *485:10 45.3354 
2 *485:10 *2841:A2 46.0358 
*END

*D_NET *486 0.00319241
*CONN
*I *2841:B1 I *D sg13g2_a21oi_1
*I *2840:Y O *D sg13g2_o21ai_1
*CAP
1 *2841:B1 0.000109575
2 *2840:Y 0.000826514
3 *486:12 0.000936089
4 *2841:B1 *3183:D 7.95529e-05
5 *2841:B1 *1173:58 0
6 *486:12 *3181:RESET_B 0.000273507
7 *486:12 *3181:CLK 0
8 *486:12 *3714:A 0
9 *486:12 *907:80 0
10 *486:12 *1070:14 0
11 *486:12 *1179:63 0
12 *486:12 *1187:59 1.54008e-05
13 *2837:B1 *486:12 0.000306338
14 *2841:A1 *2841:B1 0.00014512
15 *482:10 *486:12 0
16 *484:12 *486:12 0.000500312
*RES
1 *2840:Y *486:12 49.0846 
2 *486:12 *2841:B1 41.3184 
*END

*D_NET *487 0.000799019
*CONN
*I *2845:A1 I *D sg13g2_a21oi_1
*I *2842:Y O *D sg13g2_a21oi_1
*CAP
1 *2845:A1 0.000160697
2 *2842:Y 0.000177342
3 *487:10 0.000338039
4 *2845:A1 *3185:D 0
5 *2845:A1 *488:24 0
6 *487:10 *488:24 7.51285e-05
7 *275:10 *2845:A1 4.7813e-05
*RES
1 *2842:Y *487:10 41.8128 
2 *487:10 *2845:A1 41.4008 
*END

*D_NET *488 0.00983082
*CONN
*I *2845:A2 I *D sg13g2_a21oi_1
*I *2843:Y O *D sg13g2_a22oi_1
*CAP
1 *2845:A2 0
2 *2843:Y 0.000253676
3 *488:24 0.00203768
4 *488:10 0.00229135
5 *488:10 *854:65 0
6 *488:24 *2832:A1 0.000604442
7 *488:24 *719:53 0.000443452
8 *488:24 *788:25 0.00193374
9 *488:24 *791:27 0
10 *488:24 *843:127 0
11 *488:24 *854:65 2.21831e-05
12 *488:24 *925:8 0.000712013
13 *488:24 *1173:58 0.000447597
14 *2845:A1 *488:24 0
15 *473:14 *488:10 0.000546859
16 *473:14 *488:24 1.55212e-05
17 *474:10 *488:24 0.000447182
18 *476:20 *488:10 0
19 *487:10 *488:24 7.51285e-05
*RES
1 *2843:Y *488:10 42.8943 
2 *488:10 *488:24 44.0093 
3 *488:24 *2845:A2 20 
*END

*D_NET *489 0.000562534
*CONN
*I *2845:B1 I *D sg13g2_a21oi_1
*I *2844:Y O *D sg13g2_o21ai_1
*CAP
1 *2845:B1 0
2 *2844:Y 0.000281267
3 *489:8 0.000281267
4 *489:8 *791:27 0
5 *279:8 *489:8 0
*RES
1 *2844:Y *489:8 42.8222 
2 *489:8 *2845:B1 40 
*END

*D_NET *490 0.000565071
*CONN
*I *2847:B I *D sg13g2_nand2_1
*I *2846:Y O *D sg13g2_nand3b_1
*CAP
1 *2847:B 0.000270215
2 *2846:Y 0.000270215
3 *2847:B *3121:RESET_B 2.46413e-05
4 *2847:B *763:32 0
5 *3187:D *2847:B 0
6 *390:12 *2847:B 0
*RES
1 *2846:Y *2847:B 42.9767 
*END

*D_NET *491 0.00495035
*CONN
*I *3119:A2 I *D sg13g2_o21ai_1
*I *2849:C I *D sg13g2_nor3_1
*I *2848:Y O *D sg13g2_nand2_1
*CAP
1 *3119:A2 0
2 *2849:C 0
3 *2848:Y 0.000398127
4 *491:37 0.000189569
5 *491:22 0.000347256
6 *491:12 0.000536825
7 *491:10 0.000398127
8 *491:10 *2848:A 0.000553002
9 *491:10 *2848:B 4.78359e-05
10 *491:10 *2854:B 0
11 *491:10 *709:42 0
12 *491:10 *1168:14 0.000342718
13 *491:22 *2848:B 0.000183878
14 *491:22 *3609:A 0.00020901
15 *491:22 *714:16 0.00011231
16 *491:22 *895:88 0
17 *491:22 *1034:35 0.00039313
18 *491:22 *1151:8 0.000660404
19 *491:37 *2854:A 4.78556e-05
20 *491:37 *2854:C 0
21 *491:37 *3323:A 1.54008e-05
22 *491:37 *3621:A 0
23 *491:37 *714:16 0.000177683
24 *2849:B *491:22 0.000209769
25 *241:12 *491:10 0
26 *347:10 *491:10 0.000127455
*RES
1 *2848:Y *491:10 44.5938 
2 *491:10 *491:12 20 
3 *491:12 *491:22 45.2221 
4 *491:22 *2849:C 20 
5 *491:12 *491:37 42.2557 
6 *491:37 *3119:A2 20 
*END

*D_NET *492 0.0149804
*CONN
*I *3372:A I *D sg13g2_buf_1
*I *3367:A I *D sg13g2_buf_1
*I *2849:Y O *D sg13g2_nor3_1
*CAP
1 *3372:A 0.000264161
2 *3367:A 0
3 *2849:Y 0.000454275
4 *492:22 0.00143426
5 *492:16 0.00200636
6 *492:12 0.00076221
7 *3372:A *2696:A 0
8 *3372:A *3279:RESET_B 9.72884e-05
9 *3372:A *3279:CLK 0
10 *3372:A *821:10 0
11 *3372:A *825:10 0
12 *3372:A *895:73 0
13 *492:12 *2849:A 0
14 *492:12 *3609:A 0
15 *492:12 *1117:12 0.000237686
16 *492:12 *1152:14 0.000112426
17 *492:16 *3279:RESET_B 0.000466886
18 *492:16 *764:38 0
19 *492:16 *821:10 0
20 *492:22 *2889:A2 0
21 *492:22 *521:8 0
22 *492:22 *535:12 0.00258966
23 *492:22 *635:8 0.000771538
24 *492:22 *708:69 0.000291717
25 *492:22 *868:100 0
26 *492:22 *1164:10 0.0054919
27 *2849:B *492:12 0
28 *3505:A *492:16 0
29 *365:8 *492:22 0
*RES
1 *2849:Y *492:12 44.2333 
2 *492:12 *492:16 23.1312 
3 *492:16 *492:22 45.853 
4 *492:22 *3367:A 40 
5 *492:16 *3372:A 22.6986 
*END

*D_NET *493 0.0182538
*CONN
*I *3362:A I *D sg13g2_buf_1
*I *3356:A I *D sg13g2_buf_1
*I *3359:A I *D sg13g2_buf_1
*I *2850:Y O *D sg13g2_nand4_1
*CAP
1 *3362:A 0
2 *3356:A 6.59108e-05
3 *3359:A 0
4 *2850:Y 0.000242994
5 *493:54 0.00236829
6 *493:41 0.00426922
7 *493:39 0.00426476
8 *493:30 0.00066939
9 *493:22 0.00316592
10 *493:16 0.000432688
11 *3356:A *808:16 8.00842e-05
12 *3356:A *808:27 4.77347e-05
13 *493:16 *2850:C 0
14 *493:16 *2852:A1 0
15 *493:16 *3612:A 1.97059e-05
16 *493:16 *764:51 0
17 *493:16 *1150:12 7.34842e-05
18 *493:30 *3607:A 8.03692e-05
19 *493:30 *764:38 0.000288855
20 *493:30 *868:114 8.02927e-05
21 *493:30 *1117:12 0
22 *493:39 *2700:A 0
23 *493:39 *868:114 0.00011244
24 *493:41 *3596:A 0
25 *493:41 *736:25 0.000452552
26 *493:41 *764:21 0
27 *493:41 *809:112 7.47091e-05
28 *493:41 *820:12 0
29 *493:41 *820:21 0
30 *493:41 *868:30 0
31 *493:41 *868:114 0.000231852
32 *493:41 *889:79 0.00109468
33 *493:41 *894:75 0
34 *493:41 *1113:18 0
35 *493:41 *1128:26 0
36 *493:41 *1162:12 0
37 *493:41 *1164:10 0
38 *493:54 *990:16 0
39 *493:54 *1189:22 0
40 *2850:A *493:16 2.56991e-05
41 *357:26 *3356:A 0.000112198
*RES
1 *2850:Y *493:16 42.1836 
2 *493:16 *493:22 21.9673 
3 *493:22 *493:30 46.3242 
4 *493:30 *3359:A 20 
5 *493:30 *493:39 20.7519 
6 *493:39 *493:41 37.9246 
7 *493:41 *3356:A 40.7519 
8 *493:22 *493:54 43.896 
9 *493:54 *3362:A 40 
*END

*D_NET *494 0.000274903
*CONN
*I *3474:A I *D sg13g2_dlygate4sd3_1
*I *2852:X O *D sg13g2_a21o_1
*CAP
1 *3474:A 9.74093e-05
2 *2852:X 9.74093e-05
3 *3474:A *3621:A 8.00842e-05
*RES
1 *2852:X *3474:A 41.133 
*END

*D_NET *495 0.00212287
*CONN
*I *3120:C I *D sg13g2_nand3_1
*I *2854:B I *D sg13g2_and3_1
*I *2853:Y O *D sg13g2_nand2_1
*CAP
1 *3120:C 0.000136964
2 *2854:B 0.000194575
3 *2853:Y 0.000456369
4 *495:8 0.000787908
5 *3120:C *3625:A 0.000242203
6 *3120:C *895:108 0.000177399
7 *3120:C *1168:12 0
8 *347:10 *2854:B 0.000127455
9 *491:10 *2854:B 0
*RES
1 *2853:Y *495:8 44.3054 
2 *495:8 *2854:B 41.9055 
3 *495:8 *3120:C 41.6171 
*END

*D_NET *496 0.016075
*CONN
*I *2864:A2 I *D sg13g2_a21oi_1
*I *2872:A2 I *D sg13g2_a21oi_1
*I *2876:A2 I *D sg13g2_a21oi_1
*I *2860:A2 I *D sg13g2_a21oi_1
*I *2880:A2 I *D sg13g2_a21oi_1
*I *2856:A2 I *D sg13g2_a21oi_1
*I *2868:A2 I *D sg13g2_a21oi_1
*I *2884:A2 I *D sg13g2_a21oi_1
*I *2855:Y O *D sg13g2_nor3_1
*CAP
1 *2864:A2 0.00041533
2 *2872:A2 0.000401408
3 *2876:A2 0
4 *2860:A2 0
5 *2880:A2 0
6 *2856:A2 0
7 *2868:A2 0
8 *2884:A2 0.000253428
9 *2855:Y 0.000721996
10 *496:91 0.000269436
11 *496:83 0.000989361
12 *496:68 0.00122573
13 *496:53 0.00148965
14 *496:37 0.000807995
15 *496:27 0.000874071
16 *496:12 0.000583419
17 *496:10 0.00115301
18 *2864:A2 *2855:A 0
19 *2864:A2 *3197:CLK 0
20 *2864:A2 *3369:A 0.000307227
21 *2864:A2 *822:8 0
22 *2864:A2 *822:14 0
23 *2872:A2 *2875:A 1.54556e-05
24 *2872:A2 *2875:B 0
25 *2872:A2 *822:102 0
26 *2872:A2 *1178:31 0.00051748
27 *2884:A2 *710:10 0
28 *2884:A2 *710:36 0.00024222
29 *2884:A2 *745:12 0
30 *2884:A2 *822:22 7.51285e-05
31 *2884:A2 *822:26 0.00024211
32 *2884:A2 *888:18 0
33 *496:10 *2855:B 4.7813e-05
34 *496:10 *3337:A 0
35 *496:10 *3369:A 0
36 *496:10 *822:14 0
37 *496:10 *824:46 0
38 *496:10 *896:25 0.000212127
39 *496:12 *2858:B1 0.000181695
40 *496:12 *710:10 0
41 *496:12 *822:22 0.00113867
42 *496:12 *896:25 0.000819738
43 *496:27 *2858:B1 0
44 *496:27 *520:16 0
45 *496:27 *822:22 4.78356e-05
46 *496:27 *822:50 6.49083e-05
47 *496:37 *2858:B1 0
48 *496:37 *2868:A1 0.000354536
49 *496:37 *499:8 0
50 *496:37 *747:28 0
51 *496:37 *822:50 1.54008e-05
52 *496:37 *861:74 0
53 *496:53 *2883:A 0
54 *496:53 *697:234 0
55 *496:53 *822:72 0.000724638
56 *496:53 *822:87 1.54008e-05
57 *496:68 *822:87 0.000435533
58 *496:68 *822:102 1.54008e-05
59 *496:68 *824:46 0
60 *496:68 *1178:31 0
61 *496:68 *1185:28 0
62 *496:83 *2875:B 0
63 *496:83 *797:39 0
64 *496:83 *822:102 6.49083e-05
65 *496:83 *1178:31 0.000209763
66 *496:91 *2876:A1 0.000338601
67 *496:91 *797:39 0.000287672
68 *496:91 *1179:32 0.000338601
69 *2855:C *2864:A2 0.000177268
70 *289:10 *496:68 0
*RES
1 *2855:Y *496:10 43.1415 
2 *496:10 *496:12 5.5414 
3 *496:12 *2884:A2 42.9561 
4 *496:12 *496:27 20.7519 
5 *496:27 *496:37 47.1688 
6 *496:37 *2868:A2 20 
7 *496:27 *2856:A2 20 
8 *496:10 *496:53 25.6135 
9 *496:53 *2880:A2 20 
10 *496:53 *496:68 49.0846 
11 *496:68 *2860:A2 20 
12 *496:68 *496:83 43.2754 
13 *496:83 *496:91 43.605 
14 *496:91 *2876:A2 20 
15 *496:83 *2872:A2 24.3466 
16 *2855:Y *2864:A2 44.4084 
*END

*D_NET *497 0.00126868
*CONN
*I *2859:A I *D sg13g2_nor2_1
*I *2856:Y O *D sg13g2_a21oi_1
*CAP
1 *2859:A 0.000112972
2 *2856:Y 0.000115915
3 *497:8 0.000228888
4 *2859:A *3199:CLK 0.000207916
5 *2859:A *748:23 0.00020816
6 *497:8 *499:8 0
7 *497:8 *814:33 0.000394831
*RES
1 *2856:Y *497:8 41.8334 
2 *497:8 *2859:A 41.4008 
*END

*D_NET *498 0.00150564
*CONN
*I *2858:A2 I *D sg13g2_o21ai_1
*I *2857:Y O *D sg13g2_nand4_1
*CAP
1 *2858:A2 0
2 *2857:Y 0.000712699
3 *498:10 0.000712699
4 *498:10 *520:16 0
5 *498:10 *710:8 0
6 *498:10 *710:10 0
7 *498:10 *814:20 0
8 *498:10 *858:56 0
9 *498:10 *1178:31 8.02431e-05
*RES
1 *2857:Y *498:10 47.313 
2 *498:10 *2858:A2 40 
*END

*D_NET *499 0.000660977
*CONN
*I *2859:B I *D sg13g2_nor2_1
*I *2858:Y O *D sg13g2_o21ai_1
*CAP
1 *2859:B 0
2 *2858:Y 0.000330488
3 *499:8 0.000330488
4 *499:8 *747:28 0
5 *499:8 *814:33 0
6 *496:37 *499:8 0
7 *497:8 *499:8 0
*RES
1 *2858:Y *499:8 43.3166 
2 *499:8 *2859:B 40 
*END

*D_NET *500 0.000189858
*CONN
*I *2863:A I *D sg13g2_nor2_1
*I *2860:Y O *D sg13g2_a21oi_1
*CAP
1 *2863:A 9.4929e-05
2 *2860:Y 9.4929e-05
3 *2863:A *822:87 0
4 *2863:A *1185:28 0
*RES
1 *2860:Y *2863:A 41.133 
*END

*D_NET *501 0.00112032
*CONN
*I *2862:A2 I *D sg13g2_o21ai_1
*I *2861:Y O *D sg13g2_nand4_1
*CAP
1 *2862:A2 0.000255002
2 *2861:Y 0.000192745
3 *501:8 0.000447746
4 *2862:A2 *2862:B1 8.00842e-05
5 *2862:A2 *2862:A1 0.00014474
6 *2862:A2 *1178:31 0
7 *2862:A2 *1179:32 0
8 *289:10 *501:8 0
*RES
1 *2861:Y *501:8 41.5862 
2 *501:8 *2862:A2 42.4823 
*END

*D_NET *502 0.00137273
*CONN
*I *2863:B I *D sg13g2_nor2_1
*I *2862:Y O *D sg13g2_o21ai_1
*CAP
1 *2863:B 0
2 *2862:Y 0.000509029
3 *502:10 0.000509029
4 *502:10 *2862:B1 1.54008e-05
5 *502:10 *1178:31 0.000339267
6 *502:10 *1179:32 0
*RES
1 *2862:Y *502:10 45.3354 
2 *502:10 *2863:B 40 
*END

*D_NET *503 0.00031199
*CONN
*I *2867:A I *D sg13g2_nor2_1
*I *2864:Y O *D sg13g2_a21oi_1
*CAP
1 *2867:A 0.000155995
2 *2864:Y 0.000155995
3 *2867:A *697:202 0
4 *2867:A *1178:31 0
5 *285:10 *2867:A 0
*RES
1 *2864:Y *2867:A 41.6171 
*END

*D_NET *504 0.000755333
*CONN
*I *2866:A2 I *D sg13g2_o21ai_1
*I *2865:Y O *D sg13g2_nand4_1
*CAP
1 *2866:A2 4.18655e-05
2 *2865:Y 0.000192348
3 *504:8 0.000234214
4 *2866:A2 *2866:B1 8.03692e-05
5 *2866:A2 *2866:A1 8.02102e-05
6 *504:8 *858:8 0
7 *504:8 *874:16 0
8 *504:8 *874:31 0.000126325
9 *504:8 *896:62 0
*RES
1 *2865:Y *504:8 42.0806 
2 *504:8 *2866:A2 40.5356 
*END

*D_NET *505 0.0005996
*CONN
*I *2867:B I *D sg13g2_nor2_1
*I *2866:Y O *D sg13g2_o21ai_1
*CAP
1 *2867:B 0
2 *2866:Y 0.0002998
3 *505:8 0.0002998
4 *505:8 *708:19 0
5 *285:10 *505:8 0
*RES
1 *2866:Y *505:8 43.5638 
2 *505:8 *2867:B 40 
*END

*D_NET *506 0.000207907
*CONN
*I *2871:A I *D sg13g2_nor2_1
*I *2868:Y O *D sg13g2_a21oi_1
*CAP
1 *2871:A 0.000103953
2 *2868:Y 0.000103953
3 *2871:A *861:74 0
*RES
1 *2868:Y *2871:A 41.133 
*END

*D_NET *507 0.000795939
*CONN
*I *2870:A2 I *D sg13g2_o21ai_1
*I *2869:Y O *D sg13g2_nand4_1
*CAP
1 *2870:A2 0.0001558
2 *2869:Y 0.000130399
3 *507:8 0.000286198
4 *2870:A2 *2870:B1 1.54285e-05
5 *2870:A2 *2870:A1 4.77702e-05
6 *2870:A2 *3412:A 1.54008e-05
7 *2870:A2 *870:23 0.000144942
8 *507:8 *2998:B1 0
9 *507:8 *874:12 0
10 *507:8 *874:16 0
*RES
1 *2869:Y *507:8 41.0918 
2 *507:8 *2870:A2 41.6171 
*END

*D_NET *508 0.00335275
*CONN
*I *2871:B I *D sg13g2_nor2_1
*I *2870:Y O *D sg13g2_o21ai_1
*CAP
1 *2871:B 0
2 *2870:Y 0
3 *508:10 0.0014436
4 *508:6 0.0014436
5 *508:10 *2866:B1 0
6 *508:10 *2866:A1 0.000337302
7 *508:10 *2987:A 0
8 *508:10 *747:8 0
9 *508:10 *812:16 0.000128248
10 *508:10 *883:90 0
11 *508:10 *898:56 0
12 *508:10 *898:73 0
13 *508:10 *1020:8 0
14 *2855:C *508:10 0
15 *285:10 *508:10 0
*RES
1 *2870:Y *508:6 40 
2 *508:6 *508:10 35.1822 
3 *508:10 *2871:B 20 
*END

*D_NET *509 0.000644954
*CONN
*I *2875:A I *D sg13g2_nor2_1
*I *2872:Y O *D sg13g2_a21oi_1
*CAP
1 *2875:A 5.4941e-05
2 *2872:Y 0.000115765
3 *509:8 0.000170706
4 *2875:A *2875:B 0
5 *2875:A *1174:68 0
6 *2875:A *1179:32 0
7 *509:8 *799:22 0.000288087
8 *2872:A2 *2875:A 1.54556e-05
9 *388:12 *509:8 0
*RES
1 *2872:Y *509:8 41.339 
2 *509:8 *2875:A 40.5356 
*END

*D_NET *510 0.00310424
*CONN
*I *2874:A2 I *D sg13g2_o21ai_1
*I *2873:Y O *D sg13g2_nand4_1
*CAP
1 *2874:A2 0.000448113
2 *2873:Y 0.000158916
3 *510:10 0.000607028
4 *2874:A2 *2874:B1 0.000404076
5 *2874:A2 *2874:A1 0.000468173
6 *2874:A2 *2879:B 0.000177219
7 *510:10 *790:18 0.000504118
8 *510:10 *870:64 0.000288747
9 *378:22 *2874:A2 4.78521e-05
*RES
1 *2873:Y *510:10 42.6471 
2 *510:10 *2874:A2 45.0985 
*END

*D_NET *511 0.00246461
*CONN
*I *2875:B I *D sg13g2_nor2_1
*I *2874:Y O *D sg13g2_o21ai_1
*CAP
1 *2875:B 0.000497634
2 *2874:Y 0.000167851
3 *511:8 0.000665484
4 *2875:B *1179:32 0.00079202
5 *511:8 *2876:A1 0.000341621
6 *511:8 *797:39 0
7 *2872:A2 *2875:B 0
8 *2875:A *2875:B 0
9 *496:83 *2875:B 0
*RES
1 *2874:Y *511:8 42.3278 
2 *511:8 *2875:B 45.2942 
*END

*D_NET *512 0.000411765
*CONN
*I *2879:A I *D sg13g2_nor2_1
*I *2876:Y O *D sg13g2_a21oi_1
*CAP
1 *2879:A 4.19277e-05
2 *2876:Y 0.000116072
3 *512:8 0.000158
4 *2879:A *2876:A1 0
5 *2879:A *2876:B1 1.54556e-05
6 *2879:A *1187:43 8.03091e-05
7 *512:8 *798:24 0
8 *512:8 *799:22 0
*RES
1 *2876:Y *512:8 41.339 
2 *512:8 *2879:A 40.5356 
*END

*D_NET *513 0.00124939
*CONN
*I *2878:A2 I *D sg13g2_o21ai_1
*I *2877:Y O *D sg13g2_nand4_1
*CAP
1 *2878:A2 0
2 *2877:Y 0.00058046
3 *513:10 0.00058046
4 *513:10 *2877:B 0
5 *513:10 *3009:C 0
6 *513:10 *697:254 0
7 *513:10 *812:71 7.30101e-05
8 *513:10 *870:39 0
9 *513:10 *887:59 0
10 *513:10 *898:84 0
11 *373:30 *513:10 0
12 *374:26 *513:10 1.54556e-05
*RES
1 *2877:Y *513:10 45.15 
2 *513:10 *2878:A2 40 
*END

*D_NET *514 0.00441759
*CONN
*I *2879:B I *D sg13g2_nor2_1
*I *2878:Y O *D sg13g2_o21ai_1
*CAP
1 *2879:B 0.000974504
2 *2878:Y 0.000111383
3 *514:14 0.00157342
4 *514:8 0.000710295
5 *2879:B *2874:A1 0.000468173
6 *2879:B *2993:C 0
7 *2879:B *2993:D 0
8 *2879:B *3203:RESET_B 0
9 *2879:B *601:10 0.000208576
10 *2879:B *697:278 0
11 *2879:B *870:64 0
12 *2879:B *875:59 0
13 *2879:B *1187:43 1.23813e-05
14 *514:8 *2881:C 0
15 *514:8 *812:71 0.000181646
16 *514:8 *898:84 0
17 *514:14 *872:29 0
18 *514:14 *1177:23 0
19 *2874:A2 *2879:B 0.000177219
20 *378:16 *514:14 0
21 *378:22 *2879:B 0
*RES
1 *2878:Y *514:8 41.339 
2 *514:8 *514:14 45.7268 
3 *514:14 *2879:B 49.1269 
*END

*D_NET *515 0.000893392
*CONN
*I *2883:A I *D sg13g2_nor2_1
*I *2880:Y O *D sg13g2_a21oi_1
*CAP
1 *2883:A 0.000165357
2 *2880:Y 0.000241817
3 *515:10 0.000407173
4 *2883:A *2883:B 0
5 *515:10 *697:194 0
6 *515:10 *697:230 0
7 *515:10 *711:39 7.9046e-05
8 *496:53 *2883:A 0
*RES
1 *2880:Y *515:10 41.8746 
2 *515:10 *2883:A 41.1845 
*END

*D_NET *516 0.00235009
*CONN
*I *2882:A2 I *D sg13g2_o21ai_1
*I *2881:Y O *D sg13g2_nand4_1
*CAP
1 *2882:A2 5.08623e-05
2 *2881:Y 0.000296927
3 *516:8 0.000347789
4 *2882:A2 *2882:B1 8.03091e-05
5 *2882:A2 *2882:A1 1.54556e-05
6 *2882:A2 *858:75 0
7 *516:8 *2881:C 0.000497881
8 *516:8 *599:10 0
9 *516:8 *823:43 0.000649435
10 *516:8 *859:19 0.000337915
11 *373:30 *516:8 7.35191e-05
*RES
1 *2881:Y *516:8 44.5526 
2 *516:8 *2882:A2 40.5356 
*END

*D_NET *517 0.00142587
*CONN
*I *2883:B I *D sg13g2_nor2_1
*I *2882:Y O *D sg13g2_o21ai_1
*CAP
1 *2883:B 0.000158771
2 *2882:Y 0.000458201
3 *517:10 0.000616972
4 *2883:B *824:46 0
5 *517:10 *2882:B1 1.54556e-05
6 *517:10 *2882:A1 0
7 *517:10 *697:248 0
8 *517:10 *872:23 0
9 *517:10 *1179:32 0.000176475
10 *2883:A *2883:B 0
*RES
1 *2882:Y *517:10 43.7595 
2 *517:10 *2883:B 41.1845 
*END

*D_NET *518 0.000196842
*CONN
*I *2887:A I *D sg13g2_nor2_1
*I *2884:Y O *D sg13g2_a21oi_1
*CAP
1 *2887:A 9.84209e-05
2 *2884:Y 9.84209e-05
3 *2887:A *2884:B1 0
4 *2887:A *520:16 0
5 *2887:A *822:26 0
*RES
1 *2884:Y *2887:A 41.133 
*END

*D_NET *519 0.000927372
*CONN
*I *2886:A2 I *D sg13g2_o21ai_1
*I *2885:Y O *D sg13g2_nand4_1
*CAP
1 *2886:A2 0.000286615
2 *2885:Y 0.000286615
3 *2886:A2 *812:37 0.000274057
4 *2886:A2 *812:54 8.00842e-05
5 *2886:A2 *858:97 0
*RES
1 *2885:Y *2886:A2 43.1106 
*END

*D_NET *520 0.00514262
*CONN
*I *2887:B I *D sg13g2_nor2_1
*I *2886:Y O *D sg13g2_o21ai_1
*CAP
1 *2887:B 0
2 *2886:Y 3.87833e-05
3 *520:16 0.000958663
4 *520:8 0.000997447
5 *520:16 *2858:B1 0.000229115
6 *520:16 *710:8 0.000181695
7 *520:16 *710:10 0.000446854
8 *520:16 *711:10 0.000178206
9 *520:16 *822:26 0
10 *520:16 *824:25 0
11 *520:16 *858:67 0
12 *520:16 *873:78 0
13 *520:16 *896:25 0.00159336
14 *520:16 *896:31 0.000181192
15 *520:16 *896:93 0.000337302
16 *520:16 *898:84 0
17 *2887:A *520:16 0
18 *496:27 *520:16 0
19 *498:10 *520:16 0
*RES
1 *2886:Y *520:8 40.3193 
2 *520:8 *520:16 33.1325 
3 *520:16 *2887:B 20 
*END

*D_NET *521 0.00997274
*CONN
*I *2889:A2 I *D sg13g2_a21oi_1
*I *2913:A2 I *D sg13g2_a21oi_1
*I *2909:A2 I *D sg13g2_a21oi_1
*I *2917:A2 I *D sg13g2_a21oi_1
*I *2897:A2 I *D sg13g2_a21oi_1
*I *2905:A2 I *D sg13g2_a21oi_1
*I *2901:A2 I *D sg13g2_a21oi_1
*I *2893:A2 I *D sg13g2_a21oi_1
*I *2888:Y O *D sg13g2_nor3_1
*CAP
1 *2889:A2 0.000347841
2 *2913:A2 0
3 *2909:A2 3.06815e-05
4 *2917:A2 0
5 *2897:A2 0
6 *2905:A2 0
7 *2901:A2 0.000314805
8 *2893:A2 0.000140879
9 *2888:Y 0.000530095
10 *521:96 0.000181572
11 *521:83 0.000381528
12 *521:76 0.000311051
13 *521:68 0.000919755
14 *521:61 0.000228436
15 *521:53 0.000852891
16 *521:46 0.000867918
17 *521:12 0.000631768
18 *521:10 0.000858976
19 *521:8 0.000877937
20 *2889:A2 *536:8 0
21 *2889:A2 *816:36 1.54556e-05
22 *2889:A2 *816:51 4.79124e-05
23 *2889:A2 *820:21 0
24 *2893:A2 *2893:A1 1.53311e-05
25 *2893:A2 *2901:B1 0
26 *2893:A2 *820:12 0
27 *2901:A2 *2891:B1 0
28 *2901:A2 *2893:A1 0
29 *2901:A2 *2901:A1 1.54008e-05
30 *2901:A2 *708:90 4.76452e-05
31 *2901:A2 *1161:10 0
32 *521:8 *535:12 0
33 *521:12 *2891:B1 0
34 *521:12 *535:12 0
35 *521:12 *820:12 0
36 *521:46 *2891:B1 0
37 *521:46 *2908:A 0
38 *521:46 *535:12 0
39 *521:46 *741:8 4.75265e-05
40 *521:46 *891:110 0.000180744
41 *521:53 *737:10 0
42 *521:53 *816:55 0
43 *521:53 *891:110 0.000304983
44 *521:61 *530:10 0.00044451
45 *521:61 *816:55 4.76874e-05
46 *521:61 *816:66 1.54008e-05
47 *521:61 *883:74 0
48 *521:68 *2909:A1 8.00842e-05
49 *521:68 *737:10 0
50 *521:68 *816:66 0
51 *521:68 *883:86 0
52 *521:68 *891:91 0
53 *521:68 *891:110 0.000175928
54 *521:76 *2909:A1 0
55 *521:76 *2917:A1 1.54008e-05
56 *521:76 *2920:A 0
57 *521:76 *539:12 0.000124699
58 *521:76 *545:8 0.000282145
59 *521:83 *2909:A1 3.22653e-05
60 *521:83 *2913:A1 0
61 *521:83 *883:86 0
62 *521:96 *3223:CLK 0
63 *521:96 *539:12 0
64 *296:8 *521:76 0.000603485
65 *492:22 *2889:A2 0
66 *492:22 *521:8 0
*RES
1 *2888:Y *521:8 44.5526 
2 *521:8 *521:10 20 
3 *521:10 *521:12 1.6171 
4 *521:12 *2893:A2 21.4741 
5 *521:12 *2901:A2 23.5329 
6 *521:10 *521:46 6.9834 
7 *521:46 *2905:A2 20 
8 *521:46 *521:53 2.0497 
9 *521:53 *521:61 42.3999 
10 *521:61 *2897:A2 20 
11 *521:53 *521:68 4.429 
12 *521:68 *521:76 43.8831 
13 *521:76 *2917:A2 20 
14 *521:68 *521:83 1.6171 
15 *521:83 *2909:A2 20.3502 
16 *521:83 *521:96 42.0806 
17 *521:96 *2913:A2 20 
18 *521:8 *2889:A2 43.708 
*END

*D_NET *522 0.00185678
*CONN
*I *2892:A I *D sg13g2_nor2_1
*I *2889:Y O *D sg13g2_a21oi_1
*CAP
1 *2892:A 0
2 *2889:Y 0.000523953
3 *522:10 0.000523953
4 *522:10 *527:10 0.000237406
5 *522:10 *735:6 0.000497915
6 *522:10 *736:25 0
7 *522:10 *861:26 7.35528e-05
8 *522:10 *1161:10 0
9 *522:10 *1165:22 0
10 *291:8 *522:10 0
*RES
1 *2889:Y *522:10 45.1809 
2 *522:10 *2892:A 40 
*END

*D_NET *523 0.00289448
*CONN
*I *2891:A2 I *D sg13g2_o21ai_1
*I *2890:Y O *D sg13g2_nand4_1
*CAP
1 *2891:A2 0.000166614
2 *2890:Y 0.000347595
3 *523:10 0.000514209
4 *2891:A2 *2891:B1 1.53311e-05
5 *2891:A2 *2891:A1 0.000161033
6 *2891:A2 *809:30 7.94043e-05
7 *2891:A2 *1104:10 0
8 *523:10 *3589:A 0.000177268
9 *523:10 *526:10 0.000544281
10 *523:10 *867:8 0
11 *523:10 *873:32 0.000808658
12 *523:10 *1101:12 8.00842e-05
13 *370:26 *523:10 0
*RES
1 *2890:Y *523:10 44.9955 
2 *523:10 *2891:A2 41.6171 
*END

*D_NET *524 0.0011222
*CONN
*I *2892:B I *D sg13g2_nor2_1
*I *2891:Y O *D sg13g2_o21ai_1
*CAP
1 *2892:B 0
2 *2891:Y 0.000222225
3 *524:8 0.000222225
4 *524:8 *527:10 0.000602864
5 *524:8 *708:82 7.48842e-05
6 *524:8 *764:21 0
7 *524:8 *1161:10 0
*RES
1 *2891:Y *524:8 42.8222 
2 *524:8 *2892:B 40 
*END

*D_NET *525 0.000697595
*CONN
*I *2896:A I *D sg13g2_nor2_1
*I *2893:Y O *D sg13g2_a21oi_1
*CAP
1 *2896:A 0.000256079
2 *2893:Y 0.000256079
3 *2896:A *2893:B1 7.31972e-05
4 *2896:A *1161:10 0
5 *292:10 *2896:A 0.00011224
*RES
1 *2893:Y *2896:A 42.6986 
*END

*D_NET *526 0.0025418
*CONN
*I *2895:A2 I *D sg13g2_o21ai_1
*I *2894:Y O *D sg13g2_nand4_1
*CAP
1 *2895:A2 0.000131873
2 *2894:Y 0.00044397
3 *526:10 0.000575844
4 *2895:A2 *2895:B1 4.76456e-05
5 *2895:A2 *739:16 0.000110936
6 *2895:A2 *809:38 0.000176085
7 *526:10 *809:38 7.46098e-05
8 *526:10 *857:14 0.000183395
9 *526:10 *861:38 0
10 *526:10 *867:8 4.73346e-05
11 *526:10 *868:10 7.62389e-05
12 *526:10 *873:32 0
13 *526:10 *894:81 0
14 *526:10 *1127:10 0.000129584
15 *523:10 *526:10 0.000544281
*RES
1 *2894:Y *526:10 44.6247 
2 *526:10 *2895:A2 41.4008 
*END

*D_NET *527 0.00280971
*CONN
*I *2896:B I *D sg13g2_nor2_1
*I *2895:Y O *D sg13g2_o21ai_1
*CAP
1 *2896:B 3.34444e-05
2 *2895:Y 0.000382216
3 *527:10 0.000415661
4 *527:10 *2895:B1 4.84127e-05
5 *527:10 *708:82 0
6 *527:10 *739:16 0.000391082
7 *527:10 *739:26 0.000127744
8 *291:8 *527:10 0.000344053
9 *292:10 *2896:B 4.77425e-05
10 *356:8 *527:10 0.00017909
11 *522:10 *527:10 0.000237406
12 *524:8 *527:10 0.000602864
*RES
1 *2895:Y *527:10 45.8607 
2 *527:10 *2896:B 40.3193 
*END

*D_NET *528 0.000212445
*CONN
*I *2900:A I *D sg13g2_nor2_1
*I *2897:Y O *D sg13g2_a21oi_1
*CAP
1 *2900:A 0.000106223
2 *2897:Y 0.000106223
3 *2900:A *741:22 0
*RES
1 *2897:Y *2900:A 41.133 
*END

*D_NET *529 0.00122248
*CONN
*I *2899:A2 I *D sg13g2_o21ai_1
*I *2898:Y O *D sg13g2_nand4_1
*CAP
1 *2899:A2 0.000267387
2 *2898:Y 0.000307853
3 *529:8 0.00057524
4 *2899:A2 *2888:A 0
5 *2899:A2 *2899:A1 7.19987e-05
6 *2899:A2 *809:66 0
7 *529:8 *3031:A1 0
*RES
1 *2898:Y *529:8 43.5638 
2 *529:8 *2899:A2 42.7192 
*END

*D_NET *530 0.00190749
*CONN
*I *2900:B I *D sg13g2_nor2_1
*I *2899:Y O *D sg13g2_o21ai_1
*CAP
1 *2900:B 0
2 *2899:Y 0.000694279
3 *530:10 0.000694279
4 *530:10 *883:74 0
5 *530:10 *883:86 0
6 *530:10 *891:75 0
7 *530:10 *891:110 0
8 *530:10 *894:12 0
9 *293:8 *530:10 7.44237e-05
10 *521:61 *530:10 0.00044451
*RES
1 *2899:Y *530:10 46.8186 
2 *530:10 *2900:B 40 
*END

*D_NET *531 0.00134123
*CONN
*I *2904:A I *D sg13g2_nor2_1
*I *2901:Y O *D sg13g2_a21oi_1
*CAP
1 *2904:A 0.000414436
2 *2901:Y 0.000414436
3 *2904:A *2901:A1 0.000368257
4 *2904:A *2901:B1 0
5 *2904:A *3215:CLK 0.000144104
6 *2904:A *1104:10 0
*RES
1 *2901:Y *2904:A 44.1509 
*END

*D_NET *532 0.00255695
*CONN
*I *2903:A2 I *D sg13g2_o21ai_1
*I *2902:Y O *D sg13g2_nand4_1
*CAP
1 *2903:A2 2.35232e-05
2 *2902:Y 0.000392162
3 *532:12 0.000415685
4 *2903:A2 *2903:B1 7.34141e-06
5 *2903:A2 *2903:A1 3.97009e-05
6 *2903:A2 *3587:A 0
7 *532:12 *2890:B 0.000342449
8 *532:12 *2902:C 0.000318339
9 *532:12 *3593:A 5.10235e-05
10 *532:12 *809:20 0
11 *532:12 *809:30 0
12 *532:12 *857:25 0.000237794
13 *532:12 *867:23 0.000337717
14 *532:12 *1101:12 0.000234893
15 *2890:A *532:12 0
16 *368:16 *532:12 0.000156323
*RES
1 *2902:Y *532:12 45.6547 
2 *532:12 *2903:A2 40.2652 
*END

*D_NET *533 0.00191381
*CONN
*I *2904:B I *D sg13g2_nor2_1
*I *2903:Y O *D sg13g2_o21ai_1
*CAP
1 *2904:B 0
2 *2903:Y 0.000511537
3 *533:10 0.000511537
4 *533:10 *3587:A 0.000207688
5 *533:10 *1023:32 0
6 *533:10 *1068:16 0.000661019
7 *533:10 *1136:10 2.20248e-05
*RES
1 *2903:Y *533:10 45.2118 
2 *533:10 *2904:B 40 
*END

*D_NET *534 0.00144301
*CONN
*I *2908:A I *D sg13g2_nor2_1
*I *2905:Y O *D sg13g2_a21oi_1
*CAP
1 *2908:A 0.000346869
2 *2905:Y 0.000151543
3 *534:8 0.000498412
4 *2908:A *741:8 0
5 *2908:A *816:51 0
6 *534:8 *2905:A1 0.000372702
7 *534:8 *816:51 7.34808e-05
8 *295:10 *2908:A 0
9 *521:46 *2908:A 0
*RES
1 *2905:Y *534:8 42.0806 
2 *534:8 *2908:A 43.5638 
*END

*D_NET *535 0.00611209
*CONN
*I *2907:A2 I *D sg13g2_o21ai_1
*I *2906:Y O *D sg13g2_nand4_1
*CAP
1 *2907:A2 0
2 *2906:Y 0
3 *535:18 8.23842e-05
4 *535:12 0.000935957
5 *535:6 0.000853572
6 *535:12 *2891:B1 0
7 *535:12 *886:26 0.000828895
8 *3020:C *535:12 0
9 *365:8 *535:12 0.000821622
10 *492:22 *535:12 0.00258966
11 *521:8 *535:12 0
12 *521:12 *535:12 0
13 *521:46 *535:12 0
*RES
1 *2906:Y *535:6 40 
2 *535:6 *535:12 33.3694 
3 *535:12 *535:18 40.9682 
4 *535:18 *2907:A2 20 
*END

*D_NET *536 0.000568975
*CONN
*I *2908:B I *D sg13g2_nor2_1
*I *2907:Y O *D sg13g2_o21ai_1
*CAP
1 *2908:B 0
2 *2907:Y 0.000284487
3 *536:8 0.000284487
4 *2889:A2 *536:8 0
*RES
1 *2907:Y *536:8 42.8222 
2 *536:8 *2908:B 40 
*END

*D_NET *537 0.000377785
*CONN
*I *2912:A I *D sg13g2_nor2_1
*I *2909:Y O *D sg13g2_a21oi_1
*CAP
1 *2912:A 0.000188893
2 *2909:Y 0.000188893
3 *2912:A *2909:A1 0
4 *2912:A *741:22 0
*RES
1 *2909:Y *2912:A 41.751 
*END

*D_NET *538 0.00175998
*CONN
*I *2911:A2 I *D sg13g2_o21ai_1
*I *2910:Y O *D sg13g2_nand4_1
*CAP
1 *2911:A2 0.000132991
2 *2910:Y 0.000377661
3 *538:8 0.000510652
4 *2911:A2 *2911:A1 1.53311e-05
5 *2911:A2 *861:74 0
6 *2911:A2 *894:8 1.53311e-05
7 *2911:A2 *894:12 0.000207804
8 *538:8 *873:55 0.000500214
9 *538:8 *873:70 0
*RES
1 *2910:Y *538:8 44.7998 
2 *538:8 *2911:A2 41.4008 
*END

*D_NET *539 0.00170667
*CONN
*I *2912:B I *D sg13g2_nor2_1
*I *2911:Y O *D sg13g2_o21ai_1
*CAP
1 *2912:B 0
2 *2911:Y 0.000574849
3 *539:12 0.000574849
4 *539:12 *2909:A1 7.31628e-05
5 *539:12 *2919:A1 0
6 *539:12 *3433:A 0
7 *539:12 *861:74 0
8 *539:12 *883:86 0.000359113
9 *539:12 *894:8 0
10 *521:76 *539:12 0.000124699
11 *521:96 *539:12 0
*RES
1 *2911:Y *539:12 45.6856 
2 *539:12 *2912:B 40 
*END

*D_NET *540 0.000931229
*CONN
*I *2916:A I *D sg13g2_nor2_1
*I *2913:Y O *D sg13g2_a21oi_1
*CAP
1 *2916:A 6.64613e-05
2 *2913:Y 0.000121955
3 *540:8 0.000188417
4 *2916:A *3434:A 0.000112558
5 *540:8 *3223:CLK 0
6 *297:10 *2916:A 4.78521e-05
7 *297:10 *540:8 0.000393986
*RES
1 *2913:Y *540:8 41.8334 
2 *540:8 *2916:A 40.7519 
*END

*D_NET *541 0.000949082
*CONN
*I *2915:A2 I *D sg13g2_o21ai_1
*I *2914:Y O *D sg13g2_nand4_1
*CAP
1 *2915:A2 0.000329586
2 *2914:Y 0.000329586
3 *2915:A2 *2914:C 0
4 *2915:A2 *2915:B1 0.0002096
5 *2915:A2 *2915:A1 8.03091e-05
6 *2915:A2 *811:49 0
*RES
1 *2914:Y *2915:A2 43.3063 
*END

*D_NET *542 0.000309191
*CONN
*I *2916:B I *D sg13g2_nor2_1
*I *2915:Y O *D sg13g2_o21ai_1
*CAP
1 *2916:B 0.000154596
2 *2915:Y 0.000154596
3 *2916:B *3434:A 0
*RES
1 *2915:Y *2916:B 41.4008 
*END

*D_NET *543 0.000713384
*CONN
*I *2920:A I *D sg13g2_nor2_1
*I *2917:Y O *D sg13g2_a21oi_1
*CAP
1 *2920:A 6.36515e-05
2 *2917:Y 0.000123565
3 *543:12 0.000187216
4 *2920:A *3219:CLK 0.000112545
5 *2920:A *744:16 0
6 *543:12 *744:16 4.75959e-05
7 *296:8 *543:12 0.000178811
8 *521:76 *2920:A 0
*RES
1 *2917:Y *543:12 41.5141 
2 *543:12 *2920:A 40.7519 
*END

*D_NET *544 0.00643904
*CONN
*I *2919:A2 I *D sg13g2_o21ai_1
*I *2918:Y O *D sg13g2_nand4_1
*CAP
1 *2919:A2 0
2 *2918:Y 0.000112481
3 *544:14 0.00124907
4 *544:8 0.00136155
5 *544:14 *2897:B1 0
6 *544:14 *2919:B1 7.989e-05
7 *544:14 *2919:A1 0.00116525
8 *544:14 *3047:A1 0.000212543
9 *544:14 *737:25 0
10 *544:14 *810:8 0.000320681
11 *544:14 *810:10 0.000478542
12 *544:14 *816:66 0
13 *544:14 *873:70 0
14 *544:14 *877:44 0
15 *544:14 *877:50 0
16 *544:14 *895:19 0
17 *544:14 *895:42 0.00145903
18 *379:22 *544:8 0
*RES
1 *2918:Y *544:8 40.9682 
2 *544:8 *544:14 38.1589 
3 *544:14 *2919:A2 20 
*END

*D_NET *545 0.000991734
*CONN
*I *2920:B I *D sg13g2_nor2_1
*I *2919:Y O *D sg13g2_o21ai_1
*CAP
1 *2920:B 0
2 *2919:Y 0.000228211
3 *545:8 0.000228211
4 *545:8 *2909:A1 2.17531e-05
5 *545:8 *2917:A1 0.000231414
6 *296:8 *545:8 0
7 *521:76 *545:8 0.000282145
*RES
1 *2919:Y *545:8 42.3278 
2 *545:8 *2920:B 40 
*END

*D_NET *546 0.0182278
*CONN
*I *2942:A2 I *D sg13g2_a21oi_1
*I *2922:A2 I *D sg13g2_a21oi_1
*I *2950:A2 I *D sg13g2_a21oi_1
*I *2930:A2 I *D sg13g2_a21oi_1
*I *2926:A2 I *D sg13g2_a21oi_1
*I *2946:A2 I *D sg13g2_a21oi_1
*I *2934:A2 I *D sg13g2_a21oi_1
*I *2938:A2 I *D sg13g2_a21oi_1
*I *2921:Y O *D sg13g2_nor3_1
*CAP
1 *2942:A2 0
2 *2922:A2 0
3 *2950:A2 0
4 *2930:A2 0
5 *2926:A2 3.8622e-05
6 *2946:A2 5.10268e-05
7 *2934:A2 0.000322225
8 *2938:A2 0
9 *2921:Y 6.28933e-05
10 *546:127 0.000852718
11 *546:112 0.00185047
12 *546:101 0.000394623
13 *546:86 0.000123552
14 *546:80 0.00133738
15 *546:59 0.00153739
16 *546:46 0.0011662
17 *546:31 0.000965144
18 *546:20 0.00141206
19 *546:8 0.0022654
20 *2926:A2 *2926:B1 4.77425e-05
21 *2926:A2 *819:68 4.77425e-05
22 *2934:A2 *2934:A1 0.000274769
23 *2934:A2 *722:39 0.000274709
24 *2946:A2 *794:27 8.00842e-05
25 *546:8 *697:34 0
26 *546:8 *898:37 0
27 *546:20 *2938:A1 0.000112426
28 *546:20 *2970:A 0
29 *546:20 *2970:B 0
30 *546:20 *3053:A 0.000601391
31 *546:20 *3053:B 0
32 *546:20 *722:39 0
33 *546:20 *755:23 0.00111503
34 *546:20 *855:62 0
35 *546:20 *883:127 8.00842e-05
36 *546:31 *559:10 0
37 *546:31 *712:59 8.00842e-05
38 *546:31 *722:39 0
39 *546:31 *731:18 0.000306964
40 *546:31 *731:25 3.23417e-05
41 *546:46 *731:8 0.000561086
42 *546:59 *553:14 0.000126895
43 *546:59 *733:31 0
44 *546:59 *794:27 0.000291765
45 *546:59 *795:26 0
46 *546:80 *2926:B1 0
47 *546:80 *2930:B1 1.54008e-05
48 *546:80 *553:14 2.6842e-06
49 *546:80 *819:83 0
50 *546:80 *903:48 0
51 *546:86 *819:94 0
52 *546:101 *2930:B1 0.000129403
53 *546:101 *2950:B1 0
54 *546:101 *646:63 0.000232743
55 *546:101 *768:12 0
56 *546:101 *903:48 0.000208316
57 *546:112 *2922:B1 0
58 *546:112 *3354:A 0
59 *546:112 *3355:A 0
60 *546:112 *547:8 0.000128663
61 *546:112 *697:21 0
62 *546:112 *697:34 0
63 *546:112 *707:81 0
64 *546:112 *759:39 0
65 *546:112 *898:37 0
66 *546:127 *2922:B1 0
67 *546:127 *2923:C 0
68 *546:127 *2944:B1 0
69 *546:127 *3057:A 0.000241706
70 *546:127 *3235:CLK 0.000338165
71 *546:127 *697:17 0
72 *546:127 *707:39 0
73 *546:127 *819:12 1.54008e-05
74 *546:127 *885:76 0
75 *299:10 *546:112 0
76 *299:10 *546:127 0
77 *300:8 *546:59 0.000502462
*RES
1 *2921:Y *546:8 40.5974 
2 *546:8 *546:20 33.2814 
3 *546:20 *2938:A2 20 
4 *546:20 *546:31 22.6162 
5 *546:31 *2934:A2 43.4196 
6 *546:31 *546:46 25.047 
7 *546:46 *2946:A2 20.5356 
8 *546:46 *546:59 28.0726 
9 *546:59 *2926:A2 40.4352 
10 *546:59 *546:80 27.5628 
11 *546:80 *546:86 41.0918 
12 *546:86 *2930:A2 20 
13 *546:80 *546:101 43.8934 
14 *546:101 *2950:A2 20 
15 *546:8 *546:112 29.1938 
16 *546:112 *2922:A2 20 
17 *546:112 *546:127 48.4048 
18 *546:127 *2942:A2 20 
*END

*D_NET *547 0.000911079
*CONN
*I *2925:A I *D sg13g2_nor2_1
*I *2922:Y O *D sg13g2_a21oi_1
*CAP
1 *2925:A 0.000194678
2 *2922:Y 0.000108579
3 *547:8 0.000303257
4 *2925:A *3255:CLK 0
5 *2925:A *707:81 4.77425e-05
6 *2925:A *885:64 0
7 *547:8 *697:21 0
8 *547:8 *707:81 0.00012816
9 *547:8 *819:35 0
10 *547:8 *885:76 0
11 *299:10 *2925:A 0
12 *546:112 *547:8 0.000128663
*RES
1 *2922:Y *547:8 41.339 
2 *547:8 *2925:A 41.6171 
*END

*D_NET *548 0.00117454
*CONN
*I *2924:A2 I *D sg13g2_o21ai_1
*I *2923:Y O *D sg13g2_nand4_1
*CAP
1 *2924:A2 0.000177344
2 *2923:Y 0.000171598
3 *548:10 0.000348942
4 *2924:A2 *3255:CLK 0.000177542
5 *2924:A2 *759:39 0
6 *2924:A2 *892:51 4.77425e-05
7 *2924:A2 *892:64 1.54008e-05
8 *548:10 *723:54 8.02105e-05
9 *548:10 *866:93 7.55443e-05
10 *363:16 *548:10 8.02105e-05
*RES
1 *2923:Y *548:10 41.8746 
2 *548:10 *2924:A2 41.8334 
*END

*D_NET *549 0.000684076
*CONN
*I *2925:B I *D sg13g2_nor2_1
*I *2924:Y O *D sg13g2_o21ai_1
*CAP
1 *2925:B 0
2 *2924:Y 5.38656e-05
3 *549:8 5.38656e-05
4 *549:8 *892:51 0.000288587
5 *549:8 *898:37 0.000287757
*RES
1 *2924:Y *549:8 41.339 
2 *549:8 *2925:B 40 
*END

*D_NET *550 0.00113183
*CONN
*I *2929:A I *D sg13g2_nor2_1
*I *2926:Y O *D sg13g2_a21oi_1
*CAP
1 *2929:A 6.85478e-05
2 *2926:Y 0.000168809
3 *550:8 0.000237356
4 *2929:A *2929:B 0
5 *2929:A *759:39 6.57705e-05
6 *2929:A *759:45 6.49135e-05
7 *550:8 *555:12 0.000396418
8 *550:8 *795:26 0
9 *301:10 *550:8 0.000130011
*RES
1 *2926:Y *550:8 42.3278 
2 *550:8 *2929:A 40.7519 
*END

*D_NET *551 0.000925072
*CONN
*I *2928:A2 I *D sg13g2_o21ai_1
*I *2927:Y O *D sg13g2_nand4_1
*CAP
1 *2928:A2 0.000242144
2 *2927:Y 0.000124364
3 *551:8 0.000366508
4 *2928:A2 *2927:C 4.77425e-05
5 *2928:A2 *2928:B1 0.000144312
6 *2928:A2 *2932:B1 0
7 *2928:A2 *697:125 0
8 *2928:A2 *806:49 0
9 *551:8 *790:18 0
10 *551:8 *819:58 0
11 *362:44 *2928:A2 0
*RES
1 *2927:Y *551:8 41.0918 
2 *551:8 *2928:A2 42.4823 
*END

*D_NET *552 0.00156847
*CONN
*I *2929:B I *D sg13g2_nor2_1
*I *2928:Y O *D sg13g2_o21ai_1
*CAP
1 *2929:B 0.000284375
2 *2928:Y 0.000221203
3 *552:8 0.000505578
4 *2929:B *646:14 0
5 *2929:B *759:39 0
6 *552:8 *796:18 0.00055732
7 *552:8 *806:63 0
8 *2929:A *2929:B 0
9 *3229:D *2929:B 0
*RES
1 *2928:Y *552:8 42.575 
2 *552:8 *2929:B 42.6986 
*END

*D_NET *553 0.00245953
*CONN
*I *2933:A I *D sg13g2_nor2_1
*I *2930:Y O *D sg13g2_a21oi_1
*CAP
1 *2933:A 0
2 *2930:Y 0.000914644
3 *553:14 0.000914644
4 *553:14 *555:12 0
5 *553:14 *697:125 0
6 *553:14 *819:83 0.00050066
7 *553:14 *903:48 0
8 *546:59 *553:14 0.000126895
9 *546:80 *553:14 2.6842e-06
*RES
1 *2930:Y *553:14 48.0496 
2 *553:14 *2933:A 40 
*END

*D_NET *554 0.000997806
*CONN
*I *2932:A2 I *D sg13g2_o21ai_1
*I *2931:Y O *D sg13g2_nand4_1
*CAP
1 *2932:A2 4.31427e-05
2 *2931:Y 7.75072e-05
3 *554:18 0.00029377
4 *554:10 0.000328134
5 *2932:A2 *2932:B1 8.02102e-05
6 *2932:A2 *806:49 8.00842e-05
7 *554:18 *796:18 7.34842e-05
8 *554:18 *806:53 0
9 *554:18 *806:87 2.14736e-05
*RES
1 *2931:Y *554:10 40.7004 
2 *554:10 *554:18 42.3999 
3 *554:18 *2932:A2 40.5356 
*END

*D_NET *555 0.00144194
*CONN
*I *2933:B I *D sg13g2_nor2_1
*I *2932:Y O *D sg13g2_o21ai_1
*CAP
1 *2933:B 0
2 *2932:Y 0.00051506
3 *555:12 0.00051506
4 *555:12 *2932:B1 1.54008e-05
5 *555:12 *697:125 0
6 *555:12 *795:26 0
7 *555:12 *903:48 0
8 *550:8 *555:12 0.000396418
9 *553:14 *555:12 0
*RES
1 *2932:Y *555:12 45.1912 
2 *555:12 *2933:B 40 
*END

*D_NET *556 0.000644475
*CONN
*I *2937:A I *D sg13g2_nor2_1
*I *2934:Y O *D sg13g2_a21oi_1
*CAP
1 *2937:A 6.46234e-05
2 *2934:Y 0.000257614
3 *556:8 0.000322237
4 *2937:A *2937:B 0
5 *2937:A *3231:RESET_B 0
6 *556:8 *730:26 0
7 *556:8 *795:24 0
*RES
1 *2934:Y *556:8 42.575 
2 *556:8 *2937:A 40.5356 
*END

*D_NET *557 0.00134729
*CONN
*I *2936:A2 I *D sg13g2_o21ai_1
*I *2935:Y O *D sg13g2_nand4_1
*CAP
1 *2936:A2 0.000278336
2 *2935:Y 0.000278336
3 *2936:A2 *2936:B1 3.23417e-05
4 *2936:A2 *2936:A1 0.00014474
5 *2936:A2 *2940:A2 0
6 *2936:A2 *657:10 0
7 *2936:A2 *899:60 0.000306701
8 *3071:A *2936:A2 0.000306832
*RES
1 *2935:Y *2936:A2 43.3475 
*END

*D_NET *558 0.000532163
*CONN
*I *2937:B I *D sg13g2_nor2_1
*I *2936:Y O *D sg13g2_o21ai_1
*CAP
1 *2937:B 0.000258381
2 *2936:Y 0.000258381
3 *2937:B *2936:B1 1.54008e-05
4 *2937:B *766:16 0
5 *2937:B *1181:31 0
6 *2937:A *2937:B 0
7 *3231:D *2937:B 0
8 *3233:D *2937:B 0
*RES
1 *2936:Y *2937:B 42.7192 
*END

*D_NET *559 0.00140007
*CONN
*I *2941:A I *D sg13g2_nor2_1
*I *2938:Y O *D sg13g2_a21oi_1
*CAP
1 *2941:A 0.000123199
2 *2938:Y 0.000405473
3 *559:10 0.000528672
4 *2941:A *2941:B 0
5 *2941:A *899:60 0
6 *559:10 *2940:A1 0
7 *559:10 *722:39 0
8 *559:10 *766:16 0.000342728
9 *559:10 *790:18 0
10 *546:31 *559:10 0
*RES
1 *2938:Y *559:10 44.3466 
2 *559:10 *2941:A 40.9682 
*END

*D_NET *560 0.000388662
*CONN
*I *2940:A2 I *D sg13g2_o21ai_1
*I *2939:Y O *D sg13g2_nand4_1
*CAP
1 *2940:A2 0.000154289
2 *2939:Y 0.000154289
3 *2940:A2 *2940:B1 8.00842e-05
4 *2940:A2 *766:22 0
5 *2936:A2 *2940:A2 0
*RES
1 *2939:Y *2940:A2 41.6171 
*END

*D_NET *561 0.000405986
*CONN
*I *2941:B I *D sg13g2_nor2_1
*I *2940:Y O *D sg13g2_o21ai_1
*CAP
1 *2941:B 0.000202993
2 *2940:Y 0.000202993
3 *2941:B *766:22 0
4 *2941:B *899:60 0
5 *2941:B *1181:31 0
6 *2941:A *2941:B 0
7 *3233:D *2941:B 0
*RES
1 *2940:Y *2941:B 41.9982 
*END

*D_NET *562 0.00148494
*CONN
*I *2945:A I *D sg13g2_nor2_1
*I *2942:Y O *D sg13g2_a21oi_1
*CAP
1 *2945:A 0.000386784
2 *2942:Y 0.000386784
3 *2945:A *2927:C 0
4 *2945:A *3235:CLK 0
5 *2945:A *564:14 0
6 *2945:A *732:14 0.000274769
7 *2945:A *819:12 0.000436603
*RES
1 *2942:Y *2945:A 44.4084 
*END

*D_NET *563 0.000661701
*CONN
*I *2944:A2 I *D sg13g2_o21ai_1
*I *2943:Y O *D sg13g2_nand4_1
*CAP
1 *2944:A2 0
2 *2943:Y 0.000212716
3 *563:10 0.000212716
4 *563:10 *725:29 8.02763e-05
5 *563:10 *820:89 7.57164e-05
6 *358:20 *563:10 8.02763e-05
*RES
1 *2943:Y *563:10 42.369 
2 *563:10 *2944:A2 40 
*END

*D_NET *564 0.00186286
*CONN
*I *2945:B I *D sg13g2_nor2_1
*I *2944:Y O *D sg13g2_o21ai_1
*CAP
1 *2945:B 0
2 *2944:Y 0.000575754
3 *564:14 0.000575754
4 *564:14 *2944:B1 0
5 *564:14 *732:14 0.000274709
6 *564:14 *778:22 0
7 *564:14 *820:89 0.00043664
8 *2945:A *564:14 0
*RES
1 *2944:Y *564:14 45.8504 
2 *564:14 *2945:B 40 
*END

*D_NET *565 0.00120007
*CONN
*I *2949:A I *D sg13g2_nor2_1
*I *2946:Y O *D sg13g2_a21oi_1
*CAP
1 *2949:A 0.000383103
2 *2946:Y 0.000383103
3 *2949:A *3080:A1 0
4 *2949:A *646:14 0
5 *2949:A *733:12 0.000144014
6 *2949:A *818:116 1.54008e-05
7 *305:16 *2949:A 0.000274452
*RES
1 *2946:Y *2949:A 43.914 
*END

*D_NET *566 0.000734246
*CONN
*I *2948:A2 I *D sg13g2_o21ai_1
*I *2947:Y O *D sg13g2_nand4_1
*CAP
1 *2948:A2 0.000252158
2 *2947:Y 9.95646e-05
3 *566:8 0.000351722
4 *2948:A2 *2948:B1 1.54008e-05
5 *2948:A2 *2948:A1 1.54008e-05
6 *2948:A2 *720:41 0
7 *2948:A2 *856:79 0
8 *2948:A2 *879:37 0
9 *566:8 *778:22 0
10 *566:8 *879:30 0
*RES
1 *2947:Y *566:8 41.0918 
2 *566:8 *2948:A2 42.4823 
*END

*D_NET *567 0.000979262
*CONN
*I *2949:B I *D sg13g2_nor2_1
*I *2948:Y O *D sg13g2_o21ai_1
*CAP
1 *2949:B 0
2 *2948:Y 0.000203434
3 *567:8 0.000203434
4 *567:8 *3079:C 0.000284221
5 *567:8 *766:32 0
6 *567:8 *790:18 0
7 *567:8 *879:41 0.000288173
*RES
1 *2948:Y *567:8 42.8042 
2 *567:8 *2949:B 40 
*END

*D_NET *568 0.000343941
*CONN
*I *2953:A I *D sg13g2_nor2_1
*I *2950:Y O *D sg13g2_a21oi_1
*CAP
1 *2953:A 0.000148061
2 *2950:Y 0.000148061
3 *2953:A *2950:B1 4.78195e-05
4 *2953:A *732:29 0
*RES
1 *2950:Y *2953:A 41.4523 
*END

*D_NET *569 0.00122561
*CONN
*I *2952:A2 I *D sg13g2_o21ai_1
*I *2951:Y O *D sg13g2_nand4_1
*CAP
1 *2952:A2 0
2 *2951:Y 0.000197995
3 *569:10 0.000197995
4 *569:10 *3060:A1 0.000237794
5 *569:10 *725:29 0.000208576
6 *569:10 *795:26 0.00029161
7 *569:10 *806:87 7.62389e-05
8 *2951:A *569:10 1.54008e-05
*RES
1 *2951:Y *569:10 42.7398 
2 *569:10 *2952:A2 40 
*END

*D_NET *570 0.00269004
*CONN
*I *2953:B I *D sg13g2_nor2_1
*I *2952:Y O *D sg13g2_o21ai_1
*CAP
1 *2953:B 0.000742764
2 *2952:Y 0.000742764
3 *2953:B *2952:B1 1.54008e-05
4 *2953:B *3061:B 0
5 *2953:B *725:29 0
6 *2953:B *725:47 0
7 *2953:B *732:29 0.000688256
8 *2953:B *797:29 0.000500852
*RES
1 *2952:Y *2953:B 48.5902 
*END

*D_NET *571 0.0169503
*CONN
*I *2959:A2 I *D sg13g2_a21oi_1
*I *2963:A2 I *D sg13g2_a21oi_1
*I *2967:A2 I *D sg13g2_a21oi_1
*I *2971:A2 I *D sg13g2_a21oi_1
*I *2955:A2 I *D sg13g2_a21oi_1
*I *2975:A2 I *D sg13g2_a21oi_1
*I *2983:A2 I *D sg13g2_a21oi_1
*I *2979:A2 I *D sg13g2_a21oi_1
*I *2954:Y O *D sg13g2_nor3_1
*CAP
1 *2959:A2 0
2 *2963:A2 0
3 *2967:A2 0
4 *2971:A2 8.51764e-05
5 *2955:A2 0
6 *2975:A2 0
7 *2983:A2 0
8 *2979:A2 0
9 *2954:Y 0
10 *571:116 0.000125111
11 *571:110 0.000474804
12 *571:103 0.000341427
13 *571:95 0.000923273
14 *571:76 0.00031733
15 *571:74 0.0010317
16 *571:61 0.0019022
17 *571:37 0.00137915
18 *571:16 0.00210075
19 *571:12 0.00122268
20 *571:4 0.00137157
21 *2971:A2 *2971:A1 1.54008e-05
22 *2971:A2 *576:16 2.14475e-05
23 *2971:A2 *756:10 7.40536e-05
24 *571:12 *2975:A1 1.54556e-05
25 *571:12 *2975:B1 0
26 *571:12 *698:38 0.000182023
27 *571:12 *698:40 0.000872356
28 *571:12 *757:8 0.000235055
29 *571:16 *2979:A1 0
30 *571:16 *3253:CLK 0
31 *571:16 *698:38 0
32 *571:16 *883:62 0
33 *571:37 *3115:A2 0.000144717
34 *571:37 *3253:CLK 0
35 *571:37 *758:10 0.000287845
36 *571:37 *820:36 0
37 *571:37 *820:47 4.7856e-05
38 *571:37 *883:70 0
39 *571:61 *2710:A 0
40 *571:61 *3087:A1 4.78524e-05
41 *571:61 *3088:D 0
42 *571:61 *671:101 4.77702e-05
43 *571:61 *671:118 0
44 *571:61 *671:122 0
45 *571:61 *817:61 0.000823815
46 *571:61 *862:76 0
47 *571:61 *884:75 0.000177164
48 *571:61 *891:22 0.000126445
49 *571:61 *1169:8 0
50 *571:74 *2955:B1 0
51 *571:74 *891:12 0
52 *571:74 *1169:16 0
53 *571:95 *576:16 0
54 *571:95 *756:10 7.34783e-05
55 *571:95 *818:20 0
56 *571:95 *885:111 0.000177335
57 *571:95 *898:37 0
58 *571:103 *2967:A1 1.54008e-05
59 *571:103 *3247:CLK 0.000340288
60 *571:103 *706:10 0.00066014
61 *571:103 *892:114 0
62 *571:103 *1181:31 4.77425e-05
63 *571:110 *2959:A1 4.77425e-05
64 *571:110 *575:10 0
65 *571:110 *576:16 0
66 *571:110 *885:111 0.000565845
67 *571:110 *909:78 0
68 *571:116 *2963:A1 0.000230582
69 *571:116 *778:22 0
70 *571:116 *818:46 7.51285e-05
71 *3255:D *571:37 0
72 *3:18 *571:12 0
73 *313:8 *571:16 0
74 *354:32 *571:61 0
75 *354:32 *571:74 0
76 *357:26 *571:37 1.53992e-05
77 *359:20 *571:12 0.000306832
*RES
1 *2954:Y *571:4 20 
2 *571:4 *571:12 46.8495 
3 *571:12 *571:16 26.0358 
4 *571:16 *2979:A2 40 
5 *571:16 *571:37 32.6072 
6 *571:37 *2983:A2 20 
7 *571:12 *2975:A2 20 
8 *571:4 *571:61 48.8271 
9 *571:61 *2955:A2 20 
10 *571:61 *571:74 49.9395 
11 *571:74 *571:76 20 
12 *571:76 *2971:A2 41.0197 
13 *571:76 *571:95 22.6162 
14 *571:95 *571:103 44.8719 
15 *571:103 *2967:A2 20 
16 *571:95 *571:110 3.7801 
17 *571:110 *571:116 41.339 
18 *571:116 *2963:A2 20 
19 *571:110 *2959:A2 20 
*END

*D_NET *572 0.00140055
*CONN
*I *2958:A I *D sg13g2_nor2_1
*I *2955:Y O *D sg13g2_a21oi_1
*CAP
1 *2958:A 0
2 *2955:Y 0.000504174
3 *572:10 0.000504174
4 *572:10 *573:12 0
5 *572:10 *574:8 0.000182438
6 *572:10 *817:61 0.000209763
7 *572:10 *862:76 0
8 *572:10 *890:8 0
9 *572:10 *891:22 0
*RES
1 *2955:Y *572:10 44.7174 
2 *572:10 *2958:A 40 
*END

*D_NET *573 0.000674052
*CONN
*I *2957:A2 I *D sg13g2_o21ai_1
*I *2956:Y O *D sg13g2_nand4_1
*CAP
1 *2957:A2 4.25908e-05
2 *2956:Y 0.000246627
3 *573:12 0.000289217
4 *2957:A2 *2957:B1 1.54008e-05
5 *2957:A2 *580:26 0
6 *2957:A2 *803:80 8.0216e-05
7 *573:12 *803:80 0
8 *573:12 *862:76 0
9 *573:12 *891:22 0
10 *572:10 *573:12 0
*RES
1 *2956:Y *573:12 42.1321 
2 *573:12 *2957:A2 40.5356 
*END

*D_NET *574 0.000748164
*CONN
*I *2958:B I *D sg13g2_nor2_1
*I *2957:Y O *D sg13g2_o21ai_1
*CAP
1 *2958:B 2.48775e-05
2 *2957:Y 6.58605e-05
3 *574:8 9.0738e-05
4 *2958:B *580:26 4.78356e-05
5 *574:8 *890:14 0.000288502
6 *307:14 *2958:B 4.79124e-05
7 *572:10 *574:8 0.000182438
*RES
1 *2957:Y *574:8 41.339 
2 *574:8 *2958:B 40.3193 
*END

*D_NET *575 0.00110665
*CONN
*I *2962:A I *D sg13g2_nor2_1
*I *2959:Y O *D sg13g2_a21oi_1
*CAP
1 *2962:A 2.68013e-05
2 *2959:Y 0.000412058
3 *575:10 0.000438859
4 *2962:A *2966:A 0
5 *2962:A *721:28 4.77425e-05
6 *575:10 *2963:A1 0
7 *575:10 *577:8 0.000181192
8 *575:10 *578:8 0
9 *575:10 *892:114 0
10 *575:10 *909:78 0
11 *571:110 *575:10 0
*RES
1 *2959:Y *575:10 43.3891 
2 *575:10 *2962:A 40.3193 
*END

*D_NET *576 0.00369622
*CONN
*I *2961:A2 I *D sg13g2_o21ai_1
*I *2960:Y O *D sg13g2_nand4_1
*CAP
1 *2961:A2 0
2 *2960:Y 0.00135543
3 *576:16 0.00135543
4 *576:16 *2960:C 0
5 *576:16 *2960:D 0.000112289
6 *576:16 *2961:B1 4.78359e-05
7 *576:16 *2971:A1 4.77425e-05
8 *576:16 *2972:C 0
9 *576:16 *2973:A2 0
10 *576:16 *3541:A 0
11 *576:16 *671:122 0
12 *576:16 *807:25 0
13 *576:16 *807:40 0
14 *576:16 *807:48 0
15 *576:16 *807:102 0.000144635
16 *576:16 *855:22 0
17 *576:16 *856:56 0
18 *576:16 *856:67 0
19 *576:16 *865:10 0
20 *576:16 *865:46 0
21 *576:16 *866:76 0.00020816
22 *576:16 *880:70 0
23 *576:16 *898:14 0.000403252
24 *2971:A2 *576:16 2.14475e-05
25 *354:32 *576:16 0
26 *571:95 *576:16 0
27 *571:110 *576:16 0
*RES
1 *2960:Y *576:16 30.9308 
2 *576:16 *2961:A2 20 
*END

*D_NET *577 0.000402548
*CONN
*I *2962:B I *D sg13g2_nor2_1
*I *2961:Y O *D sg13g2_o21ai_1
*CAP
1 *2962:B 0
2 *2961:Y 0.000110678
3 *577:8 0.000110678
4 *577:8 *706:12 0
5 *308:8 *577:8 0
6 *575:10 *577:8 0.000181192
*RES
1 *2961:Y *577:8 41.339 
2 *577:8 *2962:B 40 
*END

*D_NET *578 0.000855219
*CONN
*I *2966:A I *D sg13g2_nor2_1
*I *2963:Y O *D sg13g2_a21oi_1
*CAP
1 *2966:A 0.00012698
2 *2963:Y 0.000195767
3 *578:8 0.000322747
4 *2966:A *3245:CLK 0.000209725
5 *2966:A *721:28 0
6 *578:8 *740:8 0
7 *2962:A *2966:A 0
8 *308:8 *578:8 0
9 *575:10 *578:8 0
*RES
1 *2963:Y *578:8 42.0806 
2 *578:8 *2966:A 41.4008 
*END

*D_NET *579 0.00180281
*CONN
*I *2965:A2 I *D sg13g2_o21ai_1
*I *2964:Y O *D sg13g2_nand4_1
*CAP
1 *2965:A2 0.00026846
2 *2964:Y 0.000105466
3 *579:10 0.000373927
4 *2965:A2 *803:58 0.000500797
5 *2965:A2 *890:30 0.000501556
6 *2965:A2 *890:67 1.54008e-05
7 *579:10 *3096:B 1.57249e-05
8 *579:10 *890:30 2.14736e-05
*RES
1 *2964:Y *579:10 40.9167 
2 *579:10 *2965:A2 43.3475 
*END

*D_NET *580 0.00746071
*CONN
*I *2966:B I *D sg13g2_nor2_1
*I *2965:Y O *D sg13g2_o21ai_1
*CAP
1 *2966:B 6.58663e-05
2 *2965:Y 0.00288303
3 *580:26 0.00294889
4 *2966:B *3249:RESET_B 0
5 *580:26 *2957:B1 0
6 *580:26 *3089:B1 0
7 *580:26 *3089:A2 0
8 *580:26 *3090:A 0.000274321
9 *580:26 *3090:B 0
10 *580:26 *3103:A1 0.000242062
11 *580:26 *3103:B1 4.77425e-05
12 *580:26 *3104:C 0
13 *580:26 *3241:RESET_B 0
14 *580:26 *3241:CLK 4.79017e-05
15 *580:26 *3243:CLK 0
16 *580:26 *3245:CLK 0
17 *580:26 *3249:RESET_B 8.03091e-05
18 *580:26 *3305:CLK 1.54556e-05
19 *580:26 *3431:A 0
20 *580:26 *671:137 0
21 *580:26 *685:10 0
22 *580:26 *706:29 0.00059874
23 *580:26 *721:28 0
24 *580:26 *803:69 0.000112826
25 *580:26 *803:80 0
26 *580:26 *803:95 0
27 *580:26 *890:14 0
28 *580:26 *890:67 1.54285e-05
29 *580:26 *891:12 0
30 *2957:A2 *580:26 0
31 *2958:B *580:26 4.78356e-05
32 *307:14 *580:26 0
33 *309:16 *580:26 8.03091e-05
*RES
1 *2965:Y *580:26 49.6846 
2 *580:26 *2966:B 20.8446 
*END

*D_NET *581 0.00186469
*CONN
*I *2970:A I *D sg13g2_nor2_1
*I *2967:Y O *D sg13g2_a21oi_1
*CAP
1 *2970:A 0.000158285
2 *2967:Y 0.000150042
3 *581:8 0.000308326
4 *2970:A *2970:B 1.54008e-05
5 *2970:A *720:41 0
6 *581:8 *818:10 0.000657561
7 *581:8 *885:99 0.000288184
8 *386:10 *581:8 0.000286896
9 *546:20 *2970:A 0
*RES
1 *2967:Y *581:8 43.0694 
2 *581:8 *2970:A 41.4008 
*END

*D_NET *582 0.0012443
*CONN
*I *2969:A2 I *D sg13g2_o21ai_1
*I *2968:Y O *D sg13g2_nand4_1
*CAP
1 *2969:A2 0.000558303
2 *2968:Y 0.000558303
3 *2969:A2 *2968:C 0
4 *2969:A2 *2968:D 0.000112289
5 *2969:A2 *2969:A1 1.54008e-05
6 *2969:A2 *3102:A 0
7 *2969:A2 *3355:A 0
8 *2969:A2 *720:41 0
9 *2969:A2 *883:127 0
10 *2968:A *2969:A2 0
*RES
1 *2968:Y *2969:A2 45.4796 
*END

*D_NET *583 0.000851587
*CONN
*I *2970:B I *D sg13g2_nor2_1
*I *2969:Y O *D sg13g2_o21ai_1
*CAP
1 *2970:B 0.000418093
2 *2969:Y 0.000418093
3 *2970:B *3355:A 0
4 *2970:B *720:41 0
5 *2970:B *883:127 0
6 *2970:A *2970:B 1.54008e-05
7 *546:20 *2970:B 0
*RES
1 *2969:Y *2970:B 44.2642 
*END

*D_NET *584 0.000487579
*CONN
*I *2974:A I *D sg13g2_nor2_1
*I *2971:Y O *D sg13g2_a21oi_1
*CAP
1 *2974:A 5.60483e-05
2 *2971:Y 0.000187741
3 *584:8 0.00024379
4 *2974:A *3103:A1 0
5 *584:8 *3103:A1 0
6 *584:8 *3105:B1 0
7 *584:8 *3431:A 0
8 *584:8 *807:40 0
*RES
1 *2971:Y *584:8 41.5862 
2 *584:8 *2974:A 40.5356 
*END

*D_NET *585 0.00132695
*CONN
*I *2973:A2 I *D sg13g2_o21ai_1
*I *2972:Y O *D sg13g2_nand4_1
*CAP
1 *2973:A2 0.000365352
2 *2972:Y 0.000365352
3 *2973:A2 *2972:C 0
4 *2973:A2 *3431:A 0.00030621
5 *2973:A2 *3541:A 0
6 *2973:A2 *586:10 0
7 *2973:A2 *807:25 0.000209807
8 *2973:A2 *865:40 8.02272e-05
9 *576:16 *2973:A2 0
*RES
1 *2972:Y *2973:A2 44.0479 
*END

*D_NET *586 0.00139001
*CONN
*I *2974:B I *D sg13g2_nor2_1
*I *2973:Y O *D sg13g2_o21ai_1
*CAP
1 *2974:B 0
2 *2973:Y 0.000301454
3 *586:10 0.000301454
4 *586:10 *3103:A1 0.000287757
5 *586:10 *3431:A 4.79014e-05
6 *586:10 *721:28 0.000241924
7 *586:10 *807:40 0.000209516
8 *586:10 *898:14 0
9 *2973:A2 *586:10 0
*RES
1 *2973:Y *586:10 43.605 
2 *586:10 *2974:B 40 
*END

*D_NET *587 0.000304061
*CONN
*I *2978:A I *D sg13g2_nor2_1
*I *2975:Y O *D sg13g2_a21oi_1
*CAP
1 *2978:A 0.000109264
2 *2975:Y 0.000109264
3 *2978:A *2975:A1 0
4 *2978:A *2975:B1 3.7631e-05
5 *2978:A *2978:B 4.79017e-05
*RES
1 *2975:Y *2978:A 41.339 
*END

*D_NET *588 0.00130604
*CONN
*I *2977:A2 I *D sg13g2_o21ai_1
*I *2976:Y O *D sg13g2_nand4_1
*CAP
1 *2977:A2 0.000372151
2 *2976:Y 0.000372151
3 *2977:A2 *2977:B1 1.54556e-05
4 *2977:A2 *803:37 0.00037157
5 *2977:A2 *862:104 1.54008e-05
6 *3315:D *2977:A2 8.00842e-05
7 *354:24 *2977:A2 0
8 *359:14 *2977:A2 7.92311e-05
*RES
1 *2976:Y *2977:A2 43.8007 
*END

*D_NET *589 0.00159086
*CONN
*I *2978:B I *D sg13g2_nor2_1
*I *2977:Y O *D sg13g2_o21ai_1
*CAP
1 *2978:B 0.000771477
2 *2977:Y 0.000771477
3 *2978:B *2977:B1 0
4 *2978:A *2978:B 4.79017e-05
5 *354:24 *2978:B 0
6 *359:20 *2978:B 0
*RES
1 *2977:Y *2978:B 46.8598 
*END

*D_NET *590 0.000380682
*CONN
*I *2982:A I *D sg13g2_nor2_1
*I *2979:Y O *D sg13g2_a21oi_1
*CAP
1 *2982:A 0.000182641
2 *2979:Y 0.000182641
3 *2982:A *2982:B 1.54008e-05
4 *2982:A *808:27 0
5 *2982:A *866:66 0
*RES
1 *2979:Y *2982:A 42.163 
*END

*D_NET *591 0.00155353
*CONN
*I *2981:A2 I *D sg13g2_o21ai_1
*I *2980:Y O *D sg13g2_nand4_1
*CAP
1 *2981:A2 0
2 *2980:Y 0.000576986
3 *591:10 0.000576986
4 *591:10 *3111:A2 0
5 *591:10 *3317:RESET_B 0
6 *591:10 *3352:A 0.000124091
7 *591:10 *671:33 0.000183827
8 *591:10 *803:25 7.62389e-05
9 *591:10 *820:36 0
10 *2980:A *591:10 1.54008e-05
11 *357:26 *591:10 0
*RES
1 *2980:Y *591:10 45.15 
2 *591:10 *2981:A2 40 
*END

*D_NET *592 0.000987311
*CONN
*I *2982:B I *D sg13g2_nor2_1
*I *2981:Y O *D sg13g2_o21ai_1
*CAP
1 *2982:B 0.000485955
2 *2981:Y 0.000485955
3 *2982:B *808:27 0
4 *2982:B *866:66 0
5 *2982:A *2982:B 1.54008e-05
*RES
1 *2981:Y *2982:B 44.7586 
*END

*D_NET *593 0.000540259
*CONN
*I *2986:A I *D sg13g2_nor2_1
*I *2983:Y O *D sg13g2_a21oi_1
*CAP
1 *2986:A 0
2 *2983:Y 0.000153843
3 *593:10 0.000153843
4 *593:10 *595:10 0.000232573
*RES
1 *2983:Y *593:10 41.9055 
2 *593:10 *2986:A 40 
*END

*D_NET *594 0.00130237
*CONN
*I *2985:A2 I *D sg13g2_o21ai_1
*I *2984:Y O *D sg13g2_nand4_1
*CAP
1 *2985:A2 0.000370056
2 *2984:Y 0.000370056
3 *2985:A2 *2985:B1 1.54008e-05
4 *2985:A2 *3319:RESET_B 0.000208747
5 *2985:A2 *805:59 0.000338114
6 *2985:A2 *885:58 0
*RES
1 *2984:Y *2985:A2 43.6977 
*END

*D_NET *595 0.00160693
*CONN
*I *2986:B I *D sg13g2_nor2_1
*I *2985:Y O *D sg13g2_o21ai_1
*CAP
1 *2986:B 0
2 *2985:Y 0.000606871
3 *595:10 0.000606871
4 *595:10 *2983:B1 0
5 *595:10 *2985:B1 8.03091e-05
6 *595:10 *820:58 0
7 *595:10 *856:94 0
8 *595:10 *885:58 8.03091e-05
9 *595:10 *885:64 0
10 *593:10 *595:10 0.000232573
*RES
1 *2985:Y *595:10 46.5714 
2 *595:10 *2986:B 40 
*END

*D_NET *596 0.0180848
*CONN
*I *3004:A2 I *D sg13g2_a21oi_1
*I *2992:A2 I *D sg13g2_a21oi_1
*I *3012:A2 I *D sg13g2_a21oi_1
*I *3016:A2 I *D sg13g2_a21oi_1
*I *3008:A2 I *D sg13g2_a21oi_1
*I *3000:A2 I *D sg13g2_a21oi_1
*I *2996:A2 I *D sg13g2_a21oi_1
*I *2988:A2 I *D sg13g2_a21oi_1
*I *2987:Y O *D sg13g2_nor3_1
*CAP
1 *3004:A2 0
2 *2992:A2 0.00062605
3 *3012:A2 0
4 *3016:A2 2.77263e-05
5 *3008:A2 0
6 *3000:A2 0.000107291
7 *2996:A2 8.44919e-05
8 *2988:A2 0.000138822
9 *2987:Y 5.72811e-05
10 *596:82 0.00118124
11 *596:71 0.00076476
12 *596:62 0.000663969
13 *596:55 0.0010058
14 *596:46 0.000936068
15 *596:33 0.00129686
16 *596:18 0.00081074
17 *596:8 0.00169192
18 *2988:A2 *597:12 0
19 *2988:A2 *599:10 7.91362e-05
20 *2988:A2 *823:43 4.78192e-05
21 *2992:A2 *2992:A1 1.54556e-05
22 *2992:A2 *2995:A 0
23 *2992:A2 *3006:A1 8.00842e-05
24 *2992:A2 *602:16 0.000144872
25 *2992:A2 *697:278 0
26 *2992:A2 *795:26 0.0010396
27 *2992:A2 *796:26 0.00104186
28 *2996:A2 *3010:A1 0.000144519
29 *2996:A2 *823:6 0
30 *2996:A2 *823:21 8.02105e-05
31 *3000:A2 *3000:A1 8.01116e-05
32 *3000:A2 *823:6 7.97045e-05
33 *3000:A2 *1180:33 0
34 *596:8 *2987:A 1.54008e-05
35 *596:8 *858:56 7.9556e-05
36 *596:18 *2882:B1 0.000386918
37 *596:18 *2990:A1 0
38 *596:18 *2990:A2 7.92691e-05
39 *596:18 *858:56 0.000181192
40 *596:18 *859:19 0.000340906
41 *596:18 *896:31 8.00842e-05
42 *596:18 *898:84 0
43 *596:18 *1179:32 0.000919204
44 *596:33 *3017:B 0.000799287
45 *596:33 *814:10 0
46 *596:33 *814:20 0
47 *596:33 *825:59 0
48 *596:33 *858:56 7.51285e-05
49 *596:33 *870:23 0.000396252
50 *596:33 *1189:20 0
51 *596:46 *823:21 0
52 *596:46 *825:59 0
53 *596:55 *3008:A1 1.54556e-05
54 *596:55 *3010:A1 0
55 *596:55 *3370:A 0
56 *596:55 *823:6 9.69532e-05
57 *596:55 *823:35 0
58 *596:55 *1180:33 0.000306832
59 *596:62 *3008:A1 0.000242072
60 *596:62 *3019:B 0.000209599
61 *596:62 *823:35 0
62 *596:62 *823:61 0
63 *596:62 *823:78 0
64 *596:62 *1180:33 0
65 *596:71 *3012:A1 0.00014446
66 *596:71 *823:78 0
67 *596:71 *1180:33 0
68 *596:82 *795:26 0.000443717
69 *596:82 *796:26 0.000422244
70 *596:82 *823:78 0
71 *596:82 *1180:33 0
72 *2855:C *596:18 0.000181192
73 *2855:C *596:33 0.000106064
74 *3259:D *2992:A2 0
75 *379:22 *596:18 0.000208405
76 *382:8 *596:33 0.00012816
*RES
1 *2987:Y *596:8 40.5356 
2 *596:8 *596:18 48.5902 
3 *596:18 *2988:A2 41.4214 
4 *596:8 *596:33 10.7326 
5 *596:33 *2996:A2 40.9682 
6 *596:33 *596:46 22.0806 
7 *596:46 *3000:A2 20.9682 
8 *596:46 *596:55 5.2942 
9 *596:55 *3008:A2 20 
10 *596:55 *596:62 3.9964 
11 *596:62 *3016:A2 20.3502 
12 *596:62 *596:71 1.8334 
13 *596:71 *3012:A2 20 
14 *596:71 *596:82 26.077 
15 *596:82 *2992:A2 49.3318 
16 *596:82 *3004:A2 40 
*END

*D_NET *597 0.000653039
*CONN
*I *2991:A I *D sg13g2_nor2_1
*I *2988:Y O *D sg13g2_a21oi_1
*CAP
1 *2991:A 2.13065e-05
2 *2988:Y 0.000220679
3 *597:12 0.000241986
4 *597:12 *2988:B1 4.78195e-05
5 *597:12 *599:10 7.34121e-05
6 *597:12 *697:248 0
7 *597:12 *823:43 0
8 *2988:A2 *597:12 0
9 *315:12 *2991:A 4.78356e-05
*RES
1 *2988:Y *597:12 42.0091 
2 *597:12 *2991:A 40.3193 
*END

*D_NET *598 0.000674793
*CONN
*I *2990:A2 I *D sg13g2_o21ai_1
*I *2989:Y O *D sg13g2_nand4_1
*CAP
1 *2990:A2 0.000209978
2 *2989:Y 0.000209978
3 *2990:A2 *2990:A1 8.00842e-05
4 *2990:A2 *896:47 8.00842e-05
5 *379:22 *2990:A2 1.54008e-05
6 *596:18 *2990:A2 7.92691e-05
*RES
1 *2989:Y *2990:A2 42.1012 
*END

*D_NET *599 0.00214053
*CONN
*I *2991:B I *D sg13g2_nor2_1
*I *2990:Y O *D sg13g2_o21ai_1
*CAP
1 *2991:B 0
2 *2990:Y 0.000622296
3 *599:10 0.000622296
4 *599:10 *3346:A 0
5 *599:10 *697:248 0
6 *599:10 *711:25 0
7 *599:10 *823:43 0.000229065
8 *599:10 *858:75 0.000498922
9 *599:10 *896:47 1.54008e-05
10 *2988:A2 *599:10 7.91362e-05
11 *516:8 *599:10 0
12 *597:12 *599:10 7.34121e-05
*RES
1 *2990:Y *599:10 45.8298 
2 *599:10 *2991:B 40 
*END

*D_NET *600 0.000651095
*CONN
*I *2995:A I *D sg13g2_nor2_1
*I *2992:Y O *D sg13g2_a21oi_1
*CAP
1 *2995:A 0.00026157
2 *2992:Y 0.00026157
3 *2995:A *602:16 8.01837e-05
4 *2995:A *908:87 4.77708e-05
5 *2992:A2 *2995:A 0
*RES
1 *2992:Y *2995:A 42.9149 
*END

*D_NET *601 0.0013099
*CONN
*I *2994:A2 I *D sg13g2_o21ai_1
*I *2993:Y O *D sg13g2_nand4_1
*CAP
1 *2994:A2 0
2 *2993:Y 0.000205049
3 *601:10 0.000205049
4 *601:10 *795:26 0.000345615
5 *601:10 *796:26 0.000345615
6 *2879:B *601:10 0.000208576
*RES
1 *2993:Y *601:10 42.987 
2 *601:10 *2994:A2 40 
*END

*D_NET *602 0.00173392
*CONN
*I *2995:B I *D sg13g2_nor2_1
*I *2994:Y O *D sg13g2_o21ai_1
*CAP
1 *2995:B 0
2 *2994:Y 5.51195e-05
3 *602:16 0.000300667
4 *602:8 0.000355786
5 *602:8 *795:26 0.000291251
6 *602:8 *796:26 0.000291208
7 *602:16 *2992:A1 1.54556e-05
8 *602:16 *823:91 0.000183978
9 *602:16 *908:87 0
10 *602:16 *1188:12 1.54008e-05
11 *2992:A2 *602:16 0.000144872
12 *2995:A *602:16 8.01837e-05
*RES
1 *2994:Y *602:8 41.339 
2 *602:8 *602:16 43.1106 
3 *602:16 *2995:B 40 
*END

*D_NET *603 0.00117322
*CONN
*I *2999:A I *D sg13g2_nor2_1
*I *2996:Y O *D sg13g2_a21oi_1
*CAP
1 *2999:A 0.000145251
2 *2996:Y 0.000167637
3 *603:8 0.000312887
4 *2999:A *3003:A 0
5 *2999:A *1180:33 0.000209544
6 *603:8 *3000:B1 0
7 *603:8 *813:10 0
8 *603:8 *1189:14 0.000337906
9 *603:8 *1189:20 0
*RES
1 *2996:Y *603:8 41.8334 
2 *603:8 *2999:A 41.4008 
*END

*D_NET *604 0.00173112
*CONN
*I *2998:A2 I *D sg13g2_o21ai_1
*I *2997:Y O *D sg13g2_nand4_1
*CAP
1 *2998:A2 0
2 *2997:Y 0.000397213
3 *604:10 0.000397213
4 *604:10 *3415:A 0
5 *604:10 *608:8 0.000180882
6 *604:10 *812:10 7.48178e-05
7 *604:10 *812:12 0.000287672
8 *604:10 *812:14 0.00039332
9 *604:10 *875:15 0
10 *374:18 *604:10 0
*RES
1 *2997:Y *604:10 44.9337 
2 *604:10 *2998:A2 40 
*END

*D_NET *605 0.00107003
*CONN
*I *2999:B I *D sg13g2_nor2_1
*I *2998:Y O *D sg13g2_o21ai_1
*CAP
1 *2999:B 0
2 *2998:Y 0.000305445
3 *605:8 0.000305445
4 *605:8 *608:8 0.000333237
5 *605:8 *812:10 0.000125906
6 *317:8 *605:8 0
7 *318:8 *605:8 0
*RES
1 *2998:Y *605:8 43.0694 
2 *605:8 *2999:B 40 
*END

*D_NET *606 0.000388575
*CONN
*I *3003:A I *D sg13g2_nor2_1
*I *3000:Y O *D sg13g2_a21oi_1
*CAP
1 *3003:A 0.000194288
2 *3000:Y 0.000194288
3 *3003:A *3010:A1 0
4 *2999:A *3003:A 0
*RES
1 *3000:Y *3003:A 41.751 
*END

*D_NET *607 0.000631821
*CONN
*I *3002:A2 I *D sg13g2_o21ai_1
*I *3001:Y O *D sg13g2_nand4_1
*CAP
1 *3002:A2 0.000228412
2 *3001:Y 0.000228412
3 *3002:A2 *3002:B1 1.54008e-05
4 *3002:A2 *3002:A1 4.77425e-05
5 *372:16 *3002:A2 0
6 *373:22 *3002:A2 0.000111853
*RES
1 *3001:Y *3002:A2 42.3175 
*END

*D_NET *608 0.00118811
*CONN
*I *3003:B I *D sg13g2_nor2_1
*I *3002:Y O *D sg13g2_o21ai_1
*CAP
1 *3003:B 4.08322e-05
2 *3002:Y 0.000296162
3 *608:8 0.000336994
4 *608:8 *813:10 0
5 *604:10 *608:8 0.000180882
6 *605:8 *608:8 0.000333237
*RES
1 *3002:Y *608:8 42.8222 
2 *608:8 *3003:B 40.3193 
*END

*D_NET *609 0.00091011
*CONN
*I *3007:A I *D sg13g2_nor2_1
*I *3004:Y O *D sg13g2_a21oi_1
*CAP
1 *3007:A 0.000137028
2 *3004:Y 0.000173078
3 *609:8 0.000310107
4 *3007:A *3007:B 0
5 *3007:A *1192:26 0.00024211
6 *609:8 *795:26 0
7 *319:10 *3007:A 4.77863e-05
8 *319:10 *609:8 0
*RES
1 *3004:Y *609:8 41.339 
2 *609:8 *3007:A 41.6171 
*END

*D_NET *610 0.00141739
*CONN
*I *3532:A I *D sg13g2_dlygate4sd3_1
*I *3005:Y O *D sg13g2_nand4_1
*CAP
1 *3532:A 0.000116667
2 *3005:Y 0.000383241
3 *610:8 0.000499908
4 *3532:A *718:14 0.000208785
5 *3532:A *1192:26 0.000208785
6 *610:8 *790:18 0
7 *610:8 *813:49 0
*RES
1 *3005:Y *610:8 43.0694 
2 *610:8 *3532:A 41.4008 
*END

*D_NET *611 0.000918513
*CONN
*I *3007:B I *D sg13g2_nor2_1
*I *3006:Y O *D sg13g2_o21ai_1
*CAP
1 *3007:B 0.000338873
2 *3006:Y 0.000338873
3 *3007:B *701:29 0
4 *3007:B *908:72 1.54008e-05
5 *3007:B *908:87 0.000225367
6 *3007:B *1192:26 0
7 *3007:A *3007:B 0
8 *319:10 *3007:B 0
*RES
1 *3006:Y *3007:B 43.811 
*END

*D_NET *612 0.000574219
*CONN
*I *3011:A I *D sg13g2_nor2_1
*I *3008:Y O *D sg13g2_a21oi_1
*CAP
1 *3011:A 0.00020691
2 *3008:Y 0.00020691
3 *3011:A *824:88 0
4 *3011:A *1180:33 1.54556e-05
5 *320:10 *3011:A 0.000144942
*RES
1 *3008:Y *3011:A 41.9673 
*END

*D_NET *613 0.00188497
*CONN
*I *3010:A2 I *D sg13g2_o21ai_1
*I *3009:Y O *D sg13g2_nand4_1
*CAP
1 *3010:A2 0.00012642
2 *3009:Y 0.000370106
3 *613:8 0.000496526
4 *3010:A2 *3010:B1 8.00842e-05
5 *3010:A2 *3010:A1 0.000209374
6 *3010:A2 *824:21 0
7 *613:8 *3002:B1 0
8 *613:8 *3010:B1 0
9 *613:8 *825:59 0
10 *2885:A *613:8 0.000287256
11 *372:20 *613:8 0.000315205
*RES
1 *3009:Y *613:8 44.0582 
2 *613:8 *3010:A2 41.4008 
*END

*D_NET *614 0.00105232
*CONN
*I *3011:B I *D sg13g2_nor2_1
*I *3010:Y O *D sg13g2_o21ai_1
*CAP
1 *3011:B 0
2 *3010:Y 0.000240582
3 *614:8 0.000240582
4 *614:8 *711:64 0
5 *614:8 *824:25 0.000178807
6 *614:8 *824:88 0.000392348
*RES
1 *3010:Y *614:8 42.575 
2 *614:8 *3011:B 40 
*END

*D_NET *615 0.000235506
*CONN
*I *3015:A I *D sg13g2_nor2_1
*I *3012:Y O *D sg13g2_a21oi_1
*CAP
1 *3015:A 0.000110025
2 *3012:Y 0.000110025
3 *3015:A *3015:B 0
4 *3015:A *719:27 1.54556e-05
5 *3015:A *813:49 0
6 *3015:A *823:78 0
*RES
1 *3012:Y *3015:A 41.133 
*END

*D_NET *616 0.00112245
*CONN
*I *3014:A2 I *D sg13g2_o21ai_1
*I *3013:Y O *D sg13g2_nand4_1
*CAP
1 *3014:A2 0
2 *3013:Y 0.000472578
3 *616:10 0.000472578
4 *616:10 *3005:D 0
5 *616:10 *3013:B 0.00017729
6 *616:10 *3436:A 0
7 *616:10 *778:26 0
8 *616:10 *823:43 0
9 *616:10 *897:8 0
10 *616:10 *1192:26 0
*RES
1 *3013:Y *616:10 44.4084 
2 *616:10 *3014:A2 40 
*END

*D_NET *617 0.000363847
*CONN
*I *3015:B I *D sg13g2_nor2_1
*I *3014:Y O *D sg13g2_o21ai_1
*CAP
1 *3015:B 0.000181923
2 *3014:Y 0.000181923
3 *3015:B *719:27 0
4 *3015:B *813:49 0
5 *3015:A *3015:B 0
*RES
1 *3014:Y *3015:B 41.751 
*END

*D_NET *618 0.000419316
*CONN
*I *3019:A I *D sg13g2_nor2_1
*I *3016:Y O *D sg13g2_a21oi_1
*CAP
1 *3019:A 0.000209658
2 *3016:Y 0.000209658
3 *3019:A *823:61 0
4 *3019:A *897:16 0
*RES
1 *3016:Y *3019:A 41.9673 
*END

*D_NET *619 0.00177992
*CONN
*I *3018:A2 I *D sg13g2_o21ai_1
*I *3017:Y O *D sg13g2_nand4_1
*CAP
1 *3018:A2 0
2 *3017:Y 0.000509449
3 *619:10 0.000509449
4 *619:10 *3013:C 0
5 *619:10 *711:64 0
6 *619:10 *823:43 0
7 *619:10 *898:84 0
8 *619:10 *1167:31 0
9 *619:10 *1192:26 0.0001813
10 *3017:A *619:10 4.72443e-05
11 *373:22 *619:10 0.000532482
*RES
1 *3017:Y *619:10 45.3972 
2 *619:10 *3018:A2 40 
*END

*D_NET *620 0.00142339
*CONN
*I *3019:B I *D sg13g2_nor2_1
*I *3018:Y O *D sg13g2_o21ai_1
*CAP
1 *3019:B 0.000116457
2 *3018:Y 0.000155943
3 *620:8 0.0002724
4 *3019:B *823:35 0.000177164
5 *3019:B *823:61 4.78359e-05
6 *620:8 *823:43 0
7 *620:8 *1192:26 0.000443995
8 *596:62 *3019:B 0.000209599
*RES
1 *3018:Y *620:8 42.0806 
2 *620:8 *3019:B 41.4008 
*END

*D_NET *621 0.0152395
*CONN
*I *3029:A2 I *D sg13g2_a21oi_1
*I *3049:A2 I *D sg13g2_a21oi_1
*I *3045:A2 I *D sg13g2_a21oi_1
*I *3041:A2 I *D sg13g2_a21oi_1
*I *3037:A2 I *D sg13g2_a21oi_1
*I *3033:A2 I *D sg13g2_a21oi_1
*I *3025:A2 I *D sg13g2_a21oi_1
*I *3021:A2 I *D sg13g2_a21oi_1
*I *3020:Y O *D sg13g2_nor3_1
*CAP
1 *3029:A2 0
2 *3049:A2 0.000270897
3 *3045:A2 0.000741161
4 *3041:A2 0
5 *3037:A2 0
6 *3033:A2 0
7 *3025:A2 4.99447e-05
8 *3021:A2 0.000537635
9 *3020:Y 0.000377333
10 *621:91 0.00105788
11 *621:82 0.000820364
12 *621:61 0.00112084
13 *621:54 0.000193208
14 *621:44 0.00120815
15 *621:31 0.000814683
16 *621:20 0.000934515
17 *621:14 0.000327639
18 *621:10 0.000404192
19 *3021:A2 *2690:A 0.000240339
20 *3021:A2 *2906:B 0
21 *3021:A2 *2906:C 0
22 *3021:A2 *3024:A 0.000208288
23 *3021:A2 *821:82 0.000290066
24 *3021:A2 *821:88 1.54556e-05
25 *3021:A2 *868:38 0
26 *3045:A2 *3045:A1 8.03692e-05
27 *3045:A2 *708:8 8.03089e-05
28 *3045:A2 *895:42 0
29 *3049:A2 *3041:B1 0.000234224
30 *3049:A2 *3049:A1 0.00017663
31 *621:10 *3028:A 0
32 *621:10 *3030:C 2.14736e-05
33 *621:10 *861:61 1.54008e-05
34 *621:10 *867:69 0
35 *621:10 *867:80 0
36 *621:10 *886:52 0.000450639
37 *621:14 *821:42 4.77425e-05
38 *621:20 *625:8 0.000665135
39 *621:20 *821:42 1.54008e-05
40 *621:20 *889:98 0
41 *621:31 *625:8 0.000291502
42 *621:44 *625:8 0.000130344
43 *621:44 *811:28 0.000287788
44 *621:44 *821:25 0
45 *621:44 *1097:8 0
46 *621:54 *2697:A 8.00842e-05
47 *621:54 *3033:A1 4.77425e-05
48 *621:54 *811:20 0
49 *621:54 *811:73 4.77202e-05
50 *621:54 *821:10 7.62389e-05
51 *621:54 *821:21 0.000192433
52 *621:61 *3037:A1 0.000550773
53 *621:61 *811:73 0.00064793
54 *621:61 *821:21 0.000112558
55 *621:82 *3037:A1 1.54556e-05
56 *621:82 *3044:A 0
57 *621:82 *3527:A 0.000209048
58 *621:82 *811:73 0.000194209
59 *621:82 *895:54 0.000144822
60 *621:82 *1166:43 0.000112552
61 *621:91 *3041:A1 4.78195e-05
62 *323:12 *3021:A2 0
63 *324:8 *621:10 0.000346091
64 *328:10 *3045:A2 0
65 *328:10 *621:82 0
66 *365:16 *621:10 0
67 *366:16 *3025:A2 8.00842e-05
68 *374:18 *3049:A2 0.00017663
69 *374:18 *621:82 0
70 *377:10 *621:82 4.77425e-05
71 *377:10 *621:91 0
*RES
1 *3020:Y *621:10 44.1921 
2 *621:10 *621:14 20.3193 
3 *621:14 *621:20 23.605 
4 *621:20 *3021:A2 45.2942 
5 *621:20 *621:31 1.339 
6 *621:31 *3025:A2 40.5356 
7 *621:31 *621:44 26.5302 
8 *621:44 *621:54 42.1012 
9 *621:54 *3033:A2 20 
10 *621:44 *621:61 4.429 
11 *621:61 *3037:A2 20 
12 *621:61 *621:82 47.6786 
13 *621:82 *3041:A2 20 
14 *621:82 *621:91 20.5356 
15 *621:91 *3045:A2 48.0546 
16 *621:91 *3049:A2 43.3372 
17 *621:14 *3029:A2 20 
*END

*D_NET *622 0.00104331
*CONN
*I *3024:A I *D sg13g2_nor2_1
*I *3021:Y O *D sg13g2_a21oi_1
*CAP
1 *3024:A 0.000127113
2 *3021:Y 3.48823e-05
3 *622:8 0.000161995
4 *3024:A *3024:B 0
5 *622:8 *708:82 0.000183828
6 *622:8 *764:21 0.000183828
7 *3021:A2 *3024:A 0.000208288
8 *323:12 *3024:A 0.000143374
*RES
1 *3021:Y *622:8 40.8446 
2 *622:8 *3024:A 41.4008 
*END

*D_NET *623 0.00102046
*CONN
*I *3023:A2 I *D sg13g2_o21ai_1
*I *3022:Y O *D sg13g2_nand4_1
*CAP
1 *3023:A2 0.000438165
2 *3022:Y 0.000438165
3 *3023:A2 *3593:A 0
4 *3023:A2 *3594:A 4.77425e-05
5 *3023:A2 *3597:A 0
6 *3023:A2 *867:35 0
7 *3023:A2 *894:81 9.63868e-05
8 *368:16 *3023:A2 0
*RES
1 *3022:Y *3023:A2 44.2384 
*END

*D_NET *624 0.00114481
*CONN
*I *3024:B I *D sg13g2_nor2_1
*I *3023:Y O *D sg13g2_o21ai_1
*CAP
1 *3024:B 0.0001315
2 *3023:Y 5.95579e-05
3 *624:8 0.000191058
4 *3024:B *2694:A 0.000143171
5 *3024:B *868:38 1.54008e-05
6 *624:8 *708:82 0.000230373
7 *624:8 *764:21 0.000230373
8 *3024:A *3024:B 0
9 *323:12 *3024:B 0.000143374
10 *368:6 *3024:B 0
*RES
1 *3023:Y *624:8 41.0918 
2 *624:8 *3024:B 41.4008 
*END

*D_NET *625 0.00318616
*CONN
*I *3028:A I *D sg13g2_nor2_1
*I *3025:Y O *D sg13g2_a21oi_1
*CAP
1 *3028:A 3.24132e-05
2 *3025:Y 0.000449303
3 *625:8 0.000481716
4 *625:8 *886:52 0.000346273
5 *625:8 *889:98 0
6 *625:8 *1179:12 0.000450162
7 *365:16 *3028:A 4.77425e-05
8 *369:10 *625:8 0.000291566
9 *621:10 *3028:A 0
10 *621:20 *625:8 0.000665135
11 *621:31 *625:8 0.000291502
12 *621:44 *625:8 0.000130344
*RES
1 *3025:Y *625:8 46.7774 
2 *625:8 *3028:A 40.3193 
*END

*D_NET *626 0.00198537
*CONN
*I *3027:A2 I *D sg13g2_o21ai_1
*I *3026:Y O *D sg13g2_nand4_1
*CAP
1 *3027:A2 0
2 *3026:Y 0.000478819
3 *626:10 0.000478819
4 *626:10 *2692:A 0
5 *626:10 *2693:A 0.000235202
6 *626:10 *2708:A 0.000340982
7 *626:10 *3594:A 0
8 *365:8 *626:10 0.000340982
9 *368:6 *626:10 0
10 *369:10 *626:10 4.77425e-05
11 *370:10 *626:10 4.74248e-05
12 *370:26 *626:10 1.54008e-05
*RES
1 *3026:Y *626:10 45.15 
2 *626:10 *3027:A2 40 
*END

*D_NET *627 0.0011478
*CONN
*I *3028:B I *D sg13g2_nor2_1
*I *3027:Y O *D sg13g2_o21ai_1
*CAP
1 *3028:B 0.000134285
2 *3027:Y 9.92375e-05
3 *627:8 0.000233522
4 *627:8 *2708:A 0.000342573
5 *627:8 *889:98 0.000128675
6 *365:16 *3028:B 0.000209505
7 *369:10 *3028:B 0
8 *369:10 *627:8 0
*RES
1 *3027:Y *627:8 41.5862 
2 *627:8 *3028:B 41.4008 
*END

*D_NET *628 0.00317789
*CONN
*I *3032:A I *D sg13g2_nor2_1
*I *3029:Y O *D sg13g2_a21oi_1
*CAP
1 *3032:A 0.000337206
2 *3029:Y 0.000335298
3 *628:8 0.000672504
4 *3032:A *3030:D 0.000242154
5 *3032:A *3031:A1 0.000209703
6 *3032:A *867:80 0
7 *3032:A *877:56 0.000274359
8 *628:8 *3030:C 0
9 *628:8 *811:49 0.000606366
10 *628:8 *867:86 0
11 *628:8 *1091:8 0
12 *324:8 *628:8 0.000500302
*RES
1 *3029:Y *628:8 44.7998 
2 *628:8 *3032:A 43.9449 
*END

*D_NET *629 0.00165698
*CONN
*I *3509:A I *D sg13g2_dlygate4sd3_1
*I *3030:Y O *D sg13g2_nand4_1
*CAP
1 *3509:A 0
2 *3030:Y 0.000516482
3 *629:14 0.000516482
4 *629:14 *3277:CLK 0
5 *629:14 *811:49 0.000177164
6 *629:14 *867:80 0
7 *629:14 *894:57 0
8 *629:14 *1091:8 0.000446855
*RES
1 *3030:Y *629:14 46.1285 
2 *629:14 *3509:A 40 
*END

*D_NET *630 0.000665754
*CONN
*I *3032:B I *D sg13g2_nor2_1
*I *3031:Y O *D sg13g2_o21ai_1
*CAP
1 *3032:B 0.000115421
2 *3031:Y 0.000115421
3 *3032:B *2910:B 0.000209835
4 *3032:B *3031:B1 4.77425e-05
5 *3032:B *894:38 0.000177334
*RES
1 *3031:Y *3032:B 41.4008 
*END

*D_NET *631 0.000411064
*CONN
*I *3036:A I *D sg13g2_nor2_1
*I *3033:Y O *D sg13g2_a21oi_1
*CAP
1 *3036:A 0.000205532
2 *3033:Y 0.000205532
3 *3036:A *2697:A 0
4 *3036:A *3035:A1 0
5 *3036:A *3036:B 0
6 *3036:A *811:20 0
7 *3036:A *811:73 0
8 *3036:A *868:114 0
9 *3036:A *895:73 0
*RES
1 *3033:Y *3036:A 41.9673 
*END

*D_NET *632 0.000358567
*CONN
*I *3035:A2 I *D sg13g2_o21ai_1
*I *3034:Y O *D sg13g2_nand4_1
*CAP
1 *3035:A2 0.000137514
2 *3034:Y 0.000137514
3 *3035:A2 *3035:A1 1.54556e-05
4 *3035:A2 *3036:B 0
5 *3035:A2 *895:88 0
6 *3034:A *3035:A2 2.12795e-05
7 *3525:A *3035:A2 0
8 *368:33 *3035:A2 4.68039e-05
*RES
1 *3034:Y *3035:A2 41.7304 
*END

*D_NET *633 0.000618661
*CONN
*I *3036:B I *D sg13g2_nor2_1
*I *3035:Y O *D sg13g2_o21ai_1
*CAP
1 *3036:B 0.00020491
2 *3035:Y 0.00020491
3 *3036:B *3035:B1 0
4 *3036:B *3035:A1 0
5 *3036:B *868:114 0
6 *3036:B *895:73 0.00020884
7 *3035:A2 *3036:B 0
8 *3036:A *3036:B 0
*RES
1 *3035:Y *3036:B 42.2454 
*END

*D_NET *634 0.00120867
*CONN
*I *3040:A I *D sg13g2_nor2_1
*I *3037:Y O *D sg13g2_a21oi_1
*CAP
1 *3040:A 0.000329604
2 *3037:Y 0.000329604
3 *3040:A *3037:A1 0
4 *3040:A *825:34 0.000339591
5 *3516:A *3040:A 0.000209867
6 *374:18 *3040:A 0
*RES
1 *3037:Y *3040:A 43.8522 
*END

*D_NET *635 0.00225351
*CONN
*I *3515:A I *D sg13g2_dlygate4sd3_1
*I *3038:Y O *D sg13g2_nand4_1
*CAP
1 *3515:A 0.000218171
2 *3038:Y 0.000275027
3 *635:8 0.000493198
4 *3515:A *2697:A 0
5 *3515:A *3279:D 8.0216e-05
6 *3515:A *895:73 0.000339327
7 *635:8 *811:28 0
8 *635:8 *868:100 7.60282e-05
9 *3038:A *635:8 0
10 *492:22 *635:8 0.000771538
*RES
1 *3038:Y *635:8 43.5638 
2 *635:8 *3515:A 42.266 
*END

*D_NET *636 0.00151912
*CONN
*I *3040:B I *D sg13g2_nor2_1
*I *3039:Y O *D sg13g2_o21ai_1
*CAP
1 *3040:B 0
2 *3039:Y 0.000445021
3 *636:10 0.000445021
4 *636:10 *3039:B1 8.00842e-05
5 *636:10 *811:39 0
6 *636:10 *895:73 0
7 *636:10 *1166:43 0.000209856
8 *636:10 *1183:14 0
9 *377:10 *636:10 0.000339135
*RES
1 *3039:Y *636:10 45.0882 
2 *636:10 *3040:B 40 
*END

*D_NET *637 0.00120818
*CONN
*I *3044:A I *D sg13g2_nor2_1
*I *3041:Y O *D sg13g2_a21oi_1
*CAP
1 *3044:A 0.000198924
2 *3041:Y 0.000182864
3 *637:8 0.000381788
4 *3044:A *877:44 0
5 *637:8 *895:42 0.000444604
6 *328:10 *3044:A 0
7 *328:10 *637:8 0
8 *621:82 *3044:A 0
*RES
1 *3041:Y *637:8 42.0806 
2 *637:8 *3044:A 41.8334 
*END

*D_NET *638 0.00153229
*CONN
*I *3043:A2 I *D sg13g2_o21ai_1
*I *3042:Y O *D sg13g2_nand4_1
*CAP
1 *3043:A2 5.46239e-05
2 *3042:Y 0.000420127
3 *638:8 0.000474751
4 *3043:A2 *811:81 4.77425e-05
5 *3043:A2 *895:133 1.54008e-05
6 *638:8 *811:81 0.000287256
7 *638:8 *1166:51 0.000232389
8 *638:8 *1183:14 0
*RES
1 *3042:Y *638:8 44.5526 
2 *638:8 *3043:A2 40.5356 
*END

*D_NET *639 0.00123627
*CONN
*I *3044:B I *D sg13g2_nor2_1
*I *3043:Y O *D sg13g2_o21ai_1
*CAP
1 *3044:B 0.000142975
2 *3043:Y 0.000414172
3 *639:10 0.000557146
4 *3044:B *3527:A 0
5 *3044:B *877:44 0
6 *3044:B *1166:62 0
7 *639:10 *697:218 0
8 *639:10 *825:34 4.74145e-05
9 *639:10 *895:133 0
10 *639:10 *1166:51 0
11 *364:12 *639:10 7.4559e-05
12 *374:18 *639:10 0
*RES
1 *3043:Y *639:10 43.1263 
2 *639:10 *3044:B 41.1845 
*END

*D_NET *640 0.0012271
*CONN
*I *3048:A I *D sg13g2_nor2_1
*I *3045:Y O *D sg13g2_a21oi_1
*CAP
1 *3048:A 0.000179707
2 *3045:Y 0.000350927
3 *640:8 0.000530634
4 *3048:A *3048:B 0
5 *3048:A *697:202 0
6 *3048:A *743:14 1.54008e-05
7 *3048:A *873:78 0
8 *640:8 *3045:A1 0
9 *640:8 *895:19 7.52149e-05
10 *640:8 *895:42 7.52158e-05
*RES
1 *3045:Y *640:8 43.5638 
2 *640:8 *3048:A 41.4008 
*END

*D_NET *641 0.0015896
*CONN
*I *3512:A I *D sg13g2_dlygate4sd3_1
*I *3046:Y O *D sg13g2_nand4_1
*CAP
1 *3512:A 0.000174172
2 *3046:Y 0.000120161
3 *641:8 0.000294333
4 *3512:A *821:42 0
5 *3512:A *1178:31 0
6 *641:8 *868:67 0.000447182
7 *641:8 *873:55 0.000553748
*RES
1 *3046:Y *641:8 42.575 
2 *641:8 *3512:A 41.4008 
*END

*D_NET *642 0.000353273
*CONN
*I *3048:B I *D sg13g2_nor2_1
*I *3047:Y O *D sg13g2_o21ai_1
*CAP
1 *3048:B 0.000176636
2 *3047:Y 0.000176636
3 *3048:B *3285:D 0
4 *3048:B *697:202 0
5 *3048:A *3048:B 0
*RES
1 *3047:Y *3048:B 41.3725 
*END

*D_NET *643 0.00160434
*CONN
*I *3052:A I *D sg13g2_nor2_1
*I *3049:Y O *D sg13g2_a21oi_1
*CAP
1 *3052:A 0.000632357
2 *3049:Y 0.000632357
3 *3052:A *3049:A1 0
4 *3052:A *825:34 0.000339623
5 *373:22 *3052:A 0
*RES
1 *3049:Y *3052:A 46.592 
*END

*D_NET *644 0.000499913
*CONN
*I *3527:A I *D sg13g2_dlygate4sd3_1
*I *3050:Y O *D sg13g2_nand4_1
*CAP
1 *3527:A 0.000145432
2 *3050:Y 0.000145432
3 *3527:A *1166:62 0
4 *3044:B *3527:A 0
5 *621:82 *3527:A 0.000209048
*RES
1 *3050:Y *3527:A 41.4008 
*END

*D_NET *645 0.000732052
*CONN
*I *3052:B I *D sg13g2_nor2_1
*I *3051:Y O *D sg13g2_o21ai_1
*CAP
1 *3052:B 0
2 *3051:Y 0.000184834
3 *645:8 0.000184834
4 *645:8 *811:81 0.00012816
5 *645:8 *895:133 0.000234224
6 *645:8 *1183:14 0
7 *330:8 *645:8 0
*RES
1 *3051:Y *645:8 42.3278 
2 *645:8 *3052:B 40 
*END

*D_NET *646 0.0286258
*CONN
*I *3054:A2 I *D sg13g2_a21oi_1
*I *3082:A2 I *D sg13g2_a21oi_1
*I *3074:A2 I *D sg13g2_a21oi_1
*I *3062:A2 I *D sg13g2_a21oi_1
*I *3058:A2 I *D sg13g2_a21oi_1
*I *3070:A2 I *D sg13g2_a21oi_1
*I *3066:A2 I *D sg13g2_a21oi_1
*I *3078:A2 I *D sg13g2_a21oi_1
*I *3053:Y O *D sg13g2_nor3_1
*CAP
1 *3054:A2 0.00101876
2 *3082:A2 0
3 *3074:A2 0
4 *3062:A2 0
5 *3058:A2 3.32283e-05
6 *3070:A2 0.000390362
7 *3066:A2 0.000391535
8 *3078:A2 6.46015e-05
9 *3053:Y 0.000884398
10 *646:109 0.000337938
11 *646:96 0.0005943
12 *646:86 0.00146888
13 *646:78 0.000784389
14 *646:63 0.00149429
15 *646:37 0.00188088
16 *646:22 0.00135156
17 *646:16 0.0014013
18 *646:14 0.00190645
19 *646:10 0.0038096
20 *3054:A2 *2922:B1 0
21 *3054:A2 *3365:A 0
22 *3054:A2 *647:8 0
23 *3054:A2 *707:30 0
24 *3054:A2 *707:39 0
25 *3054:A2 *806:34 0.00017641
26 *3054:A2 *819:16 0
27 *3054:A2 *820:66 1.54008e-05
28 *3054:A2 *820:89 0.00017641
29 *3058:A2 *735:49 4.76452e-05
30 *3066:A2 *3066:A1 8.0216e-05
31 *3066:A2 *3066:B1 0
32 *3066:A2 *721:44 0
33 *3066:A2 *819:96 0
34 *3070:A2 *3070:A1 0.000663588
35 *3070:A2 *795:24 0.000728044
36 *3078:A2 *3078:A1 7.48257e-05
37 *3078:A2 *733:31 0.000112558
38 *646:10 *2967:B1 0
39 *646:10 *3247:RESET_B 0
40 *646:10 *3365:A 0
41 *646:10 *707:16 0
42 *646:10 *707:30 0
43 *646:10 *722:39 0
44 *646:10 *755:8 0
45 *646:10 *808:59 0
46 *646:10 *855:82 0
47 *646:14 *3227:RESET_B 0
48 *646:14 *3229:RESET_B 0
49 *646:14 *3237:CLK 0.00134196
50 *646:14 *733:12 0
51 *646:14 *758:38 0
52 *646:14 *758:46 0.00140803
53 *646:22 *3301:CLK 0
54 *646:22 *733:31 7.9225e-05
55 *646:22 *768:12 0
56 *646:22 *819:94 0
57 *646:37 *3301:CLK 0.00060678
58 *646:37 *712:10 0.000767035
59 *646:37 *768:12 0
60 *646:37 *796:39 0
61 *646:37 *819:94 7.51285e-05
62 *646:37 *819:96 2.20966e-05
63 *646:37 *833:14 0
64 *646:63 *2930:B1 0.000285421
65 *646:63 *3058:A1 0
66 *646:63 *3151:CLK 0
67 *646:63 *713:8 0
68 *646:63 *713:10 0
69 *646:63 *729:33 0.000287672
70 *646:63 *735:49 0.000128439
71 *646:63 *768:12 0
72 *646:63 *799:18 0.000765194
73 *646:63 *819:94 0
74 *646:78 *3058:A1 7.3287e-05
75 *646:78 *650:8 0.000177963
76 *646:78 *745:28 3.23417e-05
77 *646:78 *799:18 0.000606679
78 *646:78 *824:75 0.000392046
79 *646:86 *3085:B 0
80 *646:86 *3299:RESET_B 0.000263051
81 *646:86 *710:61 0
82 *646:86 *745:28 0.000207923
83 *646:96 *3062:A1 1.53662e-05
84 *646:96 *3062:B1 0
85 *646:96 *3065:B 0.000208768
86 *646:96 *3084:B1 0.00043345
87 *646:96 *3085:B 0
88 *646:96 *710:46 0
89 *646:96 *744:35 0
90 *646:96 *790:18 0
91 *646:96 *794:33 0.000232563
92 *646:109 *670:8 0
93 *646:109 *744:35 0
94 *646:109 *824:54 0
95 *646:109 *824:58 7.97219e-05
96 *646:109 *824:75 1.53311e-05
97 *646:109 *1174:8 0
98 *2929:B *646:14 0
99 *2949:A *646:14 0
100 *3227:D *646:14 0
101 *3229:D *646:14 0
102 *3299:D *646:86 0
103 *3299:D *646:96 0
104 *253:8 *646:37 0
105 *336:8 *646:109 0
106 *411:8 *646:37 0
107 *546:101 *646:63 0.000232743
*RES
1 *3053:Y *646:10 48.5181 
2 *646:10 *646:14 39.57 
3 *646:14 *646:16 20 
4 *646:16 *646:22 21.6274 
5 *646:22 *3078:A2 20.7519 
6 *646:22 *646:37 32.6381 
7 *646:37 *3066:A2 43.0488 
8 *646:37 *3070:A2 44.8616 
9 *646:16 *646:63 34.1728 
10 *646:63 *3058:A2 20.3193 
11 *646:63 *646:78 44.1303 
12 *646:78 *646:86 5.974 
13 *646:86 *646:96 46.489 
14 *646:96 *3062:A2 20 
15 *646:86 *646:109 42.8634 
16 *646:109 *3074:A2 20 
17 *646:78 *3082:A2 20 
18 *646:10 *3054:A2 49.9395 
*END

*D_NET *647 0.00114929
*CONN
*I *3057:A I *D sg13g2_nor2_1
*I *3054:Y O *D sg13g2_a21oi_1
*CAP
1 *3057:A 0.000285363
2 *3054:Y 0.0001607
3 *647:8 0.000446063
4 *3057:A *2923:C 0
5 *3057:A *2944:B1 0
6 *3057:A *3057:B 1.54556e-05
7 *647:8 *3289:CLK 0
8 *3054:A2 *647:8 0
9 *546:127 *3057:A 0.000241706
*RES
1 *3054:Y *647:8 41.339 
2 *647:8 *3057:A 43.1827 
*END

*D_NET *648 0.000849725
*CONN
*I *3056:A2 I *D sg13g2_o21ai_1
*I *3055:Y O *D sg13g2_nand4_1
*CAP
1 *3056:A2 0.000279911
2 *3055:Y 0.000279911
3 *3056:A2 *3056:B1 4.77425e-05
4 *3056:A2 *3419:A 0.00024216
5 *3056:A2 *820:66 0
6 *3056:A2 *864:36 0
7 *3056:A2 *885:84 0
*RES
1 *3055:Y *3056:A2 42.8634 
*END

*D_NET *649 0.000804102
*CONN
*I *3057:B I *D sg13g2_nor2_1
*I *3056:Y O *D sg13g2_o21ai_1
*CAP
1 *3057:B 0.000323176
2 *3056:Y 0.000323176
3 *3057:B *2923:C 0
4 *3057:B *2944:B1 0
5 *3057:B *3056:B1 1.54008e-05
6 *3057:B *864:36 8.00842e-05
7 *3057:B *885:76 4.68099e-05
8 *3057:A *3057:B 1.54556e-05
9 *3289:D *3057:B 0
*RES
1 *3056:Y *3057:B 42.5774 
*END

*D_NET *650 0.00126828
*CONN
*I *3061:A I *D sg13g2_nor2_1
*I *3058:Y O *D sg13g2_a21oi_1
*CAP
1 *3061:A 5.37024e-05
2 *3058:Y 0.00045135
3 *650:8 0.000505053
4 *3061:A *725:47 0
5 *3061:A *1174:26 8.0216e-05
6 *650:8 *3058:A1 0
7 *650:8 *799:18 0
8 *646:78 *650:8 0.000177963
*RES
1 *3058:Y *650:8 43.5638 
2 *650:8 *3061:A 40.5356 
*END

*D_NET *651 0.00108784
*CONN
*I *3060:A2 I *D sg13g2_o21ai_1
*I *3059:Y O *D sg13g2_nand4_1
*CAP
1 *3060:A2 0.000142076
2 *3059:Y 9.86441e-05
3 *651:8 0.00024072
4 *3060:A2 *3060:B1 0.000144444
5 *3060:A2 *3060:A1 4.77425e-05
6 *651:8 *794:33 0.000286947
7 *651:8 *878:70 0
8 *2951:A *651:8 0.000127262
*RES
1 *3059:Y *651:8 41.339 
2 *651:8 *3060:A2 41.4008 
*END

*D_NET *652 0.00266598
*CONN
*I *3061:B I *D sg13g2_nor2_1
*I *3060:Y O *D sg13g2_o21ai_1
*CAP
1 *3061:B 0.000754771
2 *3060:Y 0.000754771
3 *3061:B *3060:B1 1.54282e-05
4 *3061:B *725:29 0
5 *3061:B *736:35 0.000608007
6 *3061:B *1174:26 0.000533007
7 *2953:B *3061:B 0
*RES
1 *3060:Y *3061:B 48.5902 
*END

*D_NET *653 0.000550697
*CONN
*I *3065:A I *D sg13g2_nor2_1
*I *3062:Y O *D sg13g2_a21oi_1
*CAP
1 *3065:A 0.000267683
2 *3062:Y 0.000267683
3 *3065:A *3062:B1 1.53311e-05
4 *3065:A *3065:B 0
5 *3293:D *3065:A 0
*RES
1 *3062:Y *3065:A 42.8428 
*END

*D_NET *654 0.00126179
*CONN
*I *3064:A2 I *D sg13g2_o21ai_1
*I *3063:Y O *D sg13g2_nand4_1
*CAP
1 *3064:A2 0.00017288
2 *3063:Y 0.00034258
3 *654:10 0.000515461
4 *3064:A2 *3065:B 1.54008e-05
5 *3064:A2 *814:35 6.31433e-05
6 *654:10 *744:35 0
7 *654:10 *778:22 0
8 *654:10 *872:10 0
9 *654:10 *872:23 0
10 *361:18 *654:10 7.30101e-05
11 *361:35 *654:10 7.93156e-05
*RES
1 *3063:Y *654:10 42.7089 
2 *654:10 *3064:A2 41.6033 
*END

*D_NET *655 0.00139101
*CONN
*I *3065:B I *D sg13g2_nor2_1
*I *3064:Y O *D sg13g2_o21ai_1
*CAP
1 *3065:B 0.000583419
2 *3064:Y 0.000583419
3 *3065:B *3062:A1 0
4 *3065:B *744:35 0
5 *3065:B *822:36 0
6 *3065:B *1165:57 0
7 *3064:A2 *3065:B 1.54008e-05
8 *3065:A *3065:B 0
9 *646:96 *3065:B 0.000208768
*RES
1 *3064:Y *3065:B 45.4596 
*END

*D_NET *656 0.000566776
*CONN
*I *3069:A I *D sg13g2_nor2_1
*I *3066:Y O *D sg13g2_a21oi_1
*CAP
1 *3069:A 4.56959e-05
2 *3066:Y 0.000197538
3 *656:8 0.000243234
4 *3069:A *3069:B 0
5 *3069:A *3295:CLK 6.48533e-05
6 *3069:A *3297:CLK 1.54556e-05
7 *656:8 *661:16 0
8 *656:8 *712:22 0
*RES
1 *3066:Y *656:8 41.8334 
2 *656:8 *3069:A 40.5356 
*END

*D_NET *657 0.00182318
*CONN
*I *3068:A2 I *D sg13g2_o21ai_1
*I *3067:Y O *D sg13g2_nand4_1
*CAP
1 *3068:A2 0
2 *3067:Y 0.00054751
3 *657:10 0.00054751
4 *657:10 *2936:A1 0
5 *657:10 *766:16 0
6 *657:10 *795:24 0
7 *657:10 *807:67 0.000178836
8 *657:10 *909:78 0.000533865
9 *2936:A2 *657:10 0
10 *360:49 *657:10 1.54556e-05
*RES
1 *3067:Y *657:10 45.6444 
2 *657:10 *3068:A2 40 
*END

*D_NET *658 0.00122793
*CONN
*I *3069:B I *D sg13g2_nor2_1
*I *3068:Y O *D sg13g2_o21ai_1
*CAP
1 *3069:B 0.000613964
2 *3068:Y 0.000613964
3 *3069:B *3297:RESET_B 0
4 *3069:B *3297:CLK 0
5 *3069:B *661:16 0
6 *3069:A *3069:B 0
*RES
1 *3068:Y *3069:B 46.6332 
*END

*D_NET *659 0.00147267
*CONN
*I *3073:A I *D sg13g2_nor2_1
*I *3070:Y O *D sg13g2_a21oi_1
*CAP
1 *3073:A 0
2 *3070:Y 0.000529599
3 *659:10 0.000529599
4 *659:10 *3070:A1 0
5 *659:10 *3070:B1 0
6 *659:10 *661:16 0.000288606
7 *659:10 *712:22 0
8 *659:10 *740:28 0
9 *659:10 *909:72 0.000124862
10 *659:10 *1173:21 0
*RES
1 *3070:Y *659:10 44.9337 
2 *659:10 *3073:A 40 
*END

*D_NET *660 0.00177087
*CONN
*I *3072:A2 I *D sg13g2_o21ai_1
*I *3071:Y O *D sg13g2_nand4_1
*CAP
1 *3072:A2 0.000201084
2 *3071:Y 0.000393409
3 *660:8 0.000594493
4 *3072:A2 *3072:B1 4.77702e-05
5 *3072:A2 *807:48 8.02102e-05
6 *3072:A2 *807:52 0.000274518
7 *660:8 *790:18 0.000179385
8 *660:8 *807:74 0
9 *360:49 *660:8 0
*RES
1 *3071:Y *660:8 43.0694 
2 *660:8 *3072:A2 42.266 
*END

*D_NET *661 0.00192733
*CONN
*I *3073:B I *D sg13g2_nor2_1
*I *3072:Y O *D sg13g2_o21ai_1
*CAP
1 *3073:B 0
2 *3072:Y 0.000787776
3 *661:16 0.000787776
4 *661:16 *3068:B1 0
5 *661:16 *3072:B1 1.54285e-05
6 *661:16 *3297:CLK 0
7 *661:16 *721:44 0
8 *661:16 *807:67 4.77425e-05
9 *3069:B *661:16 0
10 *335:8 *661:16 0
11 *656:8 *661:16 0
12 *659:10 *661:16 0.000288606
*RES
1 *3072:Y *661:16 48.549 
2 *661:16 *3073:B 40 
*END

*D_NET *662 0.000664604
*CONN
*I *3077:A I *D sg13g2_nor2_1
*I *3074:Y O *D sg13g2_a21oi_1
*CAP
1 *3077:A 0.000227388
2 *3074:Y 0.000227388
3 *3077:A *3074:B1 0
4 *3077:A *3077:B 0
5 *3077:A *735:49 0
6 *3077:A *741:32 0.000209829
7 *3077:A *824:58 0
*RES
1 *3074:Y *3077:A 42.4926 
*END

*D_NET *663 0.00147275
*CONN
*I *3076:A2 I *D sg13g2_o21ai_1
*I *3075:Y O *D sg13g2_nand4_1
*CAP
1 *3076:A2 0.000488572
2 *3075:Y 0.000488572
3 *3076:A2 *3063:C 0
4 *3076:A2 *3076:B1 1.54008e-05
5 *3076:A2 *3077:B 0
6 *3076:A2 *741:32 0
7 *3076:A2 *744:35 0
8 *3076:A2 *814:49 0.000112287
9 *3076:A2 *872:6 0
10 *3076:A2 *872:10 7.93152e-05
11 *3076:A2 *872:61 0
12 *3076:A2 *872:76 0
13 *3076:A2 *873:88 0.000176174
14 *3076:A2 *878:59 0.000112426
15 *3076:A2 *888:18 0
*RES
1 *3075:Y *3076:A2 45.2118 
*END

*D_NET *664 0.000876702
*CONN
*I *3077:B I *D sg13g2_nor2_1
*I *3076:Y O *D sg13g2_o21ai_1
*CAP
1 *3077:B 0.000438351
2 *3076:Y 0.000438351
3 *3077:B *741:32 0
4 *3077:B *814:64 0
5 *3076:A2 *3077:B 0
6 *3077:A *3077:B 0
*RES
1 *3076:Y *3077:B 44.2642 
*END

*D_NET *665 0.000556012
*CONN
*I *3081:A I *D sg13g2_nor2_1
*I *3078:Y O *D sg13g2_a21oi_1
*CAP
1 *3081:A 0
2 *3078:Y 0.000278006
3 *665:10 0.000278006
4 *665:10 *697:129 0
5 *665:10 *733:31 0
6 *665:10 *794:27 0
*RES
1 *3078:Y *665:10 42.987 
2 *665:10 *3081:A 40 
*END

*D_NET *666 0.00140499
*CONN
*I *3080:A2 I *D sg13g2_o21ai_1
*I *3079:Y O *D sg13g2_nand4_1
*CAP
1 *3080:A2 0.000323938
2 *3079:Y 0.000323938
3 *3080:A2 *2948:A1 0.000273991
4 *3080:A2 *3080:B1 4.77425e-05
5 *3080:A2 *3080:A1 0.000435379
6 *3080:A2 *899:39 0
*RES
1 *3079:Y *3080:A2 43.6977 
*END

*D_NET *667 0.00144465
*CONN
*I *3081:B I *D sg13g2_nor2_1
*I *3080:Y O *D sg13g2_o21ai_1
*CAP
1 *3081:B 0.000706898
2 *3080:Y 0.000706898
3 *3081:B *3080:B1 1.54008e-05
4 *3081:B *3237:RESET_B 0
5 *3081:B *794:27 1.54556e-05
6 *3081:B *796:18 0
7 *3301:D *3081:B 0
*RES
1 *3080:Y *3081:B 47.416 
*END

*D_NET *668 0.000672307
*CONN
*I *3085:A I *D sg13g2_nor2_1
*I *3082:Y O *D sg13g2_a21oi_1
*CAP
1 *3085:A 4.28133e-05
2 *3082:Y 0.000238148
3 *668:12 0.000280961
4 *3085:A *3085:B 1.53311e-05
5 *3085:A *710:61 7.97219e-05
6 *668:12 *3082:B1 0
7 *3303:D *3085:A 1.53311e-05
*RES
1 *3082:Y *668:12 42.6574 
2 *668:12 *3085:A 40.5356 
*END

*D_NET *669 0.00147916
*CONN
*I *3084:A2 I *D sg13g2_o21ai_1
*I *3083:Y O *D sg13g2_nand4_1
*CAP
1 *3084:A2 0.000387117
2 *3083:Y 0.000387117
3 *3084:A2 *3084:B1 4.75265e-05
4 *3084:A2 *744:35 0.000176145
5 *3084:A2 *814:64 0.000240586
6 *3084:A2 *824:54 0.000240669
*RES
1 *3083:Y *3084:A2 44.2642 
*END

*D_NET *670 0.00129434
*CONN
*I *3085:B I *D sg13g2_nor2_1
*I *3084:Y O *D sg13g2_o21ai_1
*CAP
1 *3085:B 0.000438082
2 *3084:Y 0.000201421
3 *670:8 0.000639504
4 *3085:B *710:46 0
5 *3085:B *710:61 0
6 *670:8 *795:26 0
7 *670:8 *1174:8 0
8 *3085:A *3085:B 1.53311e-05
9 *333:8 *670:8 0
10 *646:86 *3085:B 0
11 *646:96 *3085:B 0
12 *646:109 *670:8 0
*RES
1 *3084:Y *670:8 42.0806 
2 *670:8 *3085:B 44.3672 
*END

*D_NET *671 0.0237113
*CONN
*I *3103:A2 I *D sg13g2_a21oi_1
*I *3091:A2 I *D sg13g2_a21oi_1
*I *3087:A2 I *D sg13g2_a21oi_1
*I *3095:A2 I *D sg13g2_a21oi_1
*I *3111:A2 I *D sg13g2_a21oi_1
*I *3115:A2 I *D sg13g2_a21oi_1
*I *3099:A2 I *D sg13g2_a21oi_1
*I *3107:A2 I *D sg13g2_a21oi_1
*I *3086:Y O *D sg13g2_nor3_1
*CAP
1 *3103:A2 0
2 *3091:A2 0
3 *3087:A2 0
4 *3095:A2 0
5 *3111:A2 0.000464643
6 *3115:A2 0.000132986
7 *3099:A2 0
8 *3107:A2 2.52214e-05
9 *3086:Y 3.34204e-05
10 *671:137 0.000671242
11 *671:122 0.00122614
12 *671:118 0.000979955
13 *671:101 0.000589469
14 *671:93 0.000593557
15 *671:47 0.00107304
16 *671:39 0.00180269
17 *671:33 0.000873572
18 *671:25 0.00125961
19 *671:14 0.00141617
20 *671:8 0.00115223
21 *671:6 0.000741899
22 *3107:A2 *3107:A1 4.78356e-05
23 *3107:A2 *3315:RESET_B 4.78356e-05
24 *3111:A2 *2851:B 1.54556e-05
25 *3111:A2 *3116:D 0
26 *3111:A2 *3317:RESET_B 4.77425e-05
27 *3111:A2 *3317:CLK 0.000538973
28 *3111:A2 *816:18 0.000129358
29 *3115:A2 *698:89 0.0002287
30 *3115:A2 *820:36 6.85503e-05
31 *671:8 *3095:A1 0.00046883
32 *671:8 *3309:CLK 0.000518294
33 *671:8 *883:39 0
34 *671:14 *3095:A1 1.54008e-05
35 *671:14 *3309:CLK 0.000307166
36 *671:14 *717:12 0
37 *671:14 *856:10 0
38 *671:14 *856:118 0
39 *671:14 *866:18 0.000130055
40 *671:14 *881:59 0
41 *671:14 *889:35 0
42 *671:25 *3315:CLK 0.000454387
43 *671:25 *3317:CLK 0.000346605
44 *671:33 *3364:A 0.00029161
45 *671:33 *803:12 0
46 *671:33 *808:27 0
47 *671:33 *866:43 0
48 *671:33 *866:66 0
49 *671:39 *808:27 0.00111578
50 *671:47 *3101:A1 0
51 *671:47 *3101:A2 0
52 *671:47 *698:89 0.000368718
53 *671:47 *808:27 0
54 *671:47 *866:66 0
55 *671:93 *3086:A 0.000124547
56 *671:93 *3088:D 0.000241979
57 *671:93 *3309:CLK 0
58 *671:93 *884:75 0
59 *671:101 *2710:A 0.000112684
60 *671:101 *3087:A1 1.54556e-05
61 *671:101 *672:8 7.31655e-05
62 *671:101 *884:75 0.000127853
63 *671:101 *1169:14 0
64 *671:118 *2710:A 8.02379e-05
65 *671:118 *3087:A1 3.23472e-05
66 *671:118 *3089:B1 0.00012816
67 *671:118 *817:61 0.000143501
68 *671:118 *856:46 0
69 *671:118 *880:19 0.000207966
70 *671:118 *891:22 0.000339131
71 *671:122 *2960:C 0
72 *671:122 *817:69 0
73 *671:122 *856:46 0.000822258
74 *671:137 *2972:C 0.000337022
75 *671:137 *3103:A1 1.54008e-05
76 *671:137 *3105:A1 0
77 *671:137 *3431:A 0
78 *671:137 *685:10 0.000340906
79 *671:137 *721:10 0
80 *671:137 *807:10 0
81 *671:137 *817:69 1.54008e-05
82 *671:137 *855:22 0
83 *671:137 *855:41 0.00012816
84 *671:137 *856:56 0
85 *671:137 *856:67 0
86 *671:137 *865:22 0
87 *671:137 *865:46 7.88655e-05
88 *671:137 *1126:8 0
89 *2954:C *671:93 0.000194143
90 *2956:A *671:93 0
91 *2980:A *3111:A2 0
92 *3086:C *671:93 1.54008e-05
93 *3104:A *671:137 0
94 *3403:A *671:14 0
95 *3:18 *671:47 0
96 *354:32 *671:122 0.000467532
97 *355:20 *671:14 0
98 *355:24 *671:93 0
99 *357:26 *671:39 0.00111578
100 *360:30 *671:137 0
101 *571:37 *3115:A2 0.000144717
102 *571:61 *671:101 4.77702e-05
103 *571:61 *671:118 0
104 *571:61 *671:122 0
105 *576:16 *671:122 0
106 *580:26 *671:137 0
107 *591:10 *3111:A2 0
108 *591:10 *671:33 0.000183827
*RES
1 *3086:Y *671:6 20.3502 
2 *671:6 *671:8 3.5638 
3 *671:8 *671:14 27.9463 
4 *671:14 *3107:A2 40.3193 
5 *671:14 *671:25 5.5414 
6 *671:25 *671:33 43.1724 
7 *671:33 *671:39 47.4572 
8 *671:39 *671:47 30.4751 
9 *671:47 *3099:A2 20 
10 *671:39 *3115:A2 41.769 
11 *671:25 *3111:A2 45.0779 
12 *671:8 *3095:A2 20 
13 *671:6 *671:93 44.4805 
14 *671:93 *671:101 41.8437 
15 *671:101 *3087:A2 20 
16 *671:101 *671:118 44.8307 
17 *671:118 *671:122 6.2933 
18 *671:122 *3091:A2 20 
19 *671:122 *671:137 47.1688 
20 *671:137 *3103:A2 20 
*END

*D_NET *672 0.00161595
*CONN
*I *3090:A I *D sg13g2_nor2_1
*I *3087:Y O *D sg13g2_a21oi_1
*CAP
1 *3090:A 0.0001465
2 *3087:Y 0.000350493
3 *672:8 0.000496993
4 *3090:A *3305:CLK 0.00027448
5 *672:8 *3089:B1 0
6 *3:18 *672:8 0
7 *580:26 *3090:A 0.000274321
8 *671:101 *672:8 7.31655e-05
*RES
1 *3087:Y *672:8 43.3166 
2 *672:8 *3090:A 41.8334 
*END

*D_NET *673 0.000678224
*CONN
*I *3089:A2 I *D sg13g2_o21ai_1
*I *3088:Y O *D sg13g2_nand4_1
*CAP
1 *3089:A2 6.7737e-05
2 *3088:Y 0.000167458
3 *673:12 0.000235195
4 *3089:A2 *3089:B1 1.54008e-05
5 *3089:A2 *803:69 0.000112667
6 *673:12 *3305:CLK 0
7 *673:12 *3309:CLK 0
8 *673:12 *803:69 0
9 *355:24 *673:12 7.97663e-05
10 *580:26 *3089:A2 0
*RES
1 *3088:Y *673:12 41.6995 
2 *673:12 *3089:A2 40.7519 
*END

*D_NET *674 0.000423253
*CONN
*I *3090:B I *D sg13g2_nor2_1
*I *3089:Y O *D sg13g2_o21ai_1
*CAP
1 *3090:B 4.67548e-05
2 *3089:Y 0.000116959
3 *674:8 0.000163714
4 *3090:B *3305:CLK 1.54556e-05
5 *3090:B *890:14 8.03692e-05
6 *674:8 *3305:CLK 0
7 *580:26 *3090:B 0
*RES
1 *3089:Y *674:8 41.0918 
2 *674:8 *3090:B 40.5356 
*END

*D_NET *675 0.00110043
*CONN
*I *3094:A I *D sg13g2_nor2_1
*I *3091:Y O *D sg13g2_a21oi_1
*CAP
1 *3094:A 0.00016721
2 *3091:Y 0.000118728
3 *675:8 0.000285939
4 *3094:A *3094:B 0.000241297
5 *3094:A *3307:RESET_B 0
6 *3094:A *757:27 0
7 *675:8 *3091:B1 0
8 *675:8 *856:67 0.000287256
*RES
1 *3091:Y *675:8 41.339 
2 *675:8 *3094:A 41.6171 
*END

*D_NET *676 0.000585926
*CONN
*I *3093:A2 I *D sg13g2_o21ai_1
*I *3092:Y O *D sg13g2_nand4_1
*CAP
1 *3093:A2 0.000196991
2 *3092:Y 0.000196991
3 *3093:A2 *3093:B1 1.54008e-05
4 *3093:A2 *803:95 0.000176543
5 *3093:A2 *880:62 0
6 *360:30 *3093:A2 0
*RES
1 *3092:Y *3093:A2 41.9673 
*END

*D_NET *677 0.00119971
*CONN
*I *3094:B I *D sg13g2_nor2_1
*I *3093:Y O *D sg13g2_o21ai_1
*CAP
1 *3094:B 0.000455402
2 *3093:Y 0.000455402
3 *3094:B *3093:B1 0
4 *3094:B *757:27 0
5 *3094:B *880:62 4.76053e-05
6 *3094:A *3094:B 0.000241297
7 *3307:D *3094:B 0
*RES
1 *3093:Y *3094:B 44.2642 
*END

*D_NET *678 0.002078
*CONN
*I *3098:A I *D sg13g2_nor2_1
*I *3095:Y O *D sg13g2_a21oi_1
*CAP
1 *3098:A 0.000232805
2 *3095:Y 0.000385125
3 *678:8 0.00061793
4 *678:8 *890:20 0.00045472
5 *678:8 *890:67 0.000387417
*RES
1 *3095:Y *678:8 45.047 
2 *678:8 *3098:A 42.4823 
*END

*D_NET *679 0.000822669
*CONN
*I *3097:A2 I *D sg13g2_o21ai_1
*I *3096:Y O *D sg13g2_nand4_1
*CAP
1 *3097:A2 0.000194463
2 *3096:Y 0.000194463
3 *3097:A2 *3096:C 0
4 *3097:A2 *803:47 1.54008e-05
5 *3097:A2 *803:58 0.00022617
6 *3097:A2 *890:36 0.000176771
7 *3097:A2 *890:46 1.54008e-05
8 *353:22 *3097:A2 0
*RES
1 *3096:Y *3097:A2 42.2145 
*END

*D_NET *680 0.00131104
*CONN
*I *3098:B I *D sg13g2_nor2_1
*I *3097:Y O *D sg13g2_o21ai_1
*CAP
1 *3098:B 0.000345421
2 *3097:Y 0.000286195
3 *680:10 0.000631616
4 *3098:B *3096:D 0
5 *3098:B *3424:A 0
6 *680:10 *3424:A 0
7 *680:10 *890:36 3.23472e-05
8 *680:10 *890:46 1.54556e-05
9 *680:10 *1012:18 0
10 *3309:D *3098:B 0
*RES
1 *3097:Y *680:10 43.1415 
2 *680:10 *3098:B 43.7801 
*END

*D_NET *681 0.00077119
*CONN
*I *3102:A I *D sg13g2_nor2_1
*I *3099:Y O *D sg13g2_a21oi_1
*CAP
1 *3102:A 4.8326e-05
2 *3099:Y 0.000259507
3 *681:8 0.000307833
4 *3102:A *883:127 8.03089e-05
5 *681:8 *2968:B 0
6 *681:8 *682:10 7.52158e-05
7 *681:8 *683:8 0
8 *681:8 *884:89 0
9 *2969:A2 *3102:A 0
*RES
1 *3099:Y *681:8 42.575 
2 *681:8 *3102:A 40.5356 
*END

*D_NET *682 0.000936007
*CONN
*I *3101:A2 I *D sg13g2_o21ai_1
*I *3100:Y O *D sg13g2_nand4_1
*CAP
1 *3101:A2 6.51462e-05
2 *3100:Y 0.000301147
3 *682:10 0.000366293
4 *3101:A2 *3101:B1 1.54556e-05
5 *3101:A2 *3101:A1 0.000112749
6 *682:10 *683:8 0
7 *682:10 *866:66 0
8 *682:10 *884:89 0
9 *682:10 *889:58 0
10 *2968:A *682:10 0
11 *671:47 *3101:A2 0
12 *681:8 *682:10 7.52158e-05
*RES
1 *3100:Y *682:10 43.0488 
2 *682:10 *3101:A2 40.7519 
*END

*D_NET *683 0.00094261
*CONN
*I *3102:B I *D sg13g2_nor2_1
*I *3101:Y O *D sg13g2_o21ai_1
*CAP
1 *3102:B 0
2 *3101:Y 0.00035415
3 *683:8 0.00035415
4 *683:8 *2968:B 0.000234311
5 *681:8 *683:8 0
6 *682:10 *683:8 0
*RES
1 *3101:Y *683:8 43.3166 
2 *683:8 *3102:B 40 
*END

*D_NET *684 0.000494901
*CONN
*I *3106:A I *D sg13g2_nor2_1
*I *3103:Y O *D sg13g2_a21oi_1
*CAP
1 *3106:A 5.80698e-05
2 *3103:Y 0.000189381
3 *684:8 0.000247451
4 *684:8 *3105:B1 0
5 *684:8 *1126:8 0
*RES
1 *3103:Y *684:8 41.8334 
2 *684:8 *3106:A 40.5356 
*END

*D_NET *685 0.00100336
*CONN
*I *3541:A I *D sg13g2_dlygate4sd3_1
*I *3104:Y O *D sg13g2_nand4_1
*CAP
1 *3541:A 0.000108289
2 *3104:Y 0.000177978
3 *685:10 0.000286267
4 *3541:A *2972:C 1.51e-05
5 *685:10 *3431:A 0
6 *685:10 *865:40 7.48178e-05
7 *685:10 *880:76 0
8 *2973:A2 *3541:A 0
9 *576:16 *3541:A 0
10 *580:26 *685:10 0
11 *671:137 *685:10 0.000340906
*RES
1 *3104:Y *685:10 42.3381 
2 *685:10 *3541:A 40.9682 
*END

*D_NET *686 0.00021954
*CONN
*I *3106:B I *D sg13g2_nor2_1
*I *3105:Y O *D sg13g2_o21ai_1
*CAP
1 *3106:B 0
2 *3105:Y 0.00010977
3 *686:8 0.00010977
*RES
1 *3105:Y *686:8 41.0918 
2 *686:8 *3106:B 40 
*END

*D_NET *687 0.00137592
*CONN
*I *3110:A I *D sg13g2_nor2_1
*I *3107:Y O *D sg13g2_a21oi_1
*CAP
1 *3110:A 0
2 *3107:Y 0.00031552
3 *687:10 0.00031552
4 *687:10 *3315:RESET_B 0
5 *687:10 *3315:CLK 0
6 *687:10 *722:14 0.000144942
7 *687:10 *856:118 2.16263e-05
8 *687:10 *881:27 0.000505302
9 *687:10 *881:29 7.30101e-05
10 *687:10 *889:35 0
*RES
1 *3107:Y *687:10 43.9758 
2 *687:10 *3110:A 40 
*END

*D_NET *688 0.000210462
*CONN
*I *3507:A I *D sg13g2_dlygate4sd3_1
*I *3108:Y O *D sg13g2_nand4_1
*CAP
1 *3507:A 0.000105231
2 *3108:Y 0.000105231
*RES
1 *3108:Y *3507:A 41.133 
*END

*D_NET *689 0.00094955
*CONN
*I *3110:B I *D sg13g2_nor2_1
*I *3109:Y O *D sg13g2_o21ai_1
*CAP
1 *3110:B 0.00026693
2 *3109:Y 0.00026693
3 *3110:B *890:46 1.54008e-05
4 *3110:B *1012:32 0.000208055
5 *344:10 *3110:B 4.77425e-05
6 *354:24 *3110:B 0.000144491
7 *360:20 *3110:B 0
*RES
1 *3109:Y *3110:B 42.7192 
*END

*D_NET *690 0.00216131
*CONN
*I *3114:A I *D sg13g2_nor2_1
*I *3111:Y O *D sg13g2_a21oi_1
*CAP
1 *3114:A 0.000174965
2 *3111:Y 0.000210746
3 *690:8 0.000385712
4 *690:8 *861:26 0.000827642
5 *690:8 *863:12 0.000449569
6 *345:14 *3114:A 0.000112671
7 *352:16 *3114:A 0
*RES
1 *3111:Y *690:8 43.811 
2 *690:8 *3114:A 41.6171 
*END

*D_NET *691 0.00160999
*CONN
*I *3113:A2 I *D sg13g2_o21ai_1
*I *3112:Y O *D sg13g2_nand4_1
*CAP
1 *3113:A2 0.000297031
2 *3112:Y 0.0001323
3 *691:8 0.000429331
4 *3113:A2 *2851:A 0.000337715
5 *3113:A2 *885:33 0
6 *3113:A2 *890:97 1.54556e-05
7 *691:8 *873:26 0
8 *691:8 *885:33 0.000398157
*RES
1 *3112:Y *691:8 41.8334 
2 *691:8 *3113:A2 42.6986 
*END

*D_NET *692 0.00226898
*CONN
*I *3114:B I *D sg13g2_nor2_1
*I *3113:Y O *D sg13g2_o21ai_1
*CAP
1 *3114:B 5.56127e-05
2 *3113:Y 0.00050497
3 *692:10 0.000560582
4 *692:10 *2851:A 0.00027284
5 *692:10 *2851:B 0
6 *692:10 *816:18 0
7 *692:10 *873:26 0.000827136
8 *692:10 *1164:22 0
9 *345:14 *3114:B 4.78359e-05
*RES
1 *3113:Y *692:10 45.6444 
2 *692:10 *3114:B 40.5356 
*END

*D_NET *693 0.000841749
*CONN
*I *3118:A I *D sg13g2_nor2_1
*I *3115:Y O *D sg13g2_a21oi_1
*CAP
1 *3118:A 5.37171e-05
2 *3115:Y 0.000239557
3 *693:10 0.000293274
4 *3118:A *758:32 8.00842e-05
5 *693:10 *3115:B1 1.54556e-05
6 *693:10 *758:32 0
7 *693:10 *805:65 0
8 *693:10 *820:47 0.000144261
9 *693:10 *891:37 0
10 *3319:D *3118:A 1.54008e-05
*RES
1 *3115:Y *693:10 41.8128 
2 *693:10 *3118:A 40.5356 
*END

*D_NET *694 0.000527906
*CONN
*I *3117:A2 I *D sg13g2_o21ai_1
*I *3116:Y O *D sg13g2_nand4_1
*CAP
1 *3117:A2 0.000160506
2 *3116:Y 0.000160506
3 *3117:A2 *3116:D 0
4 *3117:A2 *3117:A1 6.19736e-05
5 *3117:A2 *805:40 0
6 *3117:A2 *805:59 0.000144921
7 *3117:A2 *885:41 0
*RES
1 *3116:Y *3117:A2 41.854 
*END

*D_NET *695 0.00166772
*CONN
*I *3118:B I *D sg13g2_nor2_1
*I *3117:Y O *D sg13g2_o21ai_1
*CAP
1 *3118:B 0.000260364
2 *3117:Y 0
3 *695:14 0.000545938
4 *695:6 0.000285574
5 *3118:B *885:58 0.000370807
6 *3118:B *891:51 0
7 *695:14 *698:89 2.84525e-05
8 *695:14 *883:70 0
9 *3319:D *3118:B 0.000176586
*RES
1 *3117:Y *695:6 40 
2 *695:6 *695:14 43.0514 
3 *695:14 *3118:B 42.799 
*END

*D_NET *696 9.63912e-05
*CONN
*I *3120:A I *D sg13g2_nand3_1
*I *3119:Y O *D sg13g2_o21ai_1
*CAP
1 *3120:A 4.81956e-05
2 *3119:Y 4.81956e-05
3 *3120:A *2854:A 0
4 *3120:A *1168:12 0
5 *282:12 *3120:A 0
*RES
1 *3119:Y *3120:A 40.5974 
*END

*D_NET *697 0.0537923
*CONN
*I *3328:A I *D sg13g2_buf_8
*I *3329:A I *D sg13g2_buf_8
*I *3331:A I *D sg13g2_buf_8
*I *3330:A I *D sg13g2_buf_8
*I *3338:A I *D sg13g2_buf_8
*I *3337:A I *D sg13g2_buf_8
*I *3336:A I *D sg13g2_buf_8
*I *3335:A I *D sg13g2_buf_8
*I *3327:A I *D sg13g2_buf_8
*I *3326:A I *D sg13g2_buf_8
*I *3340:A I *D sg13g2_buf_8
*I *3339:A I *D sg13g2_buf_8
*I *3325:A I *D sg13g2_buf_8
*I *3332:A I *D sg13g2_buf_8
*I *3334:A I *D sg13g2_buf_8
*I *3333:A I *D sg13g2_buf_8
*I *3324:X O *D sg13g2_buf_16
*CAP
1 *3328:A 0
2 *3329:A 0
3 *3331:A 5.84119e-05
4 *3330:A 5.83451e-05
5 *3338:A 0.000121907
6 *3337:A 0.00012069
7 *3336:A 0
8 *3335:A 0
9 *3327:A 0
10 *3326:A 0
11 *3340:A 0
12 *3339:A 0
13 *3325:A 0
14 *3332:A 0.000115021
15 *3334:A 0
16 *3333:A 0
17 *3324:X 0
18 *697:329 0.000963706
19 *697:315 0.00105786
20 *697:301 0.000496216
21 *697:299 0.00143732
22 *697:297 0.00135071
23 *697:289 0.00246747
24 *697:284 0.000153049
25 *697:282 8.2167e-05
26 *697:278 0.00214989
27 *697:254 0.000608905
28 *697:248 0.00357341
29 *697:234 0.000551272
30 *697:230 0.00166586
31 *697:218 0.00104165
32 *697:206 0.00136266
33 *697:202 0.00242856
34 *697:194 0.0031227
35 *697:167 0.00121267
36 *697:165 0.00254058
37 *697:156 0.00152092
38 *697:147 0.0003135
39 *697:141 0.000289887
40 *697:129 0.00107128
41 *697:125 0.00286173
42 *697:91 0.00137294
43 *697:77 0.000236275
44 *697:75 0.00281238
45 *697:59 0.00218287
46 *697:34 0.00088658
47 *697:29 0.00088658
48 *697:27 6.48986e-05
49 *697:21 0.000470738
50 *697:19 0.00127052
51 *697:17 0.00117273
52 *697:11 0.00481635
53 *697:6 0.00282113
54 *3330:A *751:33 0
55 *3330:A *1175:56 0
56 *3331:A *719:47 0
57 *3331:A *1180:60 0
58 *3332:A *3217:RESET_B 0
59 *3337:A *822:14 0
60 *3337:A *824:46 0
61 *3338:A *2878:B1 0
62 *3338:A *870:39 0
63 *697:11 *753:18 0
64 *697:11 *766:32 0
65 *697:11 *766:36 0
66 *697:11 *790:18 0
67 *697:11 *864:57 0
68 *697:11 *873:88 0
69 *697:11 *878:59 0
70 *697:11 *885:159 0
71 *697:17 *2922:B1 0
72 *697:17 *759:39 0
73 *697:17 *766:32 0
74 *697:17 *819:35 0
75 *697:17 *885:142 0
76 *697:17 *885:159 0
77 *697:21 *707:30 0
78 *697:21 *819:35 0
79 *697:21 *885:99 0
80 *697:27 *707:8 0
81 *697:27 *707:16 0
82 *697:34 *885:99 0
83 *697:34 *885:111 0
84 *697:34 *898:37 0
85 *697:59 *2923:C 0
86 *697:59 *723:54 0
87 *697:59 *819:35 0
88 *697:59 *879:8 0
89 *697:59 *879:26 0
90 *697:75 *2923:B 0
91 *697:75 *2923:C 0
92 *697:75 *3219:RESET_B 0
93 *697:75 *759:10 0
94 *697:75 *820:66 0
95 *697:75 *864:36 0
96 *697:91 *698:89 0
97 *697:91 *724:8 0
98 *697:91 *883:74 0
99 *697:91 *891:37 0
100 *697:125 *2926:B1 0
101 *697:125 *2927:C 0
102 *697:125 *2928:B1 0
103 *697:125 *3227:CLK 0
104 *697:125 *713:42 0
105 *697:125 *723:54 0
106 *697:125 *819:68 0
107 *697:125 *819:83 0
108 *697:129 *819:94 0
109 *697:129 *819:96 0
110 *697:129 *1173:21 0
111 *697:141 *2930:B1 0
112 *697:141 *713:42 0
113 *697:141 *819:94 0
114 *697:147 *3347:A 0
115 *697:147 *713:42 0
116 *697:147 *903:48 0
117 *697:156 *723:54 0
118 *697:156 *903:48 0
119 *697:165 *700:8 0
120 *697:165 *723:54 0
121 *697:165 *731:46 0
122 *697:165 *759:49 0
123 *697:165 *772:8 0
124 *697:165 *834:93 0
125 *697:165 *903:48 0
126 *697:165 *1182:12 0
127 *697:167 *700:8 0
128 *697:167 *731:46 0
129 *697:167 *1182:12 0
130 *697:194 *2880:B1 0
131 *697:194 *711:39 0
132 *697:194 *753:18 0
133 *697:194 *766:36 0
134 *697:194 *859:19 0
135 *697:194 *1185:28 0
136 *697:202 *2864:B1 0
137 *697:202 *3045:B1 0
138 *697:202 *3047:B1 0
139 *697:202 *3047:A2 0
140 *697:202 *3285:RESET_B 0
141 *697:202 *3285:D 0
142 *697:202 *711:39 0
143 *697:202 *743:14 0
144 *697:202 *821:42 0
145 *697:202 *822:14 0
146 *697:202 *873:78 0
147 *697:202 *1185:18 0
148 *697:202 *1185:28 0
149 *697:206 *877:50 0
150 *697:206 *1166:62 0
151 *697:218 *825:38 0
152 *697:218 *877:44 0
153 *697:218 *877:50 0
154 *697:218 *895:42 0
155 *697:218 *1166:62 0
156 *697:230 *859:19 0
157 *697:230 *872:23 0
158 *697:234 *822:72 0
159 *697:234 *824:46 0
160 *697:248 *3013:B 0
161 *697:248 *823:43 0
162 *697:248 *859:19 0
163 *697:248 *872:23 0
164 *697:254 *2878:B1 0
165 *697:254 *870:45 0
166 *697:254 *870:56 0
167 *697:254 *887:59 0
168 *697:278 *2873:B 0
169 *697:278 *2993:D 0
170 *697:278 *3203:RESET_B 0
171 *697:278 *3259:RESET_B 0
172 *697:278 *701:8 0
173 *697:278 *701:10 0
174 *697:278 *870:56 0
175 *697:278 *870:79 0
176 *697:278 *887:59 0
177 *697:278 *1187:43 0
178 *697:278 *1188:12 0
179 *697:282 *701:8 0
180 *697:282 *1187:43 0
181 *697:289 *701:38 0
182 *697:289 *769:37 0
183 *697:297 *2784:A2 0
184 *697:297 *2816:A2 0
185 *697:297 *3155:RESET_B 0
186 *697:297 *3157:CLK 0
187 *697:297 *701:64 0
188 *697:297 *907:100 0
189 *697:297 *1179:63 0
190 *697:301 *831:33 0
191 *697:301 *1187:51 0
192 *697:315 *3171:CLK 0
193 *697:315 *704:8 0
194 *697:315 *781:27 0
195 *697:315 *831:23 0
196 *697:315 *831:33 0
197 *697:315 *831:97 0
198 *697:329 *701:38 0
199 *697:329 *768:16 0
200 *697:329 *769:37 0
201 *2867:A *697:202 0
202 *2879:B *697:278 0
203 *2928:A2 *697:125 0
204 *2992:A2 *697:278 0
205 *3048:A *697:202 0
206 *3048:B *697:202 0
207 *3155:D *697:297 0
208 *3219:D *697:75 0
209 *3259:D *697:278 0
210 *3:18 *697:91 0
211 *3:26 *697:11 0
212 *299:10 *697:17 0
213 *315:12 *697:248 0
214 *361:35 *697:11 0
215 *363:16 *3332:A 0
216 *363:16 *697:75 0
217 *363:16 *697:77 0
218 *363:22 *697:59 0
219 *364:12 *697:218 0
220 *375:24 *697:278 0
221 *392:18 *697:301 0
222 *422:24 *697:165 0
223 *430:8 *697:167 0
224 *458:32 *697:301 0
225 *496:10 *3337:A 0
226 *496:53 *697:234 0
227 *513:10 *697:254 0
228 *515:10 *697:194 0
229 *515:10 *697:230 0
230 *517:10 *697:248 0
231 *546:8 *697:34 0
232 *546:112 *697:21 0
233 *546:112 *697:34 0
234 *546:127 *697:17 0
235 *547:8 *697:21 0
236 *553:14 *697:125 0
237 *555:12 *697:125 0
238 *597:12 *697:248 0
239 *599:10 *697:248 0
240 *639:10 *697:218 0
241 *665:10 *697:129 0
*RES
1 *3324:X *697:6 40 
2 *697:6 *697:11 16.6654 
3 *697:11 *697:17 30.5884 
4 *697:17 *697:19 20 
5 *697:19 *697:21 3.5638 
6 *697:21 *697:27 20.5356 
7 *697:27 *697:29 20 
8 *697:29 *697:34 7.519 
9 *697:34 *3333:A 40 
10 *697:27 *3334:A 20 
11 *697:19 *697:59 46.9834 
12 *697:59 *697:75 34.5024 
13 *697:75 *697:77 1.1845 
14 *697:77 *3332:A 21.1845 
15 *697:75 *697:91 31.4742 
16 *697:91 *3325:A 40 
17 *697:11 *697:125 35.4706 
18 *697:125 *697:129 29.4966 
19 *697:129 *3339:A 40 
20 *697:125 *697:141 1.4008 
21 *697:141 *697:147 1.0368 
22 *697:147 *3340:A 20 
23 *697:147 *697:156 1.9411 
24 *697:156 *697:165 32.0407 
25 *697:165 *697:167 9.7438 
26 *697:167 *3326:A 40 
27 *697:165 *3327:A 40 
28 *697:6 *697:194 47.5705 
29 *697:194 *697:202 34.2921 
30 *697:202 *697:206 22.8222 
31 *697:206 *3335:A 40 
32 *697:206 *697:218 9.4966 
33 *697:218 *3336:A 40 
34 *697:194 *697:230 2.0806 
35 *697:230 *697:234 23.7801 
36 *697:234 *3337:A 20.9682 
37 *697:230 *697:248 28.5078 
38 *697:248 *697:254 3.1613 
39 *697:254 *3338:A 20.9682 
40 *697:248 *697:278 17.6947 
41 *697:278 *697:282 0.9682 
42 *697:282 *697:284 20 
43 *697:284 *697:289 1.339 
44 *697:289 *697:297 30.9678 
45 *697:297 *697:299 20 
46 *697:299 *697:301 3.3166 
47 *697:301 *3330:A 40.5356 
48 *697:299 *697:315 7.519 
49 *697:315 *3331:A 40.5356 
50 *697:289 *697:329 8.2606 
51 *697:329 *3329:A 40 
52 *697:282 *3328:A 20 
*END

*D_NET *698 0.0201116
*CONN
*I *3319:CLK I *D sg13g2_dfrbpq_1
*I *3253:CLK I *D sg13g2_dfrbpq_1
*I *3251:CLK I *D sg13g2_dfrbpq_1
*I *3309:CLK I *D sg13g2_dfrbpq_1
*I *3305:CLK I *D sg13g2_dfrbpq_1
*I *3317:CLK I *D sg13g2_dfrbpq_1
*I *3315:CLK I *D sg13g2_dfrbpq_1
*I *3325:X O *D sg13g2_buf_8
*CAP
1 *3319:CLK 5.03155e-05
2 *3253:CLK 8.2835e-05
3 *3251:CLK 0
4 *3309:CLK 0.000633515
5 *3305:CLK 0.000499274
6 *3317:CLK 0.000587495
7 *3315:CLK 0.000345987
8 *3325:X 0.000909494
9 *698:89 0.000785723
10 *698:40 0.00151442
11 *698:38 0.000876733
12 *698:36 0.000577932
13 *698:12 0.00161599
14 *698:6 0.000856591
15 *3253:CLK *883:70 0.000288173
16 *3305:CLK *862:46 2.14736e-05
17 *3305:CLK *890:14 0
18 *3309:CLK *3086:A 0.000112826
19 *3309:CLK *856:22 0
20 *3309:CLK *883:39 0
21 *3315:CLK *2980:C 0
22 *3315:CLK *722:10 0
23 *3315:CLK *722:14 0
24 *3315:CLK *722:39 0
25 *3317:CLK *866:43 0
26 *3317:CLK *889:79 0
27 *3319:CLK *3341:A 8.00842e-05
28 *698:6 *3100:D 0.000176658
29 *698:6 *866:66 1.54008e-05
30 *698:12 *866:43 0.000241716
31 *698:12 *866:66 0.000744757
32 *698:38 *757:8 0
33 *698:38 *883:62 0
34 *698:38 *883:70 0.000607938
35 *698:40 *3086:A 0
36 *698:40 *3088:C 0.000124547
37 *698:40 *862:46 7.30101e-05
38 *698:40 *883:62 0
39 *698:40 *884:52 0.000124862
40 *698:89 *883:74 0.00060572
41 *3090:A *3305:CLK 0.00027448
42 *3090:B *3305:CLK 1.54556e-05
43 *3111:A2 *3317:CLK 0.000538973
44 *3115:A2 *698:89 0.0002287
45 *3403:A *3309:CLK 0
46 *3:18 *3305:CLK 0
47 *3:18 *698:40 0
48 *3:18 *698:89 0
49 *312:10 *698:40 0.000553661
50 *313:8 *698:38 0
51 *339:10 *3305:CLK 0.00024211
52 *345:14 *3317:CLK 0.000345425
53 *352:16 *3315:CLK 0
54 *352:16 *698:6 0
55 *352:16 *698:12 0.00118088
56 *355:24 *3309:CLK 0.00108494
57 *571:12 *698:38 0.000182023
58 *571:12 *698:40 0.000872356
59 *571:16 *3253:CLK 0
60 *571:16 *698:38 0
61 *571:37 *3253:CLK 0
62 *580:26 *3305:CLK 1.54556e-05
63 *671:8 *3309:CLK 0.000518294
64 *671:14 *3309:CLK 0.000307166
65 *671:25 *3315:CLK 0.000454387
66 *671:25 *3317:CLK 0.000346605
67 *671:47 *698:89 0.000368718
68 *671:93 *3309:CLK 0
69 *673:12 *3305:CLK 0
70 *673:12 *3309:CLK 0
71 *674:8 *3305:CLK 0
72 *687:10 *3315:CLK 0
73 *695:14 *698:89 2.84525e-05
74 *697:91 *698:89 0
*RES
1 *3325:X *698:6 21.6171 
2 *698:6 *698:12 28.24 
3 *698:12 *3315:CLK 44.2642 
4 *698:12 *3317:CLK 46.5302 
5 *698:6 *698:36 20 
6 *698:36 *698:38 5.5414 
7 *698:38 *698:40 5.5414 
8 *698:40 *3305:CLK 44.841 
9 *698:40 *3309:CLK 47.9928 
10 *698:38 *3251:CLK 40 
11 *698:36 *3253:CLK 41.339 
12 *3325:X *698:89 47.5602 
13 *698:89 *3319:CLK 40.5356 
*END

*D_NET *699 0.0146672
*CONN
*I *3137:CLK I *D sg13g2_dfrbpq_1
*I *3129:CLK I *D sg13g2_dfrbpq_1
*I *3348:A I *D sg13g2_inv_1
*I *3125:CLK I *D sg13g2_dfrbpq_1
*I *3127:CLK I *D sg13g2_dfrbpq_1
*I *3131:CLK I *D sg13g2_dfrbpq_1
*I *3123:CLK I *D sg13g2_dfrbpq_1
*I *3326:X O *D sg13g2_buf_8
*CAP
1 *3137:CLK 0
2 *3129:CLK 0
3 *3348:A 8.01489e-05
4 *3125:CLK 0
5 *3127:CLK 5.16905e-05
6 *3131:CLK 0.000636948
7 *3123:CLK 0.000329333
8 *3326:X 0.000149973
9 *699:98 9.12315e-05
10 *699:92 0.00115979
11 *699:67 0.00116859
12 *699:28 0.00101809
13 *699:26 0.000218366
14 *699:24 0.00202798
15 *699:22 0.00120698
16 *699:12 0.000841562
17 *699:8 0.00167778
18 *3123:CLK *3127:RESET_B 0
19 *3123:CLK *901:20 0
20 *3123:CLK *1182:12 0
21 *3131:CLK *3127:RESET_B 0
22 *3131:CLK *3131:RESET_B 0
23 *3131:CLK *1172:28 0
24 *3348:A *757:41 0.000144251
25 *699:8 *733:31 0
26 *699:8 *794:27 0.000209506
27 *699:12 *2732:A1 0
28 *699:12 *740:52 0
29 *699:12 *794:27 0
30 *699:12 *963:8 0
31 *699:12 *1058:28 0.000394652
32 *699:22 *2732:A1 0
33 *699:22 *740:52 0
34 *699:22 *755:33 0.000112335
35 *699:22 *1045:10 0
36 *699:24 *909:58 0
37 *699:24 *1182:12 0
38 *699:26 *1182:12 0
39 *699:28 *1182:12 0
40 *699:67 *2718:B1 0.000140153
41 *699:67 *2724:A2 1.54008e-05
42 *699:67 *2735:B2 0
43 *699:67 *828:99 0.000208142
44 *699:67 *901:20 0
45 *699:92 *724:12 0
46 *699:92 *731:46 0
47 *699:92 *733:35 0.00101347
48 *699:92 *733:52 0.000456784
49 *699:92 *740:52 0
50 *699:92 *815:14 0
51 *699:92 *1058:28 7.52158e-05
52 *699:92 *1071:18 0
53 *2721:A1 *699:67 0.000111879
54 *2721:B1 *699:67 0
55 *2729:B1 *699:67 0.000128492
56 *250:12 *699:24 0
57 *250:12 *699:26 0
58 *399:14 *699:67 7.94957e-05
59 *407:20 *3131:CLK 0
60 *407:20 *699:67 0.000500368
61 *410:14 *3348:A 0.000144251
62 *430:8 *699:12 0
63 *430:8 *699:22 0
64 *437:14 *699:92 0
65 *437:18 *699:8 0.000274321
*RES
1 *3326:X *699:8 41.8334 
2 *699:8 *699:12 24.3054 
3 *699:12 *699:22 24.2436 
4 *699:22 *699:24 6.0358 
5 *699:24 *699:26 1.339 
6 *699:26 *699:28 0.5974 
7 *699:28 *3123:CLK 43.7286 
8 *699:28 *3131:CLK 47.0246 
9 *699:26 *3127:CLK 40.229 
10 *699:24 *699:67 31.9686 
11 *699:67 *3125:CLK 20 
12 *699:22 *3348:A 40.9682 
13 *699:12 *3129:CLK 20 
14 *699:8 *699:92 30.8974 
15 *699:92 *699:98 40.5974 
16 *699:98 *3137:CLK 20 
*END

*D_NET *700 0.0141369
*CONN
*I *3139:CLK I *D sg13g2_dfrbpq_1
*I *3153:CLK I *D sg13g2_dfrbpq_1
*I *3141:CLK I *D sg13g2_dfrbpq_1
*I *3149:CLK I *D sg13g2_dfrbpq_1
*I *3135:CLK I *D sg13g2_dfrbpq_1
*I *3349:A I *D sg13g2_inv_1
*I *3147:CLK I *D sg13g2_dfrbpq_1
*I *3327:X O *D sg13g2_buf_8
*CAP
1 *3139:CLK 0
2 *3153:CLK 8.74601e-05
3 *3141:CLK 0.000439863
4 *3149:CLK 0
5 *3135:CLK 4.97797e-05
6 *3349:A 5.48086e-05
7 *3147:CLK 0
8 *3327:X 0.000395214
9 *700:69 0.00115273
10 *700:65 0.00084217
11 *700:53 0.00078889
12 *700:36 0.00151877
13 *700:20 0.000827012
14 *700:12 0.00109656
15 *700:8 0.00107329
16 *3135:CLK *759:71 0
17 *3141:CLK *2754:A2 0.000208327
18 *3141:CLK *3153:RESET_B 1.54008e-05
19 *3141:CLK *744:47 0
20 *3141:CLK *745:28 0
21 *3141:CLK *834:14 0.000240669
22 *3349:A *723:54 0
23 *3349:A *830:29 0
24 *700:8 *1182:12 0
25 *700:12 *1182:12 0
26 *700:20 *2768:A1 0
27 *700:20 *3373:A 0
28 *700:20 *723:54 0
29 *700:20 *769:27 0
30 *700:20 *830:29 0
31 *700:20 *840:14 0.000341621
32 *700:20 *1173:40 0
33 *700:20 *1182:12 0
34 *700:36 *2744:B1 0
35 *700:36 *2744:A1 0.000112289
36 *700:36 *2834:A1 0
37 *700:36 *3139:RESET_B 1.54008e-05
38 *700:36 *759:49 0
39 *700:36 *838:10 0.000207854
40 *700:53 *2783:B2 0
41 *700:53 *2834:A1 0.000175513
42 *700:53 *759:55 0
43 *700:53 *760:26 0
44 *700:53 *804:12 0
45 *700:53 *838:10 1.54008e-05
46 *700:53 *961:8 0.000334913
47 *700:65 *2750:B1 0
48 *700:65 *834:93 0.000305593
49 *700:69 *2754:A2 0
50 *700:69 *840:10 0.00112968
51 *700:69 *840:14 0.000339636
52 *700:69 *1173:40 0
53 *2753:A2 *700:36 0
54 *2773:A1 *700:53 0.000390043
55 *79:12 *700:36 0
56 *79:12 *700:53 0
57 *389:24 *3153:CLK 0.000446132
58 *389:24 *700:69 0.000600563
59 *393:37 *3153:CLK 0.000424381
60 *393:37 *700:69 0.000394285
61 *434:14 *700:53 0.000112644
62 *697:165 *700:8 0
63 *697:167 *700:8 0
*RES
1 *3327:X *700:8 41.339 
2 *700:8 *700:12 21.5862 
3 *700:12 *700:20 47.8692 
4 *700:20 *3147:CLK 20 
5 *700:12 *3349:A 20.5356 
6 *700:8 *700:36 26.1594 
7 *700:36 *3135:CLK 20.5974 
8 *700:36 *700:53 47.6632 
9 *700:53 *3149:CLK 20 
10 *3327:X *700:65 22.0497 
11 *700:65 *700:69 29.0022 
12 *700:69 *3141:CLK 44.5938 
13 *700:69 *3153:CLK 42.0806 
14 *700:65 *3139:CLK 20 
*END

*D_NET *701 0.0140069
*CONN
*I *3161:CLK I *D sg13g2_dfrbpq_1
*I *3155:CLK I *D sg13g2_dfrbpq_1
*I *3157:CLK I *D sg13g2_dfrbpq_1
*I *3201:CLK I *D sg13g2_dfrbpq_1
*I *3195:CLK I *D sg13g2_dfrbpq_1
*I *3259:CLK I *D sg13g2_dfrbpq_1
*I *3203:CLK I *D sg13g2_dfrbpq_1
*I *3328:X O *D sg13g2_buf_8
*CAP
1 *3161:CLK 0.00103777
2 *3155:CLK 0.000184701
3 *3157:CLK 0.000652705
4 *3201:CLK 0
5 *3195:CLK 0.000785645
6 *3259:CLK 0
7 *3203:CLK 2.77263e-05
8 *3328:X 0
9 *701:77 0.00146067
10 *701:64 0.00113832
11 *701:38 0.00123107
12 *701:29 0.000563887
13 *701:10 0.000839482
14 *701:8 0.000912224
15 *701:4 0.000466346
16 *3155:CLK *2784:A1 0
17 *3155:CLK *979:22 0.00027465
18 *3157:CLK *2782:A2 0.000338322
19 *3157:CLK *767:29 0
20 *3157:CLK *772:25 0
21 *3157:CLK *1187:43 0
22 *3161:CLK *702:35 0.000341119
23 *3161:CLK *767:29 0
24 *3161:CLK *772:25 0
25 *3161:CLK *979:22 0.000864489
26 *3195:CLK *746:25 0
27 *3195:CLK *746:31 0
28 *3195:CLK *750:10 0
29 *3195:CLK *768:16 0.000288173
30 *3195:CLK *822:102 0.000296822
31 *3195:CLK *1170:35 0
32 *3195:CLK *1174:68 0
33 *3195:CLK *1178:31 0
34 *701:29 *3259:RESET_B 0
35 *701:29 *799:22 0.000555736
36 *701:29 *1188:12 0
37 *701:29 *1192:32 0
38 *701:38 *768:16 0.00149015
39 *701:38 *769:37 0
40 *701:38 *1016:10 0
41 *701:38 *1170:35 0
42 *701:64 *2784:A2 8.00842e-05
43 *701:77 *767:29 0
44 *3007:B *701:29 0
45 *3155:D *3157:CLK 0.000176781
46 *697:278 *701:8 0
47 *697:278 *701:10 0
48 *697:282 *701:8 0
49 *697:289 *701:38 0
50 *697:297 *3157:CLK 0
51 *697:297 *701:64 0
52 *697:329 *701:38 0
*RES
1 *3328:X *701:4 20 
2 *701:4 *701:8 2.4308 
3 *701:8 *701:10 2.266 
4 *701:10 *3203:CLK 20.3502 
5 *701:10 *701:29 47.0246 
6 *701:29 *3259:CLK 20 
7 *701:8 *701:38 27.0246 
8 *701:38 *3195:CLK 47.9516 
9 *701:38 *3201:CLK 40 
10 *701:4 *701:64 22.266 
11 *701:64 *3157:CLK 46.077 
12 *701:64 *701:77 1.8334 
13 *701:77 *3155:CLK 41.8334 
14 *701:77 *3161:CLK 49.4966 
*END

*D_NET *702 0.0118671
*CONN
*I *3121:CLK I *D sg13g2_dfrbpq_1
*I *3269:CLK I *D sg13g2_dfrbpq_1
*I *3271:CLK I *D sg13g2_dfrbpq_1
*I *3187:CLK I *D sg13g2_dfrbpq_1
*I *3163:CLK I *D sg13g2_dfrbpq_1
*I *3350:A I *D sg13g2_inv_1
*I *3265:CLK I *D sg13g2_dfrbpq_1
*I *3329:X O *D sg13g2_buf_8
*CAP
1 *3121:CLK 0
2 *3269:CLK 0
3 *3271:CLK 0.000199556
4 *3187:CLK 1.38632e-05
5 *3163:CLK 0.000379262
6 *3350:A 0
7 *3265:CLK 0.000724874
8 *3329:X 0.000810323
9 *702:69 0.00101975
10 *702:61 0.00125352
11 *702:48 0.00126082
12 *702:37 0.00119289
13 *702:35 0.000496731
14 *702:10 0.00103847
15 *3163:CLK *2800:A1 0
16 *3163:CLK *773:31 0.000306832
17 *3163:CLK *801:25 0
18 *3163:CLK *835:49 0
19 *3265:CLK *1180:37 0.00117976
20 *3265:CLK *1190:25 0
21 *3265:CLK *1190:31 0
22 *702:10 *2794:A2 0
23 *702:10 *1180:37 0
24 *702:10 *1190:31 0
25 *702:35 *767:29 0.000979993
26 *702:35 *772:25 0
27 *702:35 *1183:31 0
28 *702:35 *1186:39 0.000305975
29 *702:48 *2846:C 0
30 *702:48 *763:32 0
31 *702:48 *801:25 0
32 *702:48 *1001:8 0
33 *702:61 *2846:C 0
34 *702:61 *2846:A_N 7.43486e-05
35 *702:61 *3121:RESET_B 0
36 *702:61 *1001:8 0
37 *702:69 *3121:RESET_B 1.54008e-05
38 *702:69 *1186:25 0
39 *702:69 *1186:39 0
40 *3161:CLK *702:35 0.000341119
41 *375:12 *3271:CLK 0.000273617
42 *375:12 *702:69 0
43 *388:10 *702:48 0
44 *389:12 *3163:CLK 0
45 *389:12 *702:48 0
*RES
1 *3329:X *702:10 23.2136 
2 *702:10 *3265:CLK 28.24 
3 *702:10 *3350:A 20 
4 *3329:X *702:35 46.6023 
5 *702:35 *702:37 20 
6 *702:37 *3163:CLK 24.2127 
7 *702:37 *702:48 8.0237 
8 *702:48 *3187:CLK 20.3502 
9 *702:48 *702:61 4.4496 
10 *702:61 *702:69 48.7344 
11 *702:69 *3271:CLK 22.1836 
12 *702:69 *3269:CLK 20 
13 *702:61 *3121:CLK 20 
*END

*D_NET *703 0.0150587
*CONN
*I *3351:A I *D sg13g2_inv_1
*I *3159:CLK I *D sg13g2_dfrbpq_1
*I *3179:CLK I *D sg13g2_dfrbpq_1
*I *3181:CLK I *D sg13g2_dfrbpq_1
*I *3183:CLK I *D sg13g2_dfrbpq_1
*I *3173:CLK I *D sg13g2_dfrbpq_1
*I *3167:CLK I *D sg13g2_dfrbpq_1
*I *3330:X O *D sg13g2_buf_8
*CAP
1 *3351:A 0.000162656
2 *3159:CLK 0.000313367
3 *3179:CLK 0
4 *3181:CLK 0.000386339
5 *3183:CLK 0
6 *3173:CLK 0.000661794
7 *3167:CLK 0
8 *3330:X 0.000553167
9 *703:44 0.000677058
10 *703:40 0.000820655
11 *703:25 0.00154344
12 *703:16 0.000903844
13 *703:10 0.00125602
14 *3159:CLK *2792:A1 0.000144673
15 *3159:CLK *726:46 0.000466242
16 *3159:CLK *837:69 0
17 *3159:CLK *837:76 0
18 *3173:CLK *2818:B1 0
19 *3173:CLK *785:23 0.00023464
20 *3173:CLK *832:35 0
21 *3173:CLK *1176:50 0
22 *3181:CLK *2836:A1 0.000176098
23 *3181:CLK *854:10 0
24 *3181:CLK *1070:14 2.22695e-05
25 *3351:A *3715:A 0
26 *3351:A *751:33 0
27 *703:10 *3715:A 0
28 *703:10 *1173:44 0.00014416
29 *703:16 *2808:A1 0.000144893
30 *703:16 *750:26 0.000466853
31 *703:16 *907:41 0
32 *703:25 *2808:A1 0.000257609
33 *703:25 *750:26 0.000596739
34 *703:25 *907:65 0
35 *703:40 *2831:A1 0.000128219
36 *703:40 *2832:A1 0.000144768
37 *703:40 *2832:A2 0.000595498
38 *703:40 *785:23 0.000371726
39 *703:40 *832:35 0
40 *703:40 *854:65 0
41 *703:44 *1070:14 0.00150874
42 *3397:A *3181:CLK 0.00033743
43 *392:18 *703:10 0
44 *392:18 *703:16 0
45 *458:32 *703:10 0
46 *458:32 *703:16 0
47 *473:14 *3181:CLK 0.000530647
48 *473:14 *703:44 0.00150915
49 *486:12 *3181:CLK 0
*RES
1 *3330:X *703:10 43.5432 
2 *703:10 *703:16 25.2118 
3 *703:16 *3167:CLK 20 
4 *703:16 *703:25 23.9964 
5 *703:25 *3173:CLK 45.5414 
6 *703:25 *703:40 25.8298 
7 *703:40 *703:44 27.0246 
8 *703:44 *3183:CLK 40 
9 *703:44 *3181:CLK 44.841 
10 *703:40 *3179:CLK 20 
11 *703:10 *3159:CLK 43.1312 
12 *3330:X *3351:A 41.4008 
*END

*D_NET *704 0.0104348
*CONN
*I *3175:CLK I *D sg13g2_dfrbpq_1
*I *3185:CLK I *D sg13g2_dfrbpq_1
*I *3177:CLK I *D sg13g2_dfrbpq_1
*I *3169:CLK I *D sg13g2_dfrbpq_1
*I *3165:CLK I *D sg13g2_dfrbpq_1
*I *3343:A I *D sg13g2_inv_1
*I *3171:CLK I *D sg13g2_dfrbpq_1
*I *3331:X O *D sg13g2_buf_8
*CAP
1 *3175:CLK 3.72826e-05
2 *3185:CLK 0.000257943
3 *3177:CLK 0
4 *3169:CLK 0
5 *3165:CLK 0
6 *3343:A 0
7 *3171:CLK 0.000401742
8 *3331:X 0.00074945
9 *704:55 0.000480884
10 *704:45 0.00132325
11 *704:39 0.00186069
12 *704:33 0.00145523
13 *704:8 0.000493628
14 *3171:CLK *781:27 0
15 *3171:CLK *1192:32 0
16 *3175:CLK *719:47 0
17 *3175:CLK *1183:56 1.65559e-05
18 *3185:CLK *2844:A2 0
19 *3185:CLK *3185:RESET_B 0
20 *3185:CLK *788:25 0
21 *3185:CLK *801:25 0
22 *704:8 *1192:32 0
23 *704:33 *719:47 0.00101673
24 *704:33 *831:12 0
25 *704:33 *1180:60 0.00101669
26 *704:39 *2824:A1 0
27 *704:39 *2828:A1 0
28 *704:39 *3691:A 0
29 *704:39 *789:29 0
30 *704:39 *1180:60 0
31 *704:45 *2828:A1 0
32 *704:45 *2844:A2 0
33 *704:45 *3381:A 0
34 *704:45 *780:29 0.000176432
35 *704:45 *788:25 0
36 *704:45 *801:25 0
37 *704:55 *776:29 0
38 *704:55 *780:16 0.000754133
39 *704:55 *780:29 0
40 *704:55 *801:25 0
41 *704:55 *1186:39 0
42 *392:12 *3171:CLK 0.000394151
43 *476:20 *704:39 0
44 *477:10 *704:39 0
45 *697:315 *3171:CLK 0
46 *697:315 *704:8 0
*RES
1 *3331:X *704:8 40.8446 
2 *704:8 *3171:CLK 43.811 
3 *704:8 *3343:A 40 
4 *3331:X *704:33 27.8383 
5 *704:33 *704:39 47.2718 
6 *704:39 *704:45 8.26188 
7 *704:45 *704:55 45.5285 
8 *704:55 *3165:CLK 20 
9 *704:45 *3169:CLK 20 
10 *704:39 *3177:CLK 20 
11 *704:39 *3185:CLK 22.6162 
12 *704:33 *3175:CLK 20.4609 
*END

*D_NET *705 0.0116066
*CONN
*I *3341:A I *D sg13g2_inv_1
*I *3219:CLK I *D sg13g2_dfrbpq_1
*I *3213:CLK I *D sg13g2_dfrbpq_1
*I *3217:CLK I *D sg13g2_dfrbpq_1
*I *3211:CLK I *D sg13g2_dfrbpq_1
*I *3209:CLK I *D sg13g2_dfrbpq_1
*I *3189:CLK I *D sg13g2_dfrbpq_1
*I *3332:X O *D sg13g2_buf_8
*CAP
1 *3341:A 0.000427564
2 *3219:CLK 0.00086618
3 *3213:CLK 0
4 *3217:CLK 0
5 *3211:CLK 0.000318302
6 *3209:CLK 0
7 *3189:CLK 0.000421996
8 *3332:X 0
9 *705:58 0.00104905
10 *705:51 0.000802311
11 *705:23 0.000710935
12 *705:12 0.00170685
13 *705:6 0.00172734
14 *705:4 0.000643253
15 *3189:CLK *3189:RESET_B 0
16 *3189:CLK *885:33 0
17 *3189:CLK *1162:12 0
18 *3189:CLK *1164:22 0
19 *3211:CLK *861:26 0.000215703
20 *3219:CLK *2897:B1 0
21 *3219:CLK *2917:A1 0
22 *3219:CLK *735:23 0.00027372
23 *3219:CLK *736:29 0
24 *3219:CLK *741:22 0
25 *3219:CLK *744:16 0
26 *3341:A *723:32 0
27 *3341:A *856:94 0
28 *705:6 *723:32 0
29 *705:6 *1164:29 0
30 *705:6 *1164:42 0
31 *705:12 *723:12 0
32 *705:12 *723:32 1.54556e-05
33 *705:12 *1164:22 0
34 *705:12 *1164:29 0
35 *705:23 *723:12 0.000130055
36 *705:23 *861:26 0.000886308
37 *705:58 *735:23 0.000274781
38 *705:58 *736:29 0
39 *2920:A *3219:CLK 0.000112545
40 *3319:CLK *3341:A 8.00842e-05
41 *295:10 *705:51 0.000660557
42 *358:18 *3211:CLK 0.000171356
43 *362:22 *3211:CLK 0.00011224
44 *363:16 *3189:CLK 0
45 *363:16 *705:12 0
*RES
1 *3332:X *705:4 20 
2 *705:4 *705:6 2.0497 
3 *705:6 *705:12 8.343 
4 *705:12 *3189:CLK 23.9964 
5 *705:12 *705:23 24.7998 
6 *705:23 *3209:CLK 40 
7 *705:23 *3211:CLK 43.3501 
8 *705:6 *705:51 48.0134 
9 *705:51 *3217:CLK 20 
10 *705:51 *705:58 1.8334 
11 *705:58 *3213:CLK 20 
12 *705:58 *3219:CLK 28.24 
13 *705:4 *3341:A 23.7801 
*END

*D_NET *706 0.0128828
*CONN
*I *3307:CLK I *D sg13g2_dfrbpq_1
*I *3247:CLK I *D sg13g2_dfrbpq_1
*I *3249:CLK I *D sg13g2_dfrbpq_1
*I *3245:CLK I *D sg13g2_dfrbpq_1
*I *3241:CLK I *D sg13g2_dfrbpq_1
*I *3313:CLK I *D sg13g2_dfrbpq_1
*I *3243:CLK I *D sg13g2_dfrbpq_1
*I *3333:X O *D sg13g2_buf_8
*CAP
1 *3307:CLK 0.00063264
2 *3247:CLK 0.000291191
3 *3249:CLK 0
4 *3245:CLK 0.000600507
5 *3241:CLK 0.000859927
6 *3313:CLK 6.68694e-05
7 *3243:CLK 0.000489232
8 *3333:X 0.000830758
9 *706:29 0.00127911
10 *706:14 0.000935541
11 *706:12 0.000843268
12 *706:10 0.000543733
13 *706:8 0.000884278
14 *3241:CLK *3103:B1 4.77425e-05
15 *3241:CLK *3105:B1 0
16 *3241:CLK *3105:A1 8.00842e-05
17 *3245:CLK *3249:RESET_B 0
18 *3245:CLK *721:28 0
19 *3247:CLK *2967:B1 0.000551913
20 *3247:CLK *755:8 0.00026599
21 *3247:CLK *818:10 0.000817402
22 *3247:CLK *818:14 0.000371639
23 *3247:CLK *885:99 0
24 *3307:CLK *722:39 0
25 *706:8 *757:27 0
26 *706:8 *892:6 0
27 *706:10 *3103:A1 0
28 *706:10 *3432:A 0
29 *706:10 *807:102 0
30 *706:10 *818:14 0.000554076
31 *706:10 *818:20 0
32 *706:12 *3103:A1 0
33 *2966:A *3245:CLK 0.000209725
34 *3249:D *706:29 0
35 *307:14 *3241:CLK 0
36 *309:8 *3243:CLK 0
37 *309:16 *3243:CLK 0
38 *309:16 *3245:CLK 0
39 *311:8 *706:12 0
40 *311:8 *706:14 0
41 *359:20 *3307:CLK 0
42 *359:24 *706:8 8.01116e-05
43 *571:103 *3247:CLK 0.000340288
44 *571:103 *706:10 0.00066014
45 *577:8 *706:12 0
46 *580:26 *3241:CLK 4.79017e-05
47 *580:26 *3243:CLK 0
48 *580:26 *3245:CLK 0
49 *580:26 *706:29 0.00059874
*RES
1 *3333:X *706:8 41.8334 
2 *706:8 *706:10 5.2942 
3 *706:10 *706:12 1.8334 
4 *706:12 *706:14 1.0918 
5 *706:14 *3243:CLK 45.3354 
6 *706:14 *706:29 23.9964 
7 *706:29 *3313:CLK 20.8446 
8 *706:29 *3241:CLK 28.4872 
9 *706:12 *3245:CLK 46.228 
10 *706:10 *3249:CLK 40 
11 *706:8 *3247:CLK 46.0358 
12 *3333:X *3307:CLK 46.1079 
*END

*D_NET *707 0.0134774
*CONN
*I *3255:CLK I *D sg13g2_dfrbpq_1
*I *3237:CLK I *D sg13g2_dfrbpq_1
*I *3289:CLK I *D sg13g2_dfrbpq_1
*I *3235:CLK I *D sg13g2_dfrbpq_1
*I *3225:CLK I *D sg13g2_dfrbpq_1
*I *3342:A I *D sg13g2_inv_1
*I *3311:CLK I *D sg13g2_dfrbpq_1
*I *3334:X O *D sg13g2_buf_8
*CAP
1 *3255:CLK 0.000763217
2 *3237:CLK 0.000955835
3 *3289:CLK 0.000521981
4 *3235:CLK 0.000446091
5 *3225:CLK 0
6 *3342:A 0
7 *3311:CLK 0.000677586
8 *3334:X 0.000360538
9 *707:81 0.000876852
10 *707:39 0.00137093
11 *707:30 0.000594869
12 *707:16 0.000969043
13 *707:10 0.000483468
14 *707:8 0.00120274
15 *3235:CLK *2923:C 0
16 *3235:CLK *2927:C 0
17 *3235:CLK *819:12 0
18 *3237:CLK *3080:A1 0
19 *3237:CLK *758:38 0
20 *3255:CLK *759:39 0
21 *3255:CLK *856:94 0.000403789
22 *3255:CLK *885:64 0
23 *3255:CLK *892:64 0
24 *3289:CLK *3054:B1 0.00039332
25 *3289:CLK *725:10 0.000212127
26 *3289:CLK *864:38 0.000274643
27 *3289:CLK *889:64 0
28 *3311:CLK *3225:RESET_B 0
29 *3311:CLK *758:32 0
30 *707:8 *3225:RESET_B 0
31 *707:8 *758:32 0
32 *707:16 *885:99 0
33 *707:39 *2922:B1 0
34 *707:81 *885:76 0.000181192
35 *2924:A2 *3255:CLK 0.000177542
36 *2925:A *3255:CLK 0
37 *2925:A *707:81 4.77425e-05
38 *2945:A *3235:CLK 0
39 *3054:A2 *707:30 0
40 *3054:A2 *707:39 0
41 *299:10 *707:16 0.000179858
42 *299:10 *707:30 0.000318191
43 *299:10 *707:81 0.000112563
44 *305:16 *3237:CLK 0.00014502
45 *357:28 *3237:CLK 0
46 *357:28 *3311:CLK 0
47 *357:28 *707:16 0
48 *546:112 *707:81 0
49 *546:127 *3235:CLK 0.000338165
50 *546:127 *707:39 0
51 *547:8 *707:81 0.00012816
52 *646:10 *707:16 0
53 *646:10 *707:30 0
54 *646:14 *3237:CLK 0.00134196
55 *647:8 *3289:CLK 0
56 *697:21 *707:30 0
57 *697:27 *707:8 0
58 *697:27 *707:16 0
*RES
1 *3334:X *707:8 22.6162 
2 *707:8 *707:10 20 
3 *707:10 *707:16 23.1724 
4 *707:16 *3311:CLK 26.1594 
5 *707:16 *3342:A 20 
6 *707:10 *707:30 2.575 
7 *707:30 *3225:CLK 40 
8 *707:30 *707:39 4.0582 
9 *707:39 *3235:CLK 44.3466 
10 *707:39 *3289:CLK 46.386 
11 *707:8 *3237:CLK 30.403 
12 *3334:X *707:81 41.5965 
13 *707:81 *3255:CLK 47.725 
*END

*D_NET *708 0.0194819
*CONN
*I *3275:CLK I *D sg13g2_dfrbpq_1
*I *3215:CLK I *D sg13g2_dfrbpq_1
*I *3273:CLK I *D sg13g2_dfrbpq_1
*I *3277:CLK I *D sg13g2_dfrbpq_1
*I *3221:CLK I *D sg13g2_dfrbpq_1
*I *3223:CLK I *D sg13g2_dfrbpq_1
*I *3285:CLK I *D sg13g2_dfrbpq_1
*I *3335:X O *D sg13g2_buf_8
*CAP
1 *3275:CLK 0
2 *3215:CLK 8.8272e-05
3 *3273:CLK 0.000300395
4 *3277:CLK 0.000201169
5 *3221:CLK 0
6 *3223:CLK 0.000922494
7 *3285:CLK 0
8 *3335:X 0.000739185
9 *708:90 0.000439106
10 *708:82 0.00188675
11 *708:69 0.00270438
12 *708:59 0.0011391
13 *708:44 0.00081778
14 *708:19 0.00177762
15 *708:8 0.00124873
16 *3223:CLK *742:8 0
17 *3223:CLK *742:21 0
18 *3223:CLK *743:14 0
19 *3223:CLK *744:16 0
20 *3273:CLK *2687:A 0
21 *3273:CLK *3602:A 0.000305521
22 *3273:CLK *3603:A 0
23 *3277:CLK *2918:C 0
24 *3277:CLK *857:84 0
25 *3277:CLK *1178:25 7.52149e-05
26 *708:8 *3045:A1 0
27 *708:8 *3045:B1 0
28 *708:8 *821:42 0
29 *708:8 *1178:31 0
30 *708:19 *3045:B1 0
31 *708:19 *3285:RESET_B 0
32 *708:19 *743:14 0
33 *708:19 *1178:31 0
34 *708:19 *1185:10 0
35 *708:19 *1185:18 0
36 *708:44 *1178:31 0.000499561
37 *708:44 *1179:32 0
38 *708:59 *3025:B1 6.47875e-05
39 *708:59 *1178:25 0.000550926
40 *708:69 *2687:A 0.000175524
41 *708:69 *2689:A 8.03089e-05
42 *708:69 *2702:A 0
43 *708:69 *3025:B1 0.000339294
44 *708:69 *3603:A 0
45 *708:69 *3604:A 0.000177393
46 *708:82 *2895:B1 0.000441963
47 *708:82 *764:21 0
48 *708:82 *809:10 0.000285997
49 *708:82 *867:58 0
50 *708:82 *876:10 0
51 *708:82 *876:33 0.000395949
52 *708:82 *876:39 0.000127305
53 *708:82 *1093:12 0.000399574
54 *708:82 *1123:10 0.000614626
55 *708:82 *1177:16 0.000614793
56 *708:90 *861:38 0
57 *708:90 *873:32 0
58 *708:90 *1104:10 0.000110936
59 *2901:A2 *708:90 4.76452e-05
60 *2904:A *3215:CLK 0.000144104
61 *3045:A2 *708:8 8.03089e-05
62 *366:16 *708:44 0
63 *366:16 *708:69 0
64 *379:22 *708:59 0.00027465
65 *379:22 *708:69 0.000629775
66 *492:22 *708:69 0.000291717
67 *505:8 *708:19 0
68 *521:96 *3223:CLK 0
69 *524:8 *708:82 7.48842e-05
70 *527:10 *708:82 0
71 *540:8 *3223:CLK 0
72 *622:8 *708:82 0.000183828
73 *624:8 *708:82 0.000230373
74 *629:14 *3277:CLK 0
*RES
1 *3335:X *708:8 23.9449 
2 *708:8 *3285:CLK 20 
3 *708:8 *708:19 29.5378 
4 *708:19 *3223:CLK 49.4966 
5 *708:19 *3221:CLK 40 
6 *3335:X *708:44 43.5638 
7 *708:44 *3277:CLK 42.575 
8 *708:44 *708:59 23.6668 
9 *708:59 *708:69 49.1155 
10 *708:69 *3273:CLK 22.8325 
11 *708:69 *708:82 36.4182 
12 *708:82 *708:90 42.7089 
13 *708:90 *3215:CLK 40.9682 
14 *708:59 *3275:CLK 20 
*END

*D_NET *709 0.0102602
*CONN
*I *3287:CLK I *D sg13g2_dfrbpq_1
*I *3283:CLK I *D sg13g2_dfrbpq_1
*I *3344:A I *D sg13g2_inv_1
*I *3321:CLK I *D sg13g2_dfrbpq_1
*I *3191:CLK I *D sg13g2_dfrbpq_1
*I *3281:CLK I *D sg13g2_dfrbpq_1
*I *3279:CLK I *D sg13g2_dfrbpq_1
*I *3336:X O *D sg13g2_buf_8
*CAP
1 *3287:CLK 0.000251
2 *3283:CLK 0
3 *3344:A 0
4 *3321:CLK 0
5 *3191:CLK 0
6 *3281:CLK 0.000219509
7 *3279:CLK 0.00037995
8 *3336:X 0
9 *709:73 0.000723264
10 *709:50 0.00033373
11 *709:42 0.00169149
12 *709:27 0.00189983
13 *709:14 0.00125787
14 *709:8 0.000777858
15 *709:4 0.000694765
16 *3279:CLK *2695:A 0.000274644
17 *3279:CLK *2696:A 0
18 *3279:CLK *2703:A 0
19 *3281:CLK *1167:8 0
20 *3281:CLK *1180:33 0
21 *3287:CLK *1167:8 0
22 *3287:CLK *1180:33 0
23 *709:8 *3283:RESET_B 0
24 *709:14 *3283:RESET_B 0
25 *709:27 *714:48 0
26 *709:27 *1115:18 0
27 *709:27 *1183:14 0
28 *709:42 *2848:B 0.000176608
29 *709:42 *3191:RESET_B 0.000272873
30 *709:42 *3672:A 0
31 *709:42 *3706:A 0.000209746
32 *709:42 *982:12 0
33 *709:42 *1183:14 0
34 *709:50 *3191:RESET_B 0.000290039
35 *709:50 *765:8 0
36 *709:50 *1028:10 0
37 *709:73 *1167:8 0.000371965
38 *709:73 *1180:33 0
39 s_axil_bvalid *709:42 0
40 *2849:B *3279:CLK 0
41 *3372:A *3279:CLK 0
42 *3528:A *709:73 4.77425e-05
43 *171:10 *709:50 0
44 *241:12 *709:42 0
45 *241:12 *709:50 0
46 *330:8 *709:73 0
47 *372:16 *3279:CLK 0.000209681
48 *372:16 *709:14 0
49 *373:22 *709:8 0
50 *373:22 *709:14 0.000177598
51 *375:8 *709:42 0
52 *376:10 *3279:CLK 0
53 *491:10 *709:42 0
*RES
1 *3336:X *709:4 20 
2 *709:4 *709:8 1.9673 
3 *709:8 *709:14 25.0573 
4 *709:14 *3279:CLK 44.1303 
5 *709:14 *709:27 2.8222 
6 *709:27 *3281:CLK 42.0497 
7 *709:27 *709:42 35.3779 
8 *709:42 *709:50 43.7904 
9 *709:50 *3191:CLK 20 
10 *709:42 *3321:CLK 20 
11 *709:8 *3344:A 20 
12 *709:4 *709:73 44.8101 
13 *709:73 *3283:CLK 20 
14 *709:73 *3287:CLK 22.678 
*END

*D_NET *710 0.0134832
*CONN
*I *3345:A I *D sg13g2_inv_1
*I *3207:CLK I *D sg13g2_dfrbpq_1
*I *3293:CLK I *D sg13g2_dfrbpq_1
*I *3291:CLK I *D sg13g2_dfrbpq_1
*I *3299:CLK I *D sg13g2_dfrbpq_1
*I *3199:CLK I *D sg13g2_dfrbpq_1
*I *3193:CLK I *D sg13g2_dfrbpq_1
*I *3337:X O *D sg13g2_buf_8
*CAP
1 *3345:A 0
2 *3207:CLK 4.72978e-05
3 *3293:CLK 0.00017839
4 *3291:CLK 0
5 *3299:CLK 0
6 *3199:CLK 0.000492239
7 *3193:CLK 7.41898e-05
8 *3337:X 4.93372e-05
9 *710:61 0.00122892
10 *710:46 0.00195929
11 *710:40 0.00159126
12 *710:36 0.00108773
13 *710:12 0.000611324
14 *710:10 0.000674511
15 *710:8 0.000321021
16 *3193:CLK *745:12 0.000395789
17 *3193:CLK *814:33 0.000395789
18 *3199:CLK *2868:B1 0
19 *3199:CLK *747:36 0
20 *3199:CLK *748:23 0
21 *3199:CLK *883:86 0
22 *3293:CLK *790:18 0.000431031
23 *710:10 *745:12 7.52158e-05
24 *710:10 *814:33 0.000585755
25 *710:12 *745:12 0.000233902
26 *710:12 *814:33 0.000211965
27 *710:36 *2884:B1 0
28 *710:36 *822:26 0
29 *710:36 *822:50 0
30 *710:36 *861:74 0.00059676
31 *710:40 *2884:B1 0
32 *710:40 *3293:RESET_B 1.54008e-05
33 *710:40 *748:23 0
34 *710:40 *753:18 0
35 *710:40 *754:47 0
36 *710:40 *861:74 3.238e-05
37 *710:46 *3062:B1 0
38 *710:46 *748:23 0
39 *710:46 *790:18 0.000234274
40 *710:61 *3082:B1 0
41 *710:61 *3303:RESET_B 0.000208096
42 *710:61 *726:20 0
43 *710:61 *748:23 0
44 *710:61 *753:18 0
45 *710:61 *768:12 0
46 *710:61 *800:27 0.000175815
47 *2859:A *3199:CLK 0.000207916
48 *2884:A2 *710:10 0
49 *2884:A2 *710:36 0.00024222
50 *3085:A *710:61 7.97219e-05
51 *3085:B *710:46 0
52 *3085:B *710:61 0
53 *3293:D *710:46 0.000305738
54 *3303:D *710:61 0.000111399
55 *388:12 *710:61 0
56 *496:12 *710:10 0
57 *498:10 *710:8 0
58 *498:10 *710:10 0
59 *520:16 *710:8 0.000181695
60 *520:16 *710:10 0.000446854
61 *646:86 *710:61 0
62 *646:96 *710:46 0
*RES
1 *3337:X *710:8 40.8446 
2 *710:8 *710:10 4.3054 
3 *710:10 *710:12 1.0918 
4 *710:12 *3193:CLK 41.8334 
5 *710:12 *3199:CLK 44.3466 
6 *710:10 *710:36 23.9964 
7 *710:36 *710:40 26.1594 
8 *710:40 *710:46 26.8186 
9 *710:46 *3299:CLK 20 
10 *710:46 *710:61 31.4124 
11 *710:61 *3291:CLK 40 
12 *710:40 *3293:CLK 42.0806 
13 *710:36 *3207:CLK 20.5974 
14 *710:8 *3345:A 40 
*END

*D_NET *711 0.014447
*CONN
*I *3267:CLK I *D sg13g2_dfrbpq_1
*I *3261:CLK I *D sg13g2_dfrbpq_1
*I *3263:CLK I *D sg13g2_dfrbpq_1
*I *3257:CLK I *D sg13g2_dfrbpq_1
*I *3205:CLK I *D sg13g2_dfrbpq_1
*I *3197:CLK I *D sg13g2_dfrbpq_1
*I *3346:A I *D sg13g2_inv_1
*I *3338:X O *D sg13g2_buf_8
*CAP
1 *3267:CLK 0.000340982
2 *3261:CLK 0.000225923
3 *3263:CLK 0
4 *3257:CLK 0.000198525
5 *3205:CLK 0.000145707
6 *3197:CLK 0.000117267
7 *3346:A 5.52212e-05
8 *3338:X 0
9 *711:68 0.000651804
10 *711:64 0.00208317
11 *711:39 0.0010776
12 *711:31 0.00184189
13 *711:27 0.000934375
14 *711:25 0.000601225
15 *711:10 0.00104027
16 *711:6 0.00170013
17 *3197:CLK *2855:A 0
18 *3197:CLK *822:14 0.00017694
19 *3205:CLK *2880:B1 0.000258292
20 *3205:CLK *822:72 1.54008e-05
21 *3205:CLK *822:87 0.000258221
22 *3257:CLK *778:26 0
23 *3257:CLK *1187:8 0.000391949
24 *3267:CLK *3267:RESET_B 0
25 *3267:CLK *1192:10 0
26 *3346:A *859:33 8.00842e-05
27 *711:10 *2878:B1 0
28 *711:10 *824:25 0
29 *711:10 *858:97 0.000445347
30 *711:10 *870:39 0.000177894
31 *711:10 *888:35 0
32 *711:25 *859:33 0.000370837
33 *711:31 *778:26 0
34 *711:31 *872:23 0
35 *711:39 *2880:B1 1.54556e-05
36 *711:39 *814:20 0.000181192
37 *711:39 *822:14 0
38 *711:39 *822:72 0.000788601
39 *711:39 *883:90 0
40 *711:64 *824:25 0
41 *711:64 *888:35 0
42 *711:64 *898:84 0
43 *711:64 *1192:10 0
44 *711:64 *1192:26 0
45 *711:68 *3267:RESET_B 1.54008e-05
46 *2864:A2 *3197:CLK 0
47 *320:10 *711:64 0
48 *375:12 *3261:CLK 0
49 *375:12 *711:68 0
50 *378:16 *711:25 0
51 *515:10 *711:39 7.9046e-05
52 *520:16 *711:10 0.000178206
53 *599:10 *3346:A 0
54 *599:10 *711:25 0
55 *614:8 *711:64 0
56 *619:10 *711:64 0
57 *697:194 *711:39 0
58 *697:202 *711:39 0
*RES
1 *3338:X *711:6 40 
2 *711:6 *711:10 24.0582 
3 *711:10 *3346:A 20.5356 
4 *711:10 *711:25 45.8298 
5 *711:25 *711:27 20 
6 *711:27 *711:31 25.7886 
7 *711:31 *711:39 49.8159 
8 *711:39 *3197:CLK 21.1845 
9 *711:31 *3205:CLK 21.8334 
10 *711:27 *3257:CLK 42.0806 
11 *711:6 *711:64 12.463 
12 *711:64 *711:68 24.429 
13 *711:68 *3263:CLK 20 
14 *711:68 *3261:CLK 22.678 
15 *711:64 *3267:CLK 43.914 
*END

*D_NET *712 0.0132938
*CONN
*I *3301:CLK I *D sg13g2_dfrbpq_1
*I *3133:CLK I *D sg13g2_dfrbpq_1
*I *3231:CLK I *D sg13g2_dfrbpq_1
*I *3233:CLK I *D sg13g2_dfrbpq_1
*I *3145:CLK I *D sg13g2_dfrbpq_1
*I *3295:CLK I *D sg13g2_dfrbpq_1
*I *3297:CLK I *D sg13g2_dfrbpq_1
*I *3339:X O *D sg13g2_buf_8
*CAP
1 *3301:CLK 0.000298892
2 *3133:CLK 0.000367387
3 *3231:CLK 0
4 *3233:CLK 0
5 *3145:CLK 0.000662337
6 *3295:CLK 0.00026792
7 *3297:CLK 0.000384674
8 *3339:X 0
9 *712:59 0.00057655
10 *712:51 0.00093568
11 *712:22 0.00145126
12 *712:18 0.00174357
13 *712:16 0.000843167
14 *712:10 0.000712655
15 *712:6 0.000442697
16 *3133:CLK *722:41 0
17 *3133:CLK *768:8 0
18 *3133:CLK *833:14 4.77425e-05
19 *3133:CLK *833:25 0.000193538
20 *3133:CLK *899:21 0
21 *3133:CLK *899:29 0
22 *3145:CLK *3133:RESET_B 0
23 *3145:CLK *730:26 0
24 *3145:CLK *1181:31 0
25 *3145:CLK *1181:43 0
26 *3295:CLK *740:28 0
27 *3297:CLK *721:44 0
28 *3297:CLK *740:28 0
29 *3301:CLK *3078:B1 0.000208955
30 *3301:CLK *733:31 0
31 *3301:CLK *819:96 0.000584597
32 *712:10 *819:96 0.00076662
33 *712:16 *722:41 0
34 *712:16 *819:96 0
35 *712:16 *899:29 0
36 *712:16 *1173:21 0
37 *712:18 *819:96 0
38 *712:18 *1173:21 0
39 *712:22 *3066:A1 0
40 *712:22 *740:28 0
41 *712:22 *819:96 0
42 *712:22 *1173:21 0
43 *712:51 *2934:B1 4.78028e-05
44 *712:51 *899:29 0.000598581
45 *712:51 *1181:31 0
46 *712:59 *722:39 0
47 *712:59 *730:8 0.000447598
48 *712:59 *731:25 0
49 *712:59 *899:29 0
50 *3069:A *3295:CLK 6.48533e-05
51 *3069:A *3297:CLK 1.54556e-05
52 *3069:B *3297:CLK 0
53 *3133:D *3145:CLK 0.000177399
54 *410:14 *3145:CLK 0
55 *546:31 *712:59 8.00842e-05
56 *646:22 *3301:CLK 0
57 *646:37 *3301:CLK 0.00060678
58 *646:37 *712:10 0.000767035
59 *656:8 *712:22 0
60 *659:10 *712:22 0
61 *661:16 *3297:CLK 0
*RES
1 *3339:X *712:6 40 
2 *712:6 *712:10 23.5638 
3 *712:10 *712:16 21.8437 
4 *712:16 *712:18 2.575 
5 *712:18 *712:22 26.283 
6 *712:22 *3297:CLK 23.9964 
7 *712:22 *3295:CLK 23.1106 
8 *712:18 *3145:CLK 46.1594 
9 *712:16 *712:51 23.9964 
10 *712:51 *712:59 46.077 
11 *712:59 *3233:CLK 20 
12 *712:51 *3231:CLK 20 
13 *712:10 *3133:CLK 23.3475 
14 *712:6 *3301:CLK 44.7689 
*END

*D_NET *713 0.0111272
*CONN
*I *3143:CLK I *D sg13g2_dfrbpq_1
*I *3303:CLK I *D sg13g2_dfrbpq_1
*I *3239:CLK I *D sg13g2_dfrbpq_1
*I *3229:CLK I *D sg13g2_dfrbpq_1
*I *3227:CLK I *D sg13g2_dfrbpq_1
*I *3347:A I *D sg13g2_inv_1
*I *3151:CLK I *D sg13g2_dfrbpq_1
*I *3340:X O *D sg13g2_buf_8
*CAP
1 *3143:CLK 0.00025677
2 *3303:CLK 0
3 *3239:CLK 4.19858e-05
4 *3229:CLK 2.77263e-05
5 *3227:CLK 0.000255396
6 *3347:A 4.35783e-05
7 *3151:CLK 0.000839335
8 *3340:X 0.00037597
9 *713:90 0.000524866
10 *713:82 0.00236689
11 *713:69 0.00186388
12 *713:42 0.000681985
13 *713:10 0.000938851
14 *713:8 0.000594133
15 *3143:CLK *743:29 0
16 *3143:CLK *908:12 0.000387108
17 *3151:CLK *2776:B1 0.000177279
18 *3151:CLK *2776:A2 0
19 *3151:CLK *3151:RESET_B 0
20 *3151:CLK *759:45 0
21 *3151:CLK *768:12 0
22 *3151:CLK *769:27 0
23 *3151:CLK *1175:10 0
24 *3227:CLK *2926:B1 0
25 *3227:CLK *723:54 0.000338318
26 *3239:CLK *2950:B1 8.02763e-05
27 *3239:CLK *958:10 8.02763e-05
28 *3347:A *723:54 8.02763e-05
29 *713:8 *768:12 0
30 *713:42 *723:54 0
31 *713:69 *2950:B1 0
32 *713:69 *903:48 0.000208966
33 *713:82 *768:12 0
34 *713:82 *769:31 0
35 *713:82 *832:74 0
36 *713:82 *1170:35 0
37 *713:90 *743:29 0
38 *713:90 *908:12 1.54008e-05
39 *713:90 *908:18 0
40 *713:90 *1174:56 0
41 *713:90 *1176:8 0.000447598
42 *306:10 *713:82 0.000500302
43 *424:8 *713:82 0
44 *646:63 *3151:CLK 0
45 *646:63 *713:8 0
46 *646:63 *713:10 0
47 *697:125 *3227:CLK 0
48 *697:125 *713:42 0
49 *697:141 *713:42 0
50 *697:147 *3347:A 0
51 *697:147 *713:42 0
*RES
1 *3340:X *713:8 41.339 
2 *713:8 *713:10 0.5974 
3 *713:10 *3151:CLK 48.652 
4 *713:10 *3347:A 40.5356 
5 *713:8 *713:42 23.5638 
6 *713:42 *3227:CLK 22.8634 
7 *713:42 *3229:CLK 20.3502 
8 *3340:X *713:69 42.2454 
9 *713:69 *3239:CLK 40.5356 
10 *713:69 *713:82 35.4294 
11 *713:82 *713:90 45.6444 
12 *713:90 *3303:CLK 20 
13 *713:82 *3143:CLK 22.6986 
*END

*D_NET *714 0.00497848
*CONN
*I *2704:A I *D sg13g2_inv_1
*I *2850:B I *D sg13g2_nand4_1
*I *3119:B1 I *D sg13g2_o21ai_1
*I *3321:Q O *D sg13g2_dfrbpq_1
*CAP
1 *2704:A 0
2 *2850:B 0.000249528
3 *3119:B1 0
4 *3321:Q 7.39389e-05
5 *714:48 0.000591674
6 *714:29 0.00107473
7 *714:16 0.000616809
8 *714:8 0.000457222
9 *2850:B *3323:A 0
10 *2850:B *3621:A 0
11 *2850:B *1164:8 1.54556e-05
12 *714:8 *979:10 0.000399531
13 *714:8 *990:14 0.000399198
14 *714:16 *2854:A 0
15 *714:16 *3621:A 0.000402551
16 *714:16 *1168:12 0
17 *714:29 *3323:A 0
18 *714:29 *764:51 0
19 *714:29 *1168:12 0
20 *714:29 *1180:12 0
21 *714:48 *3323:A 0
22 *714:48 *1115:18 2.14736e-05
23 *714:48 *1164:8 9.63823e-05
24 *714:48 *1180:6 0
25 *714:48 *1180:12 0
26 *714:48 *1180:33 0
27 *2850:A *2850:B 1.54556e-05
28 *2850:A *714:48 0.000274545
29 *347:10 *714:16 0
30 *376:10 *714:48 0
31 *380:8 *714:48 0
32 *491:22 *714:16 0.00011231
33 *491:37 *714:16 0.000177683
34 *709:27 *714:48 0
*RES
1 *3321:Q *714:8 41.8334 
2 *714:8 *714:16 24.0479 
3 *714:16 *3119:B1 20 
4 *714:16 *714:29 42.3381 
5 *714:29 *2850:B 22.266 
6 *714:29 *714:48 45.6341 
7 *714:48 *2704:A 20 
*END

*D_NET *715 0.00137327
*CONN
*I *2718:A1 I *D sg13g2_a21oi_1
*I *3551:X O *D sg13g2_buf_1
*CAP
1 *2718:A1 0
2 *3551:X 0.000239027
3 *715:10 0.000239027
4 *715:10 *912:16 0
5 *715:10 *1037:10 0.00028743
6 *715:10 *1067:16 0.000607785
7 *715:10 *1078:28 0
*RES
1 *3551:X *715:10 43.3578 
2 *715:10 *2718:A1 40 
*END

*D_NET *716 0.0108829
*CONN
*I *2791:B2 I *D sg13g2_a22oi_1
*I *3552:X O *D sg13g2_buf_1
*CAP
1 *2791:B2 0
2 *3552:X 0.000326235
3 *716:16 0.00164633
4 *716:10 0.00197256
5 *716:10 *2730:B1 0
6 *716:10 *2732:A1 0.000207769
7 *716:10 *720:41 0
8 *716:10 *755:35 0
9 *716:10 *844:10 4.72458e-05
10 *716:16 *2744:B1 0.00152932
11 *716:16 *740:52 0.00192662
12 *716:16 *744:47 0
13 *716:16 *827:20 0.00265772
14 *716:16 *852:83 1.54008e-05
15 *716:16 *882:24 0
16 *716:16 *901:66 0.000553663
*RES
1 *3552:X *716:10 43.0488 
2 *716:10 *716:16 42.3613 
3 *716:16 *2791:B2 20 
*END

*D_NET *717 0.0406469
*CONN
*I *3095:B1 I *D sg13g2_a21oi_1
*I *2726:A1 I *D sg13g2_a21oi_1
*I *3628:A I *D sg13g2_buf_1
*I *3309:Q O *D sg13g2_dfrbpq_1
*CAP
1 *3095:B1 0
2 *2726:A1 0
3 *3628:A 0
4 *3309:Q 0.000416407
5 *717:39 8.65801e-05
6 *717:28 0
7 *717:24 0.00110902
8 *717:20 0.00416475
9 *717:18 0.00305574
10 *717:16 0.00532648
11 *717:14 0.0052399
12 *717:12 0.000416407
13 *717:12 *3408:A 0.000209856
14 *717:12 *883:39 0
15 *717:12 *890:67 0
16 *717:16 *728:10 0
17 *717:16 *752:21 0.00467191
18 *717:16 *856:31 0
19 *717:16 *884:33 0.000836643
20 *717:16 *1169:16 0.00827502
21 *717:20 *720:58 0
22 *717:20 *909:20 0.00651463
23 *717:20 *1160:14 0
24 *717:20 *1169:33 0
25 *717:24 *720:62 0
26 *717:24 *933:16 0.000144769
27 *717:24 *1169:39 0
28 *717:24 *1181:70 0
29 *717:39 *833:80 0.000178811
30 *351:14 *717:16 0
31 *360:20 *717:12 0
32 *396:8 *717:39 0
33 *671:14 *717:12 0
*RES
1 *3309:Q *717:12 43.8007 
2 *717:12 *717:14 20 
3 *717:14 *717:16 62.3974 
4 *717:16 *717:18 20 
5 *717:18 *717:20 37.4302 
6 *717:20 *717:24 31.5669 
7 *717:24 *717:28 40 
8 *717:28 *3628:A 20 
9 *717:16 *717:39 40.8446 
10 *717:39 *2726:A1 20 
11 *717:12 *3095:B1 40 
*END

*D_NET *718 0.0178082
*CONN
*I *3012:B1 I *D sg13g2_a21oi_1
*I *3629:A I *D sg13g2_buf_1
*I *2838:A1 I *D sg13g2_a21oi_1
*I *3269:Q O *D sg13g2_dfrbpq_1
*CAP
1 *3012:B1 4.31649e-05
2 *3629:A 0
3 *2838:A1 0
4 *3269:Q 0.000745284
5 *718:41 0.000903477
6 *718:22 0.000873884
7 *718:14 0.00552143
8 *718:12 0.00401522
9 *718:8 0.0010596
10 *3012:B1 *719:27 8.01447e-05
11 *3012:B1 *823:78 8.01447e-05
12 *718:8 *3012:A1 0
13 *718:8 *766:36 0
14 *718:8 *790:18 0
15 *718:12 *719:27 0
16 *718:12 *766:36 0
17 *718:14 *2822:A2 0
18 *718:14 *3004:B1 0
19 *718:14 *813:49 0.000533463
20 *718:14 *832:18 0
21 *718:14 *1191:20 0
22 *718:14 *1192:26 0.000186542
23 *718:14 *1192:32 0
24 *718:14 *1192:36 0
25 *718:22 *2838:A2 1.54008e-05
26 *718:22 *3714:A 0
27 *718:22 *832:24 0
28 *718:22 *1175:56 0.000273798
29 *718:22 *1191:26 0
30 *718:41 *2822:A2 0
31 *718:41 *3723:A 0.000596652
32 *718:41 *3728:A 0.000354634
33 *718:41 *791:27 0
34 *718:41 *1189:47 0.00024139
35 *718:41 *1192:36 0.000467191
36 *3532:A *718:14 0.000208785
37 *321:8 *718:8 0.00044538
38 *321:8 *718:12 0.000177632
39 *375:14 *718:8 0
40 *375:14 *718:12 0
41 *393:12 *718:14 0.000404099
42 *393:31 *718:14 0.000580872
43 *464:10 *718:22 0
44 *474:10 *718:41 0
*RES
1 *3269:Q *718:8 48.2606 
2 *718:8 *718:12 22.575 
3 *718:12 *718:14 32.1154 
4 *718:14 *718:22 49.1052 
5 *718:22 *2838:A1 20 
6 *718:14 *718:41 49.3215 
7 *718:41 *3629:A 20 
8 *718:8 *3012:B1 40.5356 
*END

*D_NET *719 0.0153363
*CONN
*I *3630:A I *D sg13g2_buf_1
*I *2842:A1 I *D sg13g2_a21oi_1
*I *3016:B1 I *D sg13g2_a21oi_1
*I *3271:Q O *D sg13g2_dfrbpq_1
*CAP
1 *3630:A 0.000411873
2 *2842:A1 0
3 *3016:B1 0
4 *3271:Q 0.000811517
5 *719:53 0.000164992
6 *719:47 0.00241982
7 *719:37 0.00399158
8 *719:27 0.00249959
9 *719:12 0.000383819
10 *719:8 0.00084436
11 *3630:A *3724:A 0
12 *3630:A *1180:66 0
13 *3630:A *1183:56 0
14 *3630:A *1190:50 0
15 *719:8 *3008:A1 0
16 *719:8 *778:26 0
17 *719:8 *823:43 0
18 *719:12 *3014:B1 0
19 *719:12 *823:61 0
20 *719:12 *823:78 0
21 *719:27 *823:78 0
22 *719:37 *2794:B1 0
23 *719:37 *3265:RESET_B 0
24 *719:37 *3376:A 0
25 *719:37 *774:23 0
26 *719:37 *813:49 0
27 *719:37 *823:78 0
28 *719:37 *823:91 0
29 *719:37 *831:12 0
30 *719:37 *843:23 0
31 *719:37 *990:22 4.77425e-05
32 *719:37 *1180:37 0
33 *719:37 *1188:31 0.00148555
34 *719:47 *2824:B1 7.84876e-05
35 *719:47 *831:12 0
36 *719:47 *831:21 0.00014395
37 *719:47 *1180:60 0
38 *719:47 *1180:66 0.000272878
39 *719:47 *1183:56 0
40 *719:47 *1188:31 0
41 *719:53 *791:27 0
42 *2797:A1 *719:37 0
43 *3012:B1 *719:27 8.01447e-05
44 *3015:A *719:27 1.54556e-05
45 *3015:B *719:27 0
46 *3175:CLK *719:47 0
47 *3331:A *719:47 0
48 *3377:A *719:37 4.77425e-05
49 *28:8 *3630:A 0
50 *267:10 *719:37 0
51 *321:8 *719:27 0
52 *375:14 *719:27 0
53 *452:30 *719:37 0.000176639
54 *474:10 *719:47 0
55 *488:24 *719:53 0.000443452
56 *704:33 *719:47 0.00101673
57 *718:12 *719:27 0
*RES
1 *3271:Q *719:8 48.2606 
2 *719:8 *719:12 20.3193 
3 *719:12 *3016:B1 20 
4 *719:12 *719:27 43.2136 
5 *719:27 *719:37 36.8314 
6 *719:37 *719:47 37.5924 
7 *719:47 *719:53 42.0806 
8 *719:53 *2842:A1 20 
9 *719:47 *3630:A 23.7801 
*END

*D_NET *720 0.0243333
*CONN
*I *3631:A I *D sg13g2_buf_1
*I *2730:A1 I *D sg13g2_a21oi_1
*I *3099:B1 I *D sg13g2_a21oi_1
*I *3311:Q O *D sg13g2_dfrbpq_1
*CAP
1 *3631:A 0
2 *2730:A1 0
3 *3099:B1 0.000284662
4 *3311:Q 0.000444494
5 *720:66 0
6 *720:62 0.00103065
7 *720:58 0.00393518
8 *720:54 0.00309715
9 *720:41 0.00466684
10 *720:10 0.00475888
11 *720:8 0.000444494
12 *3099:B1 *2968:C 0
13 *3099:B1 *3099:A1 0
14 *3099:B1 *3100:D 0
15 *3099:B1 *3311:RESET_B 0
16 *720:8 *817:75 0
17 *720:8 *856:67 0.000554181
18 *720:8 *856:94 0.000847946
19 *720:8 *866:87 0
20 *720:8 *889:58 0
21 *720:41 *2730:A2 1.54008e-05
22 *720:41 *2730:B1 1.54008e-05
23 *720:41 *2768:B1 0
24 *720:41 *2948:B1 0
25 *720:41 *2968:C 0
26 *720:41 *3101:B1 0
27 *720:41 *3147:RESET_B 0.000112634
28 *720:41 *3301:RESET_B 0
29 *720:41 *3311:RESET_B 0
30 *720:41 *3355:A 0.00037179
31 *720:41 *755:23 0
32 *720:41 *796:6 0.00029081
33 *720:41 *796:18 0.000177226
34 *720:41 *818:10 0.000273098
35 *720:41 *818:82 0.0010191
36 *720:41 *818:116 0.000306964
37 *720:41 *856:79 0
38 *720:41 *892:51 0
39 *720:41 *899:35 0
40 *720:41 *899:39 0
41 *720:41 *1058:22 0
42 *720:41 *1173:25 0
43 *720:54 *2730:A2 0.000736167
44 *720:54 *2730:B1 6.4711e-05
45 *720:54 *833:112 0.000709115
46 *720:58 *1169:33 0
47 *720:62 *723:87 0
48 *2948:A2 *720:41 0
49 *2969:A2 *720:41 0
50 *2970:A *720:41 0
51 *2970:B *720:41 0
52 *3311:D *3099:B1 0.000176351
53 *432:10 *720:41 0
54 *437:18 *720:41 0
55 *716:10 *720:41 0
56 *717:20 *720:58 0
57 *717:24 *720:62 0
*RES
1 *3311:Q *720:8 46.5302 
2 *720:8 *720:10 20 
3 *720:10 *3099:B1 22.8325 
4 *720:10 *720:41 41.7665 
5 *720:41 *2730:A1 20 
6 *720:41 *720:54 43.8522 
7 *720:54 *720:58 46.3062 
8 *720:58 *720:62 31.1343 
9 *720:62 *720:66 40 
10 *720:66 *3631:A 20 
*END

*D_NET *721 0.0331553
*CONN
*I *3632:A I *D sg13g2_buf_1
*I *2734:A1 I *D sg13g2_a21oi_1
*I *3103:B1 I *D sg13g2_a21oi_1
*I *3313:Q O *D sg13g2_dfrbpq_1
*CAP
1 *3632:A 0
2 *2734:A1 0.000112238
3 *3103:B1 2.60565e-05
4 *3313:Q 0.00123164
5 *721:87 0.00112297
6 *721:77 0.0021004
7 *721:71 0.00438547
8 *721:50 0.00381383
9 *721:44 0.00221876
10 *721:34 0.00206549
11 *721:28 0.00116486
12 *721:10 0.000233112
13 *2734:A1 *795:8 0
14 *2734:A1 *828:48 0
15 *2734:A1 *833:59 0
16 *2734:A1 *839:44 0.000126354
17 *2734:A1 *839:59 1.54008e-05
18 *2734:A1 *909:66 4.79124e-05
19 *721:10 *3103:A1 0
20 *721:10 *3105:A1 0.000448012
21 *721:10 *3431:A 0.000177334
22 *721:10 *1126:8 0.000287758
23 *721:28 *3103:A1 0
24 *721:28 *807:40 0
25 *721:28 *807:48 0.000922571
26 *721:44 *3066:B1 0
27 *721:44 *3070:A1 0
28 *721:44 *740:16 0.00166771
29 *721:44 *740:28 0
30 *721:44 *795:24 0.000436927
31 *721:44 *807:48 0
32 *721:44 *807:52 0.000274518
33 *721:44 *807:67 0.000307057
34 *721:44 *1172:28 0
35 *721:50 *2736:B1 8.02267e-05
36 *721:50 *3145:RESET_B 0.000468595
37 *721:50 *795:12 8.00842e-05
38 *721:50 *795:24 0.000209676
39 *721:71 *2754:A1 0.000231899
40 *721:71 *2780:A2 0.00113602
41 *721:71 *770:20 0.000126146
42 *721:71 *799:33 0.000444197
43 *721:71 *828:48 0
44 *721:71 *830:12 0
45 *721:71 *830:14 0
46 *721:71 *833:59 0
47 *721:71 *834:23 0.000339976
48 *721:71 *834:41 0.00116419
49 *721:71 *834:49 0.000661057
50 *721:71 *834:93 0.000179389
51 *721:71 *837:43 5.30319e-05
52 *721:71 *839:44 0.000126358
53 *721:71 *903:14 0
54 *721:71 *903:27 0
55 *721:71 *903:48 0
56 *721:71 *1172:49 0
57 *721:77 *2760:A2 4.77425e-05
58 *721:77 *3446:A 0
59 *721:77 *722:59 0
60 *721:77 *843:55 0.000466161
61 *721:77 *843:68 0.000290579
62 *721:77 *843:81 0.000354897
63 *721:87 *3179:RESET_B 0
64 *721:87 *3633:A 0.000241631
65 *721:87 *722:73 0.000434296
66 *721:87 *743:54 0.000144894
67 *721:87 *832:54 0.000596273
68 *721:87 *907:65 0
69 *2737:A1 *721:44 0
70 *2737:B1 *721:44 0
71 *2757:A2 *721:71 0
72 *2962:A *721:28 4.77425e-05
73 *2966:A *721:28 0
74 *3066:A2 *721:44 0
75 *3145:D *721:44 4.79124e-05
76 *3167:D *721:77 8.0216e-05
77 *3179:D *721:87 0.000143932
78 *3241:CLK *3103:B1 4.77425e-05
79 *3245:CLK *721:28 0
80 *3297:CLK *721:44 0
81 *256:8 *721:71 0
82 *257:8 *721:71 0.000496562
83 *259:14 *721:44 0
84 *391:12 *721:87 0.000335499
85 *418:10 *721:71 0
86 *420:8 *721:71 0.000602373
87 *421:8 *721:71 0
88 *432:10 *721:71 0
89 *461:10 *721:87 0
90 *580:26 *3103:B1 4.77425e-05
91 *580:26 *721:28 0
92 *586:10 *721:28 0.000241924
93 *661:16 *721:44 0
94 *671:137 *721:10 0
*RES
1 *3313:Q *721:10 43.2651 
2 *721:10 *3103:B1 40.3193 
3 *3313:Q *721:28 31.0519 
4 *721:28 *721:34 41.0918 
5 *721:34 *721:44 40.7442 
6 *721:44 *721:50 43.3475 
7 *721:50 *2734:A1 41.1639 
8 *721:50 *721:71 37.0388 
9 *721:71 *721:77 48.9713 
10 *721:77 *721:87 31.4433 
11 *721:87 *3632:A 20 
*END

*D_NET *722 0.031472
*CONN
*I *2738:A1 I *D sg13g2_a21oi_1
*I *3633:A I *D sg13g2_buf_1
*I *3107:B1 I *D sg13g2_a21oi_1
*I *3315:Q O *D sg13g2_dfrbpq_1
*CAP
1 *2738:A1 2.62187e-05
2 *3633:A 0.000383071
3 *3107:B1 0
4 *3315:Q 0.00048065
5 *722:73 0.00109314
6 *722:59 0.0024841
7 *722:51 0.00185888
8 *722:45 0.00325343
9 *722:41 0.0042069
10 *722:39 0.00576735
11 *722:14 0.00488146
12 *722:10 0.000606861
13 *2738:A1 *2738:A2 1.54285e-05
14 *2738:A1 *833:25 3.24568e-05
15 *3633:A *3179:RESET_B 0
16 *3633:A *743:54 0
17 *3633:A *854:65 0
18 *722:10 *2980:C 0
19 *722:10 *861:26 0
20 *722:14 *3107:A1 0
21 *722:14 *3315:RESET_B 0
22 *722:39 *2934:A1 0
23 *722:39 *2934:B1 0
24 *722:39 *2938:A1 0
25 *722:39 *2967:B1 4.77425e-05
26 *722:39 *3053:A 0
27 *722:39 *3053:B 0
28 *722:39 *3107:A1 0
29 *722:39 *3247:RESET_B 0
30 *722:39 *817:10 0
31 *722:39 *817:23 0
32 *722:39 *855:62 0
33 *722:39 *883:127 0.00107259
34 *722:39 *889:39 0
35 *722:39 *899:29 0
36 *722:39 *1181:31 0
37 *722:41 *731:25 0
38 *722:41 *833:14 4.77425e-05
39 *722:41 *833:25 0.000500709
40 *722:41 *834:49 0
41 *722:41 *899:29 0
42 *722:45 *2774:A1 0
43 *722:45 *2776:A1 0
44 *722:45 *3078:B1 0
45 *722:45 *769:31 0
46 *722:45 *770:32 0
47 *722:45 *772:25 0
48 *722:45 *834:31 0
49 *722:45 *834:41 0
50 *722:45 *1172:49 0
51 *722:45 *1175:31 0
52 *722:59 *2760:A2 0.000144702
53 *722:59 *754:47 0
54 *722:59 *843:81 0
55 *722:59 *967:10 8.00842e-05
56 *722:73 *743:54 0.000423574
57 *722:73 *785:23 0.000389781
58 *722:73 *854:65 0.000209544
59 *722:73 *933:10 3.15716e-05
60 gpio_dir[11] *3633:A 6.12957e-05
61 *2809:B1 *722:59 0.000143781
62 *2921:C *722:39 8.03091e-05
63 *2934:A2 *722:39 0.000274709
64 *3133:CLK *722:41 0
65 *3167:D *722:59 8.0216e-05
66 *3179:D *722:73 0.000241111
67 *3247:D *722:39 0
68 *3253:D *722:39 0
69 *3307:CLK *722:39 0
70 *3315:CLK *722:10 0
71 *3315:CLK *722:14 0
72 *3315:CLK *722:39 0
73 *3494:A *722:59 0.000144389
74 *30:10 *3633:A 4.7725e-05
75 *32:10 *3633:A 0.000107827
76 *262:8 *722:45 0.000491757
77 *345:14 *722:10 0
78 *352:16 *722:10 0
79 *359:20 *722:39 0
80 *437:24 *722:45 0.000341707
81 *438:8 *722:45 0.000598323
82 *452:24 *722:45 0
83 *467:12 *722:73 0
84 *546:20 *722:39 0
85 *546:31 *722:39 0
86 *559:10 *722:39 0
87 *646:10 *722:39 0
88 *687:10 *722:14 0.000144942
89 *712:16 *722:41 0
90 *712:59 *722:39 0
91 *721:77 *722:59 0
92 *721:87 *3633:A 0.000241631
93 *721:87 *722:73 0.000434296
*RES
1 *3315:Q *722:10 44.8101 
2 *722:10 *722:14 21.1192 
3 *722:14 *3107:B1 20 
4 *722:14 *722:39 45.5992 
5 *722:39 *722:41 9.7747 
6 *722:41 *722:45 49.2726 
7 *722:45 *722:51 40.9682 
8 *722:51 *722:59 34.6157 
9 *722:59 *722:73 48.1782 
10 *722:73 *3633:A 23.9912 
11 *722:41 *2738:A1 20.3193 
*END

*D_NET *723 0.0315155
*CONN
*I *3634:A I *D sg13g2_buf_1
*I *2742:A1 I *D sg13g2_a21oi_1
*I *3111:B1 I *D sg13g2_a21oi_1
*I *3317:Q O *D sg13g2_dfrbpq_1
*CAP
1 *3634:A 0
2 *2742:A1 0
3 *3111:B1 0
4 *3317:Q 0.00260741
5 *723:87 0.00050653
6 *723:81 0.00242476
7 *723:70 0.000493741
8 *723:62 0.00306217
9 *723:54 0.00540947
10 *723:32 0.0067415
11 *723:12 0.000625186
12 *723:12 *863:12 0.000399422
13 *723:32 *856:94 0
14 *723:54 *2923:C 0
15 *723:54 *2926:B1 0
16 *723:54 *2927:C 0
17 *723:54 *3235:RESET_B 0
18 *723:54 *3383:A 0
19 *723:54 *3649:A 0
20 *723:54 *759:39 0.00150253
21 *723:54 *759:45 0.00202031
22 *723:54 *772:8 0
23 *723:54 *806:63 0.000144181
24 *723:54 *830:29 0
25 *723:54 *879:26 0
26 *723:62 *728:26 0.000209505
27 *723:62 *761:23 0
28 *723:62 *798:22 0
29 *723:62 *827:12 2.14736e-05
30 *723:62 *827:20 0
31 *723:62 *849:8 0
32 *723:70 *2742:A2 1.54008e-05
33 *723:70 *2834:B1 0.000105753
34 *723:70 *759:71 0
35 *723:70 *830:46 7.51285e-05
36 *723:70 *833:124 0.000177127
37 *723:70 *901:85 0
38 *723:81 *724:27 0
39 *723:81 *728:26 4.79585e-05
40 *723:81 *755:45 0.00237647
41 *723:81 *830:54 0
42 *723:81 *1169:33 0
43 *723:87 *724:33 0
44 *723:87 *726:52 0
45 *2753:A2 *723:54 0.000888138
46 *3227:CLK *723:54 0.000338318
47 *3341:A *723:32 0
48 *3347:A *723:54 8.02763e-05
49 *3349:A *723:54 0
50 *301:10 *723:54 4.77425e-05
51 *363:16 *723:12 0
52 *363:16 *723:32 0.00026636
53 *363:16 *723:54 0
54 *419:16 *723:62 0
55 *433:10 *723:70 0.000702964
56 *548:10 *723:54 8.02105e-05
57 *697:59 *723:54 0
58 *697:125 *723:54 0
59 *697:156 *723:54 0
60 *697:165 *723:54 0
61 *700:20 *723:54 0
62 *705:6 *723:32 0
63 *705:12 *723:12 0
64 *705:12 *723:32 1.54556e-05
65 *705:23 *723:12 0.000130055
66 *713:42 *723:54 0
67 *720:62 *723:87 0
*RES
1 *3317:Q *723:12 46.489 
2 *723:12 *3111:B1 40 
3 *3317:Q *723:32 37.1907 
4 *723:32 *723:54 47.3709 
5 *723:54 *723:62 45.8607 
6 *723:62 *723:70 45.3972 
7 *723:70 *2742:A1 20 
8 *723:62 *723:81 43.8136 
9 *723:81 *723:87 45.5105 
10 *723:87 *3634:A 40 
*END

*D_NET *724 0.0190505
*CONN
*I *3115:B1 I *D sg13g2_a21oi_1
*I *3635:A I *D sg13g2_buf_1
*I *2747:B2 I *D sg13g2_a22oi_1
*I *3319:Q O *D sg13g2_dfrbpq_1
*CAP
1 *3115:B1 5.78657e-05
2 *3635:A 0
3 *2747:B2 0
4 *3319:Q 0.000924921
5 *724:33 0.000506467
6 *724:27 0.00294562
7 *724:18 2.08029e-05
8 *724:12 0.00767814
9 *724:10 0.00521819
10 *724:8 0.000982787
11 *3115:B1 *758:32 8.0216e-05
12 *3115:B1 *820:47 0
13 *724:8 *883:74 0
14 *724:8 *891:37 0
15 *724:8 *891:75 0
16 *724:12 *733:35 0
17 *724:12 *758:56 0.000474051
18 *724:12 *798:22 0
19 *724:12 *833:124 0
20 *724:12 *840:47 0
21 *724:12 *845:75 0
22 *724:12 *866:87 0
23 *724:12 *866:102 0
24 *724:12 *1175:31 0
25 *724:18 *756:53 7.30101e-05
26 *724:18 *1069:12 7.30101e-05
27 *724:27 *755:45 0
28 *724:27 *757:65 0
29 *724:27 *1181:64 0
30 *724:33 *726:52 0
31 *693:10 *3115:B1 1.54556e-05
32 *697:91 *724:8 0
33 *699:92 *724:12 0
34 *723:81 *724:27 0
35 *723:87 *724:33 0
*RES
1 *3319:Q *724:8 47.0246 
2 *724:8 *724:10 20 
3 *724:10 *724:12 60.0181 
4 *724:12 *724:18 40.3502 
5 *724:18 *2747:B2 20 
6 *724:12 *724:27 47.5422 
7 *724:27 *724:33 45.7268 
8 *724:33 *3635:A 40 
9 *724:8 *3115:B1 40.5356 
*END

*D_NET *725 0.026771
*CONN
*I *3636:A I *D sg13g2_buf_1
*I *2750:A1 I *D sg13g2_a21oi_1
*I *3054:B1 I *D sg13g2_a21oi_1
*I *3289:Q O *D sg13g2_dfrbpq_1
*CAP
1 *3636:A 0.00124058
2 *2750:A1 0.000229743
3 *3054:B1 0.000163353
4 *3289:Q 0.000575238
5 *725:66 0.00249209
6 *725:47 0.00309863
7 *725:43 0.00164066
8 *725:37 0.000105293
9 *725:29 0.0016634
10 *725:10 0.00231998
11 *2750:A1 *2772:B1 4.79124e-05
12 *2750:A1 *840:80 4.78359e-05
13 *2750:A1 *840:88 0.000178206
14 *2750:A1 *1182:12 0
15 *3054:B1 *2944:B1 4.78524e-05
16 *3636:A *3179:RESET_B 0
17 *3636:A *746:35 0.00182134
18 *3636:A *750:26 0.00127329
19 *3636:A *907:67 0
20 *3636:A *907:80 0
21 *725:10 *3193:RESET_B 0
22 *725:10 *878:40 0
23 *725:10 *1165:41 0
24 *725:29 *861:91 0
25 *725:29 *864:49 0
26 *725:29 *878:34 0.000242236
27 *725:43 *797:35 7.34778e-05
28 *725:47 *734:27 0
29 *725:47 *797:29 0
30 *725:47 *799:6 0.000208878
31 *725:47 *799:18 0.00137252
32 *725:47 *1174:26 0.00140489
33 *725:66 *2787:A1 0.000421119
34 *725:66 *736:43 0.00012816
35 *725:66 *843:61 0.00108139
36 *725:66 *907:33 0.00012816
37 *725:66 *907:87 0.00023464
38 *725:66 *1176:44 0.000442762
39 *725:66 *1182:12 0
40 *2953:B *725:29 0
41 *2953:B *725:47 0
42 *3061:A *725:47 0
43 *3061:B *725:29 0
44 *3289:CLK *3054:B1 0.00039332
45 *3289:CLK *725:10 0.000212127
46 *358:20 *725:29 0
47 *358:33 *725:29 0.000501648
48 *362:32 *725:29 0.000614209
49 *441:14 *725:66 0.000550115
50 *446:12 *725:66 0.00118636
51 *458:18 *725:66 0
52 *458:32 *725:66 0.000340704
53 *480:10 *3636:A 0
54 *563:10 *725:29 8.02763e-05
55 *569:10 *725:29 0.000208576
*RES
1 *3289:Q *725:10 45.6753 
2 *725:10 *3054:B1 42.1527 
3 *725:10 *725:29 35.9135 
4 *725:29 *725:37 40.8858 
5 *725:37 *725:43 40.3502 
6 *725:43 *725:47 37.1907 
7 *725:47 *2750:A1 42.3999 
8 *725:47 *725:66 37.0568 
9 *725:66 *3636:A 33.8638 
*END

*D_NET *726 0.0155016
*CONN
*I *3637:A I *D sg13g2_buf_1
*I *2754:A1 I *D sg13g2_a21oi_1
*I *3058:B1 I *D sg13g2_a21oi_1
*I *3291:Q O *D sg13g2_dfrbpq_1
*CAP
1 *3637:A 0
2 *2754:A1 0.000247189
3 *3058:B1 0
4 *3291:Q 2.9025e-05
5 *726:58 0.000410417
6 *726:52 0.000727546
7 *726:46 0.0025765
8 *726:29 0.00319087
9 *726:20 0.000492531
10 *726:6 0.00120587
11 *2754:A1 *2754:A2 1.54008e-05
12 *726:20 *744:47 0
13 *726:20 *745:28 0.000304495
14 *726:20 *748:37 0
15 *726:20 *799:18 0.000553901
16 *726:20 *800:27 0
17 *726:29 *745:28 0.00106233
18 *726:29 *748:37 0
19 *726:46 *2780:A2 0.0011348
20 *726:46 *2832:A2 0
21 *726:46 *837:43 0.000579971
22 *726:46 *837:69 0.000176405
23 *726:46 *837:76 0
24 *726:46 *843:23 0.000128248
25 *726:46 *854:24 0
26 *726:46 *907:12 0.000443971
27 *726:46 *1174:68 0
28 *726:58 *2832:A1 0.000339135
29 *726:58 *1174:68 0
30 gpio_dir[18] *726:58 0.000139769
31 *3159:CLK *726:46 0.000466242
32 *8:10 *726:58 0.000203714
33 *10:16 *726:58 0
34 *34:10 *726:58 0
35 *388:12 *726:20 0.000127823
36 *455:20 *2754:A1 0
37 *455:20 *726:46 0
38 *455:24 *726:46 0.000713588
39 *710:61 *726:20 0
40 *721:71 *2754:A1 0.000231899
41 *723:87 *726:52 0
42 *724:33 *726:52 0
*RES
1 *3291:Q *726:6 20.3502 
2 *726:6 *726:20 46.077 
3 *726:20 *3058:B1 20 
4 *726:6 *726:29 27.2409 
5 *726:29 *2754:A1 42.1527 
6 *726:29 *726:46 43.4428 
7 *726:46 *726:52 43.3475 
8 *726:52 *726:58 44.1844 
9 *726:58 *3637:A 20 
*END

*D_NET *727 0.0121619
*CONN
*I *2795:B2 I *D sg13g2_a22oi_1
*I *3553:X O *D sg13g2_buf_1
*CAP
1 *2795:B2 0
2 *3553:X 0.000630787
3 *727:24 0.00256684
4 *727:14 0.00290212
5 *727:8 0.000966061
6 *727:8 *1035:14 0
7 *727:8 *1041:12 0.0017976
8 *727:8 *1080:10 0
9 *727:14 *1025:16 0
10 *727:24 *2783:A2 0
11 *727:24 *2803:B1 0
12 *727:24 *3668:A 0
13 *727:24 *733:52 0
14 *727:24 *749:20 0.00138138
15 *727:24 *758:60 0
16 *727:24 *798:10 0.000126724
17 *727:24 *815:20 0
18 *727:24 *839:87 0
19 *727:24 *845:75 0.000495057
20 *727:24 *846:76 0
21 *727:24 *851:24 0.000103073
22 *727:24 *851:30 0.000334041
23 *727:24 *851:38 0
24 *727:24 *851:42 0
25 *727:24 *851:48 0
26 *727:24 *852:18 8.00842e-05
27 *727:24 *852:26 0
28 *727:24 *1073:8 0.000657328
29 *727:24 *1077:8 0
30 *727:24 *1181:55 0
31 *48:9 *727:24 0
32 *49:13 *727:24 0
33 *99:14 *727:24 0
34 *249:10 *727:8 0
35 *419:8 *727:24 7.30101e-05
36 *452:10 *727:24 4.77425e-05
*RES
1 *3553:X *727:8 48.755 
2 *727:8 *727:14 43.7801 
3 *727:14 *727:24 46.2753 
4 *727:24 *2795:B2 20 
*END

*D_NET *728 0.0222319
*CONN
*I *2955:B1 I *D sg13g2_a21oi_1
*I *2719:A1 I *D sg13g2_a22oi_1
*I *3638:A I *D sg13g2_buf_1
*I *3241:Q O *D sg13g2_dfrbpq_1
*CAP
1 *2955:B1 0.000120411
2 *2719:A1 4.87423e-05
3 *3638:A 0
4 *3241:Q 0
5 *728:30 0
6 *728:26 0.00118666
7 *728:20 0.00131277
8 *728:14 0.00036453
9 *728:10 0.00511595
10 *728:8 0.00492628
11 *728:4 0.000120411
12 *2719:A1 *839:70 8.0216e-05
13 *2719:A1 *844:18 0
14 *2955:B1 *817:61 0
15 *2955:B1 *891:12 0
16 *728:10 *752:21 0.00486882
17 *728:10 *778:16 0
18 *728:10 *828:74 4.84528e-05
19 *728:14 *828:74 0.000177481
20 *728:20 *740:67 0
21 *728:20 *756:34 0
22 *728:26 *752:37 0
23 *728:26 *1169:33 0.00360373
24 *351:14 *728:10 0
25 *396:8 *728:14 0
26 *419:16 *728:26 0
27 *571:74 *2955:B1 0
28 *717:16 *728:10 0
29 *723:62 *728:26 0.000209505
30 *723:81 *728:26 4.79585e-05
*RES
1 *3241:Q *728:4 20 
2 *728:4 *728:8 40 
3 *728:8 *728:10 49.6357 
4 *728:10 *728:14 21.5862 
5 *728:14 *728:20 40.9682 
6 *728:20 *728:26 38.2825 
7 *728:26 *728:30 40 
8 *728:30 *3638:A 20 
9 *728:14 *2719:A1 40.5356 
10 *728:4 *2955:B1 21.3493 
*END

*D_NET *729 0.0116994
*CONN
*I *3639:A I *D sg13g2_buf_1
*I *2759:A1 I *D sg13g2_a22oi_1
*I *2930:B1 I *D sg13g2_a21oi_1
*I *3229:Q O *D sg13g2_dfrbpq_1
*CAP
1 *3639:A 0.000341649
2 *2759:A1 0
3 *2930:B1 0.000203062
4 *3229:Q 0.00022296
5 *729:33 0.00285607
6 *729:12 0.00294045
7 *2930:B1 *819:94 0
8 *3639:A *2783:A2 0
9 *3639:A *2783:A1 1.54556e-05
10 *3639:A *3643:A 0
11 *3639:A *3668:A 0
12 *3639:A *742:31 0
13 *729:12 *732:29 0
14 *729:12 *903:48 0.000144942
15 *729:33 *2759:B1 0.000144233
16 *729:33 *2772:B1 0
17 *729:33 *2772:A2 0
18 *729:33 *2783:B2 0.000348027
19 *729:33 *2783:A1 0
20 *729:33 *2950:B1 0
21 *729:33 *3058:A1 0
22 *729:33 *732:29 0.00279253
23 *729:33 *770:49 4.77425e-05
24 *729:33 *834:31 0
25 *729:33 *840:80 0.000370166
26 *729:33 *903:48 0
27 *729:33 *958:10 0.000338601
28 gpio_out[10] *3639:A 0
29 gpio_out[9] *3639:A 1.54008e-05
30 *97:34 *3639:A 0
31 *425:8 *729:33 0
32 *435:10 *729:33 0.000200172
33 *546:80 *2930:B1 1.54008e-05
34 *546:101 *2930:B1 0.000129403
35 *646:63 *2930:B1 0.000285421
36 *646:63 *729:33 0.000287672
37 *697:141 *2930:B1 0
*RES
1 *3229:Q *729:12 42.7192 
2 *729:12 *2930:B1 42.3072 
3 *729:12 *729:33 47.0478 
4 *729:33 *2759:A1 20 
5 *729:33 *3639:A 23.5947 
*END

*D_NET *730 0.0156742
*CONN
*I *2934:B1 I *D sg13g2_a21oi_1
*I *3640:A I *D sg13g2_buf_1
*I *2763:A1 I *D sg13g2_a22oi_1
*I *3231:Q O *D sg13g2_dfrbpq_1
*CAP
1 *2934:B1 0.000257955
2 *3640:A 8.06804e-05
3 *2763:A1 0
4 *3231:Q 0.000240867
5 *730:41 0.00252423
6 *730:26 0.00559475
7 *730:8 0.00365002
8 *2934:B1 *2934:A1 0
9 *2934:B1 *3233:RESET_B 0
10 *2934:B1 *899:29 0
11 *2934:B1 *1181:31 0
12 *730:8 *1173:21 0
13 *730:26 *3575:A 4.75613e-05
14 *730:26 *757:41 0
15 *730:26 *766:16 0
16 *730:26 *845:39 0.000112048
17 *730:26 *909:58 0.000370375
18 *730:26 *946:8 0
19 *730:26 *1045:10 0
20 *730:26 *1173:21 0
21 *730:26 *1181:31 0
22 *730:41 *2739:A2 0
23 *730:41 *731:56 0
24 *730:41 *733:52 0
25 *730:41 *912:16 0
26 *730:41 *1025:8 0
27 *730:41 *1049:10 0.00069402
28 *730:41 *1055:8 0
29 *730:41 *1077:8 0
30 gpio_out[8] *3640:A 0.000144151
31 gpio_out[9] *3640:A 0.000144151
32 *2765:A1 *730:26 0.000112426
33 *3145:CLK *730:26 0
34 *3448:A *730:41 0
35 *3483:A *730:41 0.00043538
36 *49:13 *730:41 0
37 *53:9 *730:41 0
38 *54:9 *730:41 0
39 *93:10 *730:41 0.000561032
40 *410:14 *730:26 0
41 *428:10 *730:26 0.000209164
42 *556:8 *730:26 0
43 *712:51 *2934:B1 4.78028e-05
44 *712:59 *730:8 0.000447598
45 *722:39 *2934:B1 0
*RES
1 *3231:Q *730:8 43.3166 
2 *730:8 *730:26 49.5919 
3 *730:26 *2763:A1 20 
4 *730:26 *730:41 45.9045 
5 *730:41 *3640:A 40.9682 
6 *730:8 *2934:B1 42.3999 
*END

*D_NET *731 0.0191059
*CONN
*I *3641:A I *D sg13g2_buf_1
*I *2767:A1 I *D sg13g2_a22oi_1
*I *2938:B1 I *D sg13g2_a21oi_1
*I *3233:Q O *D sg13g2_dfrbpq_1
*CAP
1 *3641:A 0
2 *2767:A1 0
3 *2938:B1 0
4 *3233:Q 0.000102694
5 *731:56 0.000400964
6 *731:50 0.00187839
7 *731:46 0.00307211
8 *731:33 0.000314119
9 *731:25 0.00389645
10 *731:18 0.000253559
11 *731:10 0.00224121
12 *731:8 0.000102694
13 *731:8 *795:24 0.000561086
14 *731:18 *755:23 0.000306964
15 *731:18 *790:18 0.000291717
16 *731:25 *3147:D 0
17 *731:25 *755:23 0.00299314
18 *731:25 *834:49 0
19 *731:33 *2767:B1 4.79124e-05
20 *731:33 *755:33 0
21 *731:33 *1181:43 0
22 *731:33 *1182:12 0.000500312
23 *731:46 *2732:A1 0
24 *731:46 *3147:RESET_B 0.000241387
25 *731:46 *733:31 0
26 *731:46 *740:52 0
27 *731:46 *755:33 0
28 *731:46 *794:27 0
29 *731:46 *827:12 0
30 *731:46 *827:20 0
31 *731:46 *849:8 0
32 *731:50 *732:41 0
33 *731:50 *761:23 0
34 *731:50 *762:31 0
35 *731:50 *762:50 0
36 *731:50 *957:16 0
37 *731:50 *1055:12 0
38 *731:56 *733:52 0
39 *2769:A1 *731:33 7.92377e-05
40 *2769:A2 *731:33 0
41 *3451:A *731:33 0
42 *93:10 *731:56 0
43 *97:26 *731:50 0
44 *422:18 *731:50 0.000921527
45 *430:8 *731:46 0
46 *432:10 *731:33 0
47 *546:31 *731:18 0.000306964
48 *546:31 *731:25 3.23417e-05
49 *546:46 *731:8 0.000561086
50 *697:165 *731:46 0
51 *697:167 *731:46 0
52 *699:92 *731:46 0
53 *712:59 *731:25 0
54 *722:41 *731:25 0
55 *730:41 *731:56 0
*RES
1 *3233:Q *731:8 42.575 
2 *731:8 *731:10 20 
3 *731:10 *731:18 43.3887 
4 *731:18 *2938:B1 20 
5 *731:10 *731:25 20.4352 
6 *731:25 *731:33 43.5123 
7 *731:33 *2767:A1 20 
8 *731:25 *731:46 34.1831 
9 *731:46 *731:50 33.2973 
10 *731:50 *731:56 43.811 
11 *731:56 *3641:A 20 
*END

*D_NET *732 0.0169241
*CONN
*I *2771:A1 I *D sg13g2_a22oi_1
*I *3642:A I *D sg13g2_buf_1
*I *2942:B1 I *D sg13g2_a21oi_1
*I *3235:Q O *D sg13g2_dfrbpq_1
*CAP
1 *2771:A1 0
2 *3642:A 0
3 *2942:B1 0
4 *3235:Q 7.20357e-05
5 *732:41 0.00088956
6 *732:35 0.000909918
7 *732:29 0.00343731
8 *732:14 0.000335296
9 *732:6 0.00382428
10 *732:6 *806:34 0
11 *732:14 *2944:B1 0
12 *732:14 *806:47 0
13 *732:14 *819:12 0
14 *732:14 *820:89 0
15 *732:29 *797:29 0
16 *732:29 *806:47 0.000629847
17 *732:29 *840:88 0.000854696
18 *732:29 *885:159 0.000144999
19 *732:29 *900:8 7.94972e-05
20 *732:29 *903:48 0
21 *732:35 *770:49 7.33225e-05
22 *732:35 *851:20 7.30101e-05
23 *732:41 *734:35 0
24 *732:41 *851:20 0
25 *2931:A *732:29 0.000241863
26 *2945:A *732:14 0.000274769
27 *2953:A *732:29 0
28 *2953:B *732:29 0.000688256
29 *306:10 *732:29 0.000466784
30 *361:18 *732:14 0
31 *362:32 *732:6 0
32 *362:32 *732:29 0
33 *443:10 *732:41 0.000861441
34 *564:14 *732:14 0.000274709
35 *729:12 *732:29 0
36 *729:33 *732:29 0.00279253
37 *731:50 *732:41 0
*RES
1 *3235:Q *732:6 20.8446 
2 *732:6 *732:14 43.8522 
3 *732:14 *2942:B1 20 
4 *732:6 *732:29 36.1118 
5 *732:29 *732:35 40.3502 
6 *732:35 *732:41 49.8365 
7 *732:41 *3642:A 20 
8 *732:29 *2771:A1 20 
*END

*D_NET *733 0.0173467
*CONN
*I *3643:A I *D sg13g2_buf_1
*I *2775:A1 I *D sg13g2_a22oi_1
*I *2946:B1 I *D sg13g2_a21oi_1
*I *3237:Q O *D sg13g2_dfrbpq_1
*CAP
1 *3643:A 7.21909e-05
2 *2775:A1 0
3 *2946:B1 0
4 *3237:Q 0.000252601
5 *733:52 0.0015055
6 *733:41 9.86062e-05
7 *733:35 0.00212847
8 *733:31 0.00335268
9 *733:12 0.00290702
10 *733:8 0.000403486
11 *3643:A *3645:A 0
12 *733:8 *790:18 0
13 *733:8 *794:33 0.000720909
14 *733:12 *758:46 0
15 *733:31 *2766:A2 0
16 *733:31 *2774:B1 4.77425e-05
17 *733:31 *3078:B1 0
18 *733:31 *3151:D 0.000164539
19 *733:31 *758:46 8.02924e-05
20 *733:31 *769:8 0
21 *733:31 *794:27 0
22 *733:31 *827:12 0.000234772
23 *733:31 *828:10 0
24 *733:31 *828:25 0
25 *733:31 *839:14 0
26 *733:35 *1061:18 0.000755989
27 *733:41 *1071:10 0
28 *733:41 *1075:12 0
29 *733:52 *758:60 0
30 *733:52 *871:14 0.00225393
31 *733:52 *1061:18 0.000537257
32 *2777:A1 *733:31 2.46687e-05
33 *2949:A *733:12 0.000144014
34 *3078:A2 *733:31 0.000112558
35 *3301:CLK *733:31 0
36 *3639:A *3643:A 0
37 *54:9 *733:52 0
38 *93:10 *733:52 0
39 *305:16 *733:8 0
40 *416:10 *733:41 0
41 *546:59 *733:31 0
42 *646:14 *733:12 0
43 *646:22 *733:31 7.9225e-05
44 *665:10 *733:31 0
45 *699:8 *733:31 0
46 *699:92 *733:35 0.00101347
47 *699:92 *733:52 0.000456784
48 *724:12 *733:35 0
49 *727:24 *733:52 0
50 *730:41 *733:52 0
51 *731:46 *733:31 0
52 *731:56 *733:52 0
*RES
1 *3237:Q *733:8 43.3166 
2 *733:8 *733:12 21.4008 
3 *733:12 *2946:B1 20 
4 *733:12 *733:31 45.9251 
5 *733:31 *733:35 26.8083 
6 *733:35 *733:41 40.5106 
7 *733:41 *2775:A1 20 
8 *733:35 *733:52 37.3864 
9 *733:52 *3643:A 40.7519 
*END

*D_NET *734 0.0106682
*CONN
*I *2779:A1 I *D sg13g2_a22oi_1
*I *3644:A I *D sg13g2_buf_1
*I *2950:B1 I *D sg13g2_a21oi_1
*I *3239:Q O *D sg13g2_dfrbpq_1
*CAP
1 *2779:A1 0
2 *3644:A 9.50896e-05
3 *2950:B1 0.000568984
4 *3239:Q 0.000201837
5 *734:35 0.00146275
6 *734:31 0.00136766
7 *734:27 0.00111673
8 *734:8 0.00188755
9 *2950:B1 *903:48 0
10 *2950:B1 *958:10 0
11 *734:8 *768:12 0
12 *734:8 *769:31 0.000604477
13 *734:27 *769:31 0.000393736
14 *734:27 *797:29 0.00166414
15 *734:27 *799:6 0.000193477
16 *734:27 *799:18 0.000824145
17 *734:27 *1174:26 0
18 *734:35 *736:43 0
19 *734:35 *848:37 0
20 gpio_out[12] *3644:A 0.000144099
21 gpio_out[13] *3644:A 1.54008e-05
22 gpio_out[14] *3644:A 0
23 *2953:A *2950:B1 4.78195e-05
24 *3239:CLK *2950:B1 8.02763e-05
25 *440:10 *734:27 0
26 *443:10 *734:35 0
27 *546:101 *2950:B1 0
28 *713:69 *2950:B1 0
29 *725:47 *734:27 0
30 *729:33 *2950:B1 0
31 *732:41 *734:35 0
*RES
1 *3239:Q *734:8 42.8222 
2 *734:8 *2950:B1 45.0985 
3 *734:8 *734:27 32.9677 
4 *734:27 *734:31 40 
5 *734:31 *734:35 30.0927 
6 *734:35 *3644:A 40.9682 
7 *734:27 *2779:A1 20 
*END

*D_NET *735 0.0274833
*CONN
*I *3645:A I *D sg13g2_buf_1
*I *2783:A1 I *D sg13g2_a22oi_1
*I *2889:B1 I *D sg13g2_a21oi_1
*I *3209:Q O *D sg13g2_dfrbpq_1
*CAP
1 *3645:A 0.000212031
2 *2783:A1 0.000368368
3 *2889:B1 2.77263e-05
4 *3209:Q 0.000381274
5 *735:78 0.000404021
6 *735:59 0.00178321
7 *735:55 0.00139115
8 *735:49 0.00168798
9 *735:37 0.00238563
10 *735:27 0.00340623
11 *735:23 0.00326005
12 *735:6 0.00112877
13 *2783:A1 *2783:B1 0.000144233
14 *2783:A1 *2783:A2 0
15 *2783:A1 *2803:A2 0
16 *2783:A1 *815:20 0.000703008
17 *2783:A1 *848:37 0.00038916
18 *2783:A1 *848:127 0.0001806
19 *3645:A *3650:A 0
20 *3645:A *742:31 0
21 *735:6 *736:25 0
22 *735:6 *736:29 0
23 *735:6 *816:36 0.000466304
24 *735:6 *1165:22 0
25 *735:23 *736:29 0
26 *735:23 *741:22 0
27 *735:23 *816:36 1.54556e-05
28 *735:23 *816:51 0.000815428
29 *735:23 *816:55 0
30 *735:37 *736:35 0.00108292
31 *735:37 *741:22 0
32 *735:37 *741:32 0
33 *735:37 *1174:26 0
34 *735:49 *3074:B1 2.46067e-05
35 *735:49 *741:32 0.00167752
36 *735:49 *744:47 0
37 *735:49 *770:20 0.000111928
38 *735:49 *770:26 0.000411827
39 *735:55 *2754:B1 0
40 *735:55 *830:12 0
41 *735:59 *736:35 0
42 *735:59 *741:32 0.00144476
43 *735:59 *830:8 0
44 *735:78 *736:43 0
45 *735:78 *739:28 0
46 *735:78 *815:20 0.000125903
47 *735:78 *848:127 0.00010454
48 *2757:A2 *735:59 4.73796e-05
49 *3058:A2 *735:49 4.76452e-05
50 *3077:A *735:49 0
51 *3219:CLK *735:23 0.00027372
52 *3639:A *2783:A1 1.54556e-05
53 *3643:A *3645:A 0
54 *3:22 *735:27 0
55 *261:10 *2783:A1 7.34081e-05
56 *292:10 *735:6 0
57 *336:8 *735:37 0
58 *452:18 *735:59 0
59 *455:10 *735:78 0.000180683
60 *455:20 *735:55 0.000340239
61 *458:10 *735:59 0.00146896
62 *522:10 *735:6 0.000497915
63 *646:63 *735:49 0.000128439
64 *705:58 *735:23 0.000274781
65 *729:33 *2783:A1 0
*RES
1 *3209:Q *735:6 24.2127 
2 *735:6 *2889:B1 20.3502 
3 *735:6 *735:23 47.9104 
4 *735:23 *735:27 46.059 
5 *735:27 *735:37 49.1464 
6 *735:37 *735:49 35.7487 
7 *735:49 *735:55 41.8334 
8 *735:55 *735:59 33.5136 
9 *735:59 *2783:A1 44.9337 
10 *735:59 *735:78 42.4308 
11 *735:78 *3645:A 41.8334 
*END

*D_NET *736 0.0241222
*CONN
*I *2787:A1 I *D sg13g2_a22oi_1
*I *3646:A I *D sg13g2_buf_1
*I *2893:B1 I *D sg13g2_a21oi_1
*I *3211:Q O *D sg13g2_dfrbpq_1
*CAP
1 *2787:A1 0.000188996
2 *3646:A 0
3 *2893:B1 0.000157066
4 *3211:Q 0
5 *736:47 0
6 *736:43 0.00149042
7 *736:37 0.00167941
8 *736:35 0.00442518
9 *736:29 0.00621649
10 *736:25 0.00212829
11 *736:4 0.000494046
12 *2893:B1 *816:36 0
13 *2893:B1 *820:12 7.99455e-05
14 *736:25 *1162:12 0
15 *736:25 *1165:22 0.000231335
16 *736:29 *741:22 0
17 *736:29 *1165:22 0
18 *736:35 *3060:B1 0
19 *736:35 *3291:RESET_B 0.00027307
20 *736:35 *3428:A 0
21 *736:35 *741:22 0
22 *736:35 *741:32 0
23 *736:35 *878:49 0
24 *736:35 *878:66 0
25 *736:35 *889:64 0.00173111
26 *736:35 *970:10 0.000274057
27 *736:35 *1165:22 0
28 *736:35 *1165:49 0.000435402
29 *736:35 *1174:26 0
30 *736:43 *848:27 0.000831281
31 *2757:A2 *736:35 0.000144661
32 *2757:B1 *736:35 0
33 *2896:A *2893:B1 7.31972e-05
34 *3061:B *736:35 0.000608007
35 *3219:CLK *736:29 0
36 *3291:D *736:35 0
37 *298:16 *736:29 0.000575507
38 *298:16 *736:35 0
39 *440:10 *736:43 0
40 *443:10 *736:43 0
41 *452:18 *736:35 0
42 *455:10 *736:43 0
43 *458:18 *2787:A1 0
44 *493:41 *736:25 0.000452552
45 *522:10 *736:25 0
46 *705:58 *736:29 0
47 *725:66 *2787:A1 0.000421119
48 *725:66 *736:43 0.00012816
49 *734:35 *736:43 0
50 *735:6 *736:25 0
51 *735:6 *736:29 0
52 *735:23 *736:29 0
53 *735:37 *736:35 0.00108292
54 *735:59 *736:35 0
55 *735:78 *736:43 0
*RES
1 *3211:Q *736:4 20 
2 *736:4 *2893:B1 21.8849 
3 *736:4 *736:25 43.9861 
4 *736:25 *736:29 15.5324 
5 *736:29 *736:35 37.9846 
6 *736:35 *736:37 20 
7 *736:37 *736:43 33.6553 
8 *736:43 *736:47 40 
9 *736:47 *3646:A 20 
10 *736:37 *2787:A1 42.0806 
*END

*D_NET *737 0.020165
*CONN
*I *3647:A I *D sg13g2_buf_1
*I *2791:A1 I *D sg13g2_a22oi_1
*I *2897:B1 I *D sg13g2_a21oi_1
*I *3213:Q O *D sg13g2_dfrbpq_1
*CAP
1 *3647:A 0.0001906
2 *2791:A1 0
3 *2897:B1 0.000396521
4 *3213:Q 0.000405179
5 *737:48 0.00156437
6 *737:31 0.00137377
7 *737:27 0.00452242
8 *737:25 0.00462793
9 *737:10 0.000907208
10 *2897:B1 *2917:A1 0
11 *2897:B1 *741:22 0.00027223
12 *2897:B1 *891:75 0
13 *2897:B1 *891:91 0
14 *2897:B1 *891:110 0
15 *3647:A *2795:A1 0
16 *3647:A *3650:A 1.54556e-05
17 *3647:A *739:51 0
18 *737:10 *741:8 0
19 *737:10 *816:55 0
20 *737:10 *816:66 0
21 *737:10 *891:91 0
22 *737:25 *891:110 0
23 *737:48 *2819:B1 0
24 *737:48 *3153:RESET_B 0
25 *737:48 *3653:A 0.000488461
26 *737:48 *3654:A 0
27 *737:48 *739:34 7.31628e-05
28 *737:48 *742:31 0
29 *737:48 *846:14 0.000337055
30 *737:48 *846:24 4.76247e-05
31 *737:48 *846:42 0.000272281
32 *737:48 *846:76 0
33 *737:48 *852:83 0.000561594
34 *737:48 *871:14 0
35 *737:48 *1056:8 0
36 *3219:CLK *2897:B1 0
37 *356:16 *737:27 0.00410911
38 *521:53 *737:10 0
39 *521:68 *737:10 0
40 *544:14 *2897:B1 0
41 *544:14 *737:25 0
*RES
1 *3213:Q *737:10 43.9449 
2 *737:10 *2897:B1 43.914 
3 *737:10 *737:25 20.8446 
4 *737:25 *737:27 50.7172 
5 *737:27 *737:31 40 
6 *737:31 *2791:A1 20 
7 *737:31 *737:48 33.8638 
8 *737:48 *3647:A 41.6171 
*END

*D_NET *738 0.00146645
*CONN
*I *2723:B2 I *D sg13g2_a22oi_1
*I *3554:X O *D sg13g2_buf_1
*CAP
1 *2723:B2 4.73557e-05
2 *3554:X 0.000256855
3 *738:8 0.000304211
4 *2723:B2 *850:76 8.00842e-05
5 *738:8 *778:45 7.40536e-05
6 *738:8 *934:18 0.000656144
7 *738:8 *935:12 0
8 *738:8 *1078:28 0
9 *398:8 *2723:B2 4.77425e-05
*RES
1 *3554:X *738:8 43.0694 
2 *738:8 *2723:B2 40.5356 
*END

*D_NET *739 0.0187826
*CONN
*I *2901:B1 I *D sg13g2_a21oi_1
*I *3648:A I *D sg13g2_buf_1
*I *2795:A1 I *D sg13g2_a22oi_1
*I *3215:Q O *D sg13g2_dfrbpq_1
*CAP
1 *2901:B1 8.48998e-05
2 *3648:A 0
3 *2795:A1 7.86043e-05
4 *3215:Q 0.000344656
5 *739:51 0.000506094
6 *739:34 0.000604737
7 *739:28 0.00658103
8 *739:26 0.00670056
9 *739:16 0.000569123
10 *2795:A1 *3650:A 0
11 *2795:A1 *3653:A 0
12 *2901:B1 *3618:A 4.77425e-05
13 *739:16 *861:38 0.000286322
14 *739:16 *1104:10 0.000314516
15 *739:26 *861:38 0.000184397
16 *739:26 *1104:10 7.48842e-05
17 *739:28 *742:23 0
18 *739:28 *755:53 0.000683075
19 *739:34 *742:31 7.3236e-05
20 *739:51 *3650:A 0
21 *739:51 *3653:A 0
22 *739:51 *871:14 0
23 gpio_out[16] *739:51 0.000144099
24 gpio_out[17] *739:51 1.54008e-05
25 gpio_out[18] *739:51 0
26 *2893:A2 *2901:B1 0
27 *2895:A2 *739:16 0.000110936
28 *2904:A *2901:B1 0
29 *3647:A *2795:A1 0
30 *3647:A *739:51 0
31 *3:22 *739:28 0
32 *78:10 *739:51 0
33 *93:10 *739:51 0.000530666
34 *291:8 *739:26 2.22043e-05
35 *356:8 *739:16 0.000233463
36 *455:10 *739:28 0
37 *527:10 *739:16 0.000391082
38 *527:10 *739:26 0.000127744
39 *735:78 *739:28 0
40 *737:48 *739:34 7.31628e-05
*RES
1 *3215:Q *739:16 45.0264 
2 *739:16 *739:26 22.1115 
3 *739:26 *739:28 52.9266 
4 *739:28 *739:34 40.3502 
5 *739:34 *2795:A1 20.7519 
6 *739:34 *739:51 45.2804 
7 *739:51 *3648:A 20 
8 *739:16 *2901:B1 40.8858 
*END

*D_NET *740 0.0214214
*CONN
*I *2959:B1 I *D sg13g2_a21oi_1
*I *2723:A1 I *D sg13g2_a22oi_1
*I *3649:A I *D sg13g2_buf_1
*I *3243:Q O *D sg13g2_dfrbpq_1
*CAP
1 *2959:B1 0.000171621
2 *2723:A1 0
3 *3649:A 5.52534e-05
4 *3243:Q 0.000181272
5 *740:67 0.000539652
6 *740:52 0.00139863
7 *740:44 0.00212634
8 *740:36 0.00109444
9 *740:28 0.00178193
10 *740:16 0.00222609
11 *740:8 0.00164819
12 *2959:B1 *885:111 0
13 *2959:B1 *909:78 8.0216e-05
14 *3649:A *830:29 0
15 *740:8 *778:22 0
16 *740:16 *2963:B1 0
17 *740:16 *807:48 0
18 *740:16 *909:78 0.00166805
19 *740:16 *1173:21 0
20 *740:28 *3066:B1 0
21 *740:28 *1172:28 0.000394206
22 *740:36 *2734:B1 0
23 *740:36 *828:59 0
24 *740:36 *909:66 0
25 *740:44 *756:34 0
26 *740:44 *790:10 7.30101e-05
27 *740:44 *909:58 7.33256e-05
28 *740:44 *1169:16 0.000112957
29 *740:52 *2728:A1 0
30 *740:52 *790:10 0
31 *740:52 *827:12 0.000971397
32 *740:52 *901:10 0.000159598
33 *740:52 *901:20 0.000126358
34 *740:52 *901:55 0
35 *740:52 *901:66 0
36 *740:52 *909:58 0
37 *740:52 *963:8 0.000447271
38 *740:52 *1058:28 0
39 *740:67 *756:34 0
40 *740:67 *828:74 0
41 *740:67 *1169:16 0.000490772
42 *740:67 *1169:31 7.86588e-05
43 *2737:A1 *740:36 0.000403824
44 *2753:A2 *3649:A 0
45 *3295:CLK *740:28 0
46 *3297:CLK *740:28 0
47 *79:12 *3649:A 1.54008e-05
48 *250:12 *740:44 0.000125963
49 *252:10 *740:36 0
50 *402:10 *740:52 7.33256e-05
51 *407:20 *740:36 0.00130934
52 *578:8 *740:8 0
53 *659:10 *740:28 0
54 *699:12 *740:52 0
55 *699:22 *740:52 0
56 *699:92 *740:52 0
57 *712:22 *740:28 0
58 *716:16 *740:52 0.00192662
59 *721:44 *740:16 0.00166771
60 *721:44 *740:28 0
61 *723:54 *3649:A 0
62 *728:20 *740:67 0
63 *731:46 *740:52 0
*RES
1 *3243:Q *740:8 41.8334 
2 *740:8 *740:16 34.6157 
3 *740:16 *740:28 49.682 
4 *740:28 *740:36 49.5996 
5 *740:36 *740:44 42.3381 
6 *740:44 *740:52 37.0877 
7 *740:52 *3649:A 40.5356 
8 *740:44 *740:67 45.7268 
9 *740:67 *2723:A1 20 
10 *740:8 *2959:B1 41.3802 
*END

*D_NET *741 0.0230063
*CONN
*I *2905:B1 I *D sg13g2_a21oi_1
*I *3650:A I *D sg13g2_buf_1
*I *2799:A1 I *D sg13g2_a22oi_1
*I *3217:Q O *D sg13g2_dfrbpq_1
*CAP
1 *2905:B1 0
2 *3650:A 0.000524143
3 *2799:A1 0
4 *3217:Q 0.000195618
5 *741:32 0.00437641
6 *741:22 0.00653265
7 *741:14 0.00281188
8 *741:8 0.00032711
9 *3650:A *3652:A 0
10 *3650:A *852:18 1.54008e-05
11 *741:14 *2905:A1 0.000342083
12 *741:14 *816:51 7.34424e-05
13 *741:14 *883:74 0
14 *741:22 *2909:A1 0
15 *741:22 *2909:B1 0
16 *741:22 *2919:B1 0
17 *741:22 *3075:D 3.23417e-05
18 *741:22 *3428:A 0.000758496
19 *741:22 *744:16 0.000272843
20 *741:22 *744:35 0
21 *741:22 *816:55 0.00033736
22 *741:22 *816:66 0.000481505
23 *741:22 *888:6 0
24 *741:22 *888:8 0
25 *741:22 *888:53 0
26 *741:22 *1165:41 0.00134282
27 *741:32 *2787:B2 0
28 *741:32 *2803:A2 0
29 *741:32 *3141:D 0
30 *741:32 *3291:RESET_B 0
31 *741:32 *770:6 0
32 *741:32 *770:20 0.000207854
33 *741:32 *830:8 4.76068e-05
34 *741:32 *852:18 0
35 *741:32 *852:93 0.000242089
36 *741:32 *888:53 1.54282e-05
37 gpio_out[18] *3650:A 0
38 gpio_out[20] *3650:A 0
39 *2757:A2 *741:32 0
40 *2757:B1 *741:32 0
41 *2795:A1 *3650:A 0
42 *2897:B1 *741:22 0.00027223
43 *2900:A *741:22 0
44 *2908:A *741:8 0
45 *2912:A *741:22 0
46 *3076:A2 *741:32 0
47 *3077:A *741:32 0.000209829
48 *3077:B *741:32 0
49 *3219:CLK *741:22 0
50 *3645:A *3650:A 0
51 *3647:A *3650:A 1.54556e-05
52 *93:10 *3650:A 0
53 *391:37 *741:32 0.000401901
54 *458:10 *741:32 0
55 *521:46 *741:8 4.75265e-05
56 *735:23 *741:22 0
57 *735:37 *741:22 0
58 *735:37 *741:32 0
59 *735:49 *741:32 0.00167752
60 *735:59 *741:32 0.00144476
61 *736:29 *741:22 0
62 *736:35 *741:22 0
63 *736:35 *741:32 0
64 *737:10 *741:8 0
65 *739:51 *3650:A 0
*RES
1 *3217:Q *741:8 21.9982 
2 *741:8 *741:14 41.8334 
3 *741:14 *741:22 29.3344 
4 *741:22 *741:32 38.7692 
5 *741:32 *2799:A1 20 
6 *741:32 *3650:A 24.9337 
7 *741:8 *2905:B1 20 
*END

*D_NET *742 0.0164481
*CONN
*I *3651:A I *D sg13g2_buf_1
*I *2803:A1 I *D sg13g2_a22oi_1
*I *2909:B1 I *D sg13g2_a21oi_1
*I *3219:Q O *D sg13g2_dfrbpq_1
*CAP
1 *3651:A 0
2 *2803:A1 0
3 *2909:B1 6.36923e-05
4 *3219:Q 5.99364e-05
5 *742:44 0.000388679
6 *742:31 0.000470051
7 *742:23 0.00605122
8 *742:21 0.00523245
9 *742:8 0.000163595
10 *2909:B1 *744:16 0.00011226
11 *742:21 *744:16 0
12 *742:23 *755:53 0
13 *742:23 *804:12 0
14 *742:31 *2783:A2 0
15 *742:31 *846:76 0
16 *742:31 *852:24 0
17 *742:31 *852:26 0
18 *742:31 *871:14 0.000981838
19 *742:44 *743:54 0
20 *742:44 *755:53 0
21 *3223:CLK *742:8 0
22 *3223:CLK *742:21 0
23 *3639:A *742:31 0
24 *3645:A *742:31 0
25 *361:12 *742:23 0.00271693
26 *361:35 *742:23 0.000134197
27 *737:48 *742:31 0
28 *739:28 *742:23 0
29 *739:34 *742:31 7.3236e-05
30 *741:22 *2909:B1 0
*RES
1 *3219:Q *742:8 40.5974 
2 *742:8 *2909:B1 40.7519 
3 *742:8 *742:21 20.3502 
4 *742:21 *742:23 56.9899 
5 *742:23 *742:31 45.5208 
6 *742:31 *2803:A1 20 
7 *742:23 *742:44 44.2539 
8 *742:44 *3651:A 20 
*END

*D_NET *743 0.0213572
*CONN
*I *3652:A I *D sg13g2_buf_1
*I *2807:A1 I *D sg13g2_a22oi_1
*I *2913:B1 I *D sg13g2_a21oi_1
*I *3221:Q O *D sg13g2_dfrbpq_1
*CAP
1 *3652:A 5.75113e-05
2 *2807:A1 0
3 *2913:B1 0
4 *3221:Q 2.77263e-05
5 *743:54 0.00242045
6 *743:29 0.00737309
7 *743:14 0.000820131
8 *743:6 0.00585801
9 *3652:A *3653:A 0
10 *743:14 *2913:A1 0
11 *743:14 *873:78 0.000404372
12 *743:14 *1185:28 0
13 *743:29 *3159:D 7.99485e-05
14 *743:29 *3446:A 0
15 *743:29 *747:28 4.73078e-05
16 *743:29 *754:8 0
17 *743:29 *873:78 0.00147996
18 *743:29 *908:12 0.000144992
19 *743:29 *908:18 0
20 *743:29 *908:24 0.00079144
21 *743:29 *1185:28 4.78359e-05
22 *743:54 *2807:A2 0
23 *743:54 *3167:RESET_B 0.00027267
24 *743:54 *3173:D 0.000176235
25 *743:54 *747:67 0
26 *743:54 *751:48 0
27 *743:54 *753:41 0
28 *743:54 *754:47 0
29 *743:54 *754:62 0
30 *743:54 *843:81 1.53556e-05
31 *743:54 *843:98 7.98669e-05
32 *743:54 *848:127 0
33 *743:54 *853:10 0.000208983
34 *743:54 *854:65 0.000435846
35 *743:54 *871:14 0
36 *743:54 *933:10 3.15716e-05
37 gpio_out[22] *3652:A 0
38 gpio_out[23] *3652:A 0
39 *2793:A2 *743:29 0
40 *3048:A *743:14 1.54008e-05
41 *3143:CLK *743:29 0
42 *3223:CLK *743:14 0
43 *3633:A *743:54 0
44 *3650:A *3652:A 0
45 *4:10 *743:54 0
46 *30:10 *743:54 0
47 *31:10 *743:54 0
48 *89:10 *743:54 0
49 *297:10 *743:14 0
50 *461:10 *743:54 0
51 *697:202 *743:14 0
52 *708:19 *743:14 0
53 *713:90 *743:29 0
54 *721:87 *743:54 0.000144894
55 *722:73 *743:54 0.000423574
56 *742:44 *743:54 0
*RES
1 *3221:Q *743:6 20.3502 
2 *743:6 *743:14 48.24 
3 *743:14 *2913:B1 20 
4 *743:6 *743:29 45.3818 
5 *743:29 *2807:A1 20 
6 *743:29 *743:54 43.5149 
7 *743:54 *3652:A 40.5356 
*END

*D_NET *744 0.0173998
*CONN
*I *3653:A I *D sg13g2_buf_1
*I *2811:A1 I *D sg13g2_a22oi_1
*I *2917:B1 I *D sg13g2_a21oi_1
*I *3223:Q O *D sg13g2_dfrbpq_1
*CAP
1 *3653:A 0.00119011
2 *2811:A1 0
3 *2917:B1 0
4 *3223:Q 3.04015e-05
5 *744:47 0.00373705
6 *744:35 0.00541405
7 *744:16 0.000633134
8 *744:6 0.00353065
9 *3653:A *3654:A 0
10 *3653:A *846:12 0
11 *3653:A *846:42 0
12 *3653:A *846:55 0
13 *3653:A *846:70 0
14 *744:16 *2909:A1 1.54008e-05
15 *744:35 *3199:RESET_B 0
16 *744:35 *745:28 0
17 *744:35 *814:35 0
18 *744:35 *814:64 0
19 *744:35 *824:58 0
20 *744:35 *824:75 0
21 *744:35 *872:10 0
22 *744:35 *872:61 0
23 *744:35 *872:76 0
24 *744:35 *888:18 0
25 *744:35 *1174:8 0.000286447
26 *744:47 *2754:B1 0
27 *744:47 *2781:A2 0.000207692
28 *744:47 *3074:B1 6.93714e-05
29 *744:47 *3153:D 0
30 *744:47 *770:20 0
31 *744:47 *770:26 0.000692769
32 *744:47 *824:75 8.00842e-05
33 *744:47 *846:12 8.00842e-05
34 *744:47 *846:24 0
35 *744:47 *846:42 0
36 *744:47 *846:55 0.000207598
37 *744:47 *852:10 0
38 *744:47 *852:93 0
39 *744:47 *854:30 0
40 *744:47 *902:45 0
41 gpio_out[23] *3653:A 4.75265e-05
42 gpio_out[26] *3653:A 0
43 *2795:A1 *3653:A 0
44 *2909:B1 *744:16 0.00011226
45 *2920:A *744:16 0
46 *3065:B *744:35 0
47 *3076:A2 *744:35 0
48 *3084:A2 *744:35 0.000176145
49 *3141:CLK *744:47 0
50 *3193:D *744:35 0
51 *3219:CLK *744:16 0
52 *3223:CLK *744:16 0
53 *3299:D *744:35 0
54 *3652:A *3653:A 0
55 *296:8 *744:16 0
56 *393:37 *744:47 8.00842e-05
57 *478:18 *3653:A 0
58 *543:12 *744:16 4.75959e-05
59 *646:96 *744:35 0
60 *646:109 *744:35 0
61 *654:10 *744:35 0
62 *716:16 *744:47 0
63 *726:20 *744:47 0
64 *735:49 *744:47 0
65 *737:48 *3653:A 0.000488461
66 *739:51 *3653:A 0
67 *741:22 *744:16 0.000272843
68 *741:22 *744:35 0
69 *742:21 *744:16 0
*RES
1 *3223:Q *744:6 20.3502 
2 *744:6 *744:16 46.6126 
3 *744:16 *2917:B1 20 
4 *744:6 *744:35 47.1629 
5 *744:35 *744:47 44.4007 
6 *744:47 *2811:A1 20 
7 *744:47 *3653:A 31.7941 
*END

*D_NET *745 0.0170313
*CONN
*I *2856:B1 I *D sg13g2_a21oi_1
*I *3654:A I *D sg13g2_buf_1
*I *2815:A1 I *D sg13g2_a22oi_1
*I *3193:Q O *D sg13g2_dfrbpq_1
*CAP
1 *2856:B1 7.70514e-05
2 *3654:A 0.00118143
3 *2815:A1 0
4 *3193:Q 0
5 *745:28 0.00341643
6 *745:20 0.00313987
7 *745:16 0.000904868
8 *745:12 0.000784692
9 *745:4 0.000861744
10 *2856:B1 *822:26 7.53965e-05
11 *2856:B1 *822:50 0
12 *3654:A *2819:A1 0.000116772
13 *3654:A *3655:A 0
14 *3654:A *747:67 4.75265e-05
15 *3654:A *748:37 0
16 *3654:A *804:20 0
17 *3654:A *853:42 0
18 *3654:A *1056:8 0
19 *745:12 *3207:RESET_B 0
20 *745:12 *747:36 0
21 *745:12 *814:35 0.000818303
22 *745:12 *822:36 0
23 *745:20 *814:41 0.000525369
24 *745:28 *2780:A1 0
25 *745:28 *3153:RESET_B 0.000369177
26 *745:28 *3299:RESET_B 2.45298e-05
27 *745:28 *748:37 0
28 *745:28 *793:12 0.000336867
29 *745:28 *824:75 0
30 gpio_out[26] *3654:A 0
31 gpio_out[28] *3654:A 0
32 *2884:A2 *745:12 0
33 *3141:CLK *745:28 0
34 *3193:CLK *745:12 0.000395789
35 *3379:A *745:28 0.00133448
36 *3467:A *745:28 0.000112426
37 *3653:A *3654:A 0
38 *84:10 *3654:A 4.75265e-05
39 *392:18 *745:28 0.000304338
40 *441:14 *745:28 0.000240474
41 *470:10 *3654:A 0
42 *646:78 *745:28 3.23417e-05
43 *646:86 *745:28 0.000207923
44 *710:10 *745:12 7.52158e-05
45 *710:12 *745:12 0.000233902
46 *726:20 *745:28 0.000304495
47 *726:29 *745:28 0.00106233
48 *737:48 *3654:A 0
49 *744:35 *745:28 0
*RES
1 *3193:Q *745:4 20 
2 *745:4 *745:12 49.3215 
3 *745:12 *745:16 40 
4 *745:16 *745:20 30.0528 
5 *745:20 *745:28 44.1638 
6 *745:28 *2815:A1 20 
7 *745:28 *3654:A 31.0859 
8 *745:4 *2856:B1 20.9167 
*END

*D_NET *746 0.0166863
*CONN
*I *3655:A I *D sg13g2_buf_1
*I *2819:A1 I *D sg13g2_a22oi_1
*I *2860:B1 I *D sg13g2_a21oi_1
*I *3195:Q O *D sg13g2_dfrbpq_1
*CAP
1 *3655:A 0.000414907
2 *2819:A1 0.000286858
3 *2860:B1 0.000270442
4 *3195:Q 0.000353793
5 *746:39 0.00161005
6 *746:35 0.00226154
7 *746:31 0.00266442
8 *746:25 0.00177677
9 *746:10 0.000736047
10 *746:8 0.000353793
11 *2819:A1 *847:21 0
12 *2819:A1 *871:14 0
13 *2860:B1 *3195:RESET_B 0
14 *2860:B1 *822:102 0
15 *3655:A *750:42 1.53311e-05
16 *3655:A *871:14 0
17 *746:8 *797:39 0
18 *746:8 *798:24 0.000872356
19 *746:25 *3195:RESET_B 0
20 *746:25 *750:10 0.000235556
21 *746:25 *799:22 0
22 *746:25 *822:102 0
23 *746:25 *1174:56 0
24 *746:31 *3159:RESET_B 0.000176431
25 *746:31 *750:10 0
26 *746:31 *750:26 0.001533
27 *746:31 *1173:40 0.000182121
28 *746:31 *1185:28 0
29 *746:35 *2832:A2 0
30 *746:35 *750:26 0
31 *746:35 *837:76 0
32 *746:39 *754:62 0.000440895
33 *746:39 *847:15 0
34 *746:39 *853:14 0
35 *746:39 *871:14 0
36 *746:39 *907:65 0.000339735
37 *746:39 *1070:14 0
38 gpio_out[28] *3655:A 0
39 gpio_out[30] *3655:A 0
40 *3195:D *2860:B1 0
41 *3195:CLK *746:25 0
42 *3195:CLK *746:31 0
43 *3636:A *746:35 0.00182134
44 *3654:A *2819:A1 0.000116772
45 *3654:A *3655:A 0
46 *87:10 *3655:A 4.75265e-05
47 *450:10 *746:35 0.000176592
48 *480:10 *746:35 0
49 *485:10 *746:39 0
*RES
1 *3195:Q *746:8 44.0582 
2 *746:8 *746:10 20 
3 *746:10 *2860:B1 22.4823 
4 *746:10 *746:25 44.7174 
5 *746:25 *746:31 33.9256 
6 *746:31 *746:35 33.5136 
7 *746:35 *746:39 28.2606 
8 *746:39 *2819:A1 42.7913 
9 *746:39 *3655:A 43.9346 
*END

*D_NET *747 0.0154856
*CONN
*I *3656:A I *D sg13g2_buf_1
*I *2823:A1 I *D sg13g2_a22oi_1
*I *2864:B1 I *D sg13g2_a21oi_1
*I *3197:Q O *D sg13g2_dfrbpq_1
*CAP
1 *3656:A 0
2 *2823:A1 0
3 *2864:B1 0.000121313
4 *3197:Q 0.000826284
5 *747:67 0.000414842
6 *747:52 0.00178831
7 *747:44 0.00372041
8 *747:40 0.00234694
9 *747:36 0.00120068
10 *747:28 0.00179141
11 *747:8 0.000356862
12 *2864:B1 *822:14 0.000209807
13 *747:8 *883:90 0
14 *747:28 *748:8 0.000500716
15 *747:28 *814:20 0
16 *747:28 *883:90 0
17 *747:28 *1185:28 4.73078e-05
18 *747:36 *3062:A1 0
19 *747:36 *3199:RESET_B 0
20 *747:36 *748:23 0.00117255
21 *747:36 *814:35 0
22 *747:36 *822:36 0
23 *747:52 *748:52 0
24 *747:52 *753:28 0
25 *747:52 *847:21 4.77425e-05
26 *747:52 *847:35 8.00842e-05
27 *747:52 *1176:50 0
28 *747:67 *2839:A2 0
29 *747:67 *750:42 0.000284832
30 *747:67 *753:41 7.34424e-05
31 *747:67 *847:21 0.000192147
32 *747:67 *871:14 0
33 *3199:CLK *747:36 0
34 *3458:A *747:52 8.00842e-05
35 *3654:A *747:67 4.75265e-05
36 *425:14 *747:52 0.000135043
37 *481:24 *747:52 0
38 *496:37 *747:28 0
39 *499:8 *747:28 0
40 *508:10 *747:8 0
41 *697:202 *2864:B1 0
42 *743:29 *747:28 4.73078e-05
43 *743:54 *747:67 0
44 *745:12 *747:36 0
*RES
1 *3197:Q *747:8 42.575 
2 *747:8 *2864:B1 41.4008 
3 *3197:Q *747:28 46.1079 
4 *747:28 *747:36 32.2982 
5 *747:36 *747:40 40 
6 *747:40 *747:44 46.059 
7 *747:44 *747:52 31.3712 
8 *747:52 *2823:A1 20 
9 *747:52 *747:67 44.4805 
10 *747:67 *3656:A 20 
*END

*D_NET *748 0.017814
*CONN
*I *3657:A I *D sg13g2_buf_1
*I *2827:A1 I *D sg13g2_a22oi_1
*I *2868:B1 I *D sg13g2_a21oi_1
*I *3199:Q O *D sg13g2_dfrbpq_1
*CAP
1 *3657:A 0
2 *2827:A1 0
3 *2868:B1 0.000225136
4 *3199:Q 9.43874e-05
5 *748:56 0
6 *748:52 0.000609961
7 *748:37 0.00311744
8 *748:23 0.00513323
9 *748:10 0.00285088
10 *748:8 9.43874e-05
11 *2868:B1 *861:74 0.00037191
12 *2868:B1 *883:86 0
13 *748:8 *883:90 0.000500716
14 *748:23 *3062:A1 0
15 *748:23 *3293:RESET_B 0.000338911
16 *748:23 *3303:RESET_B 0.000336585
17 *748:23 *753:18 0
18 *748:23 *768:12 0
19 *748:23 *800:33 0
20 *748:23 *861:74 0.00111401
21 *748:37 *2780:A1 0
22 *748:37 *800:27 0.000819786
23 *748:37 *847:35 2.17231e-05
24 *748:37 *1176:31 0
25 *748:37 *1176:44 0
26 *748:52 *847:35 0.000303527
27 *2859:A *748:23 0.00020816
28 *3199:CLK *2868:B1 0
29 *3199:CLK *748:23 0
30 *3654:A *748:37 0
31 *392:18 *748:37 0
32 *425:14 *748:37 0
33 *441:14 *748:37 0
34 *710:40 *748:23 0
35 *710:46 *748:23 0
36 *710:61 *748:23 0
37 *726:20 *748:37 0
38 *726:29 *748:37 0
39 *745:28 *748:37 0
40 *747:28 *748:8 0.000500716
41 *747:36 *748:23 0.00117255
42 *747:52 *748:52 0
*RES
1 *3199:Q *748:8 42.3278 
2 *748:8 *748:10 20 
3 *748:10 *2868:B1 22.4823 
4 *748:10 *748:23 45.8839 
5 *748:23 *748:37 42.7939 
6 *748:37 *2827:A1 20 
7 *748:37 *748:52 46.6435 
8 *748:52 *748:56 40 
9 *748:56 *3657:A 20 
*END

*D_NET *749 0.0132164
*CONN
*I *2799:B2 I *D sg13g2_a22oi_1
*I *3555:X O *D sg13g2_buf_1
*CAP
1 *2799:B2 7.73317e-05
2 *3555:X 0.000378816
3 *749:20 0.00302506
4 *749:14 0.00306046
5 *749:8 0.000491545
6 *2799:B2 *760:26 0
7 *749:8 *3551:A 0.000208048
8 *749:8 *1078:28 0
9 *749:20 *778:10 0.000499631
10 *749:20 *815:20 0.00165084
11 *749:20 *828:80 0.000339072
12 *749:20 *839:87 0
13 *749:20 *845:75 0.000497534
14 *749:20 *848:37 0.000124547
15 *749:20 *848:39 0.000232111
16 *749:20 *848:41 0.000334022
17 *749:20 *848:47 0.000176083
18 *749:20 *904:8 0
19 *749:20 *912:16 0
20 *749:20 *946:20 0
21 *749:20 *1047:10 0.000660857
22 *749:20 *1073:8 0
23 *249:10 *749:8 7.90445e-05
24 *458:10 *2799:B2 0
25 *727:24 *749:20 0.00138138
*RES
1 *3555:X *749:8 43.3475 
2 *749:8 *749:14 41.1845 
3 *749:14 *749:20 31.9197 
4 *749:20 *2799:B2 40.7519 
*END

*D_NET *750 0.0161821
*CONN
*I *2831:A1 I *D sg13g2_a22oi_1
*I *3658:A I *D sg13g2_buf_1
*I *2872:B1 I *D sg13g2_a21oi_1
*I *3201:Q O *D sg13g2_dfrbpq_1
*CAP
1 *2831:A1 0.000218939
2 *3658:A 0
3 *2872:B1 0
4 *3201:Q 0.00217796
5 *750:42 0.000256115
6 *750:34 0.000985166
7 *750:28 0.00094799
8 *750:26 0.00186959
9 *750:10 0.000308371
10 *2831:A1 *854:24 0
11 *2831:A1 *1176:50 0.000371591
12 *2831:A1 *1188:37 0
13 *750:10 *799:22 0.000448427
14 *750:10 *1174:56 0
15 *750:26 *3159:RESET_B 0
16 *750:26 *832:54 0
17 *750:26 *832:66 0
18 *750:26 *832:74 0
19 *750:26 *907:41 0
20 *750:26 *1174:68 0
21 *750:34 *2839:B1 4.77425e-05
22 *750:34 *2839:A2 7.99601e-05
23 *750:34 *753:28 0.000467915
24 *750:34 *853:42 0.000371345
25 *750:34 *871:14 7.99485e-05
26 *750:34 *1056:14 0.00123648
27 *750:34 *1176:50 0.00128742
28 *750:42 *753:41 0
29 *750:42 *847:21 0.000285167
30 *750:42 *871:14 0
31 *3195:CLK *750:10 0
32 *3476:A *750:26 0.000208195
33 *3636:A *750:26 0.00127329
34 *3655:A *750:42 1.53311e-05
35 *481:24 *750:34 0
36 *703:16 *750:26 0.000466853
37 *703:25 *750:26 0.000596739
38 *703:40 *2831:A1 0.000128219
39 *746:25 *750:10 0.000235556
40 *746:31 *750:10 0
41 *746:31 *750:26 0.001533
42 *746:35 *750:26 0
43 *747:67 *750:42 0.000284832
*RES
1 *3201:Q *750:10 43.6977 
2 *750:10 *2872:B1 40 
3 *3201:Q *750:26 40.3528 
4 *750:26 *750:28 20 
5 *750:28 *750:34 30.6811 
6 *750:34 *750:42 42.8634 
7 *750:42 *3658:A 20 
8 *750:28 *2831:A1 42.6935 
*END

*D_NET *751 0.0156537
*CONN
*I *3659:A I *D sg13g2_buf_1
*I *2835:A1 I *D sg13g2_a22oi_1
*I *2876:B1 I *D sg13g2_a21oi_1
*I *3203:Q O *D sg13g2_dfrbpq_1
*CAP
1 *3659:A 0.000206117
2 *2835:A1 0
3 *2876:B1 0.000319686
4 *3203:Q 0.000558254
5 *751:48 0.00189394
6 *751:33 0.00412062
7 *751:10 0.00275249
8 *751:8 0.000558254
9 *2876:B1 *2876:A1 0
10 *2876:B1 *1178:39 0
11 *2876:B1 *1179:32 0
12 *2876:B1 *1187:43 0
13 *3659:A *754:62 0.000208857
14 *751:8 *799:22 0.00146105
15 *751:33 *2835:B1 0.000242061
16 *751:33 *3157:RESET_B 0.000337315
17 *751:33 *3201:RESET_B 0
18 *751:33 *3715:A 0
19 *751:33 *832:24 0
20 *751:33 *832:35 0
21 *751:33 *1175:56 0
22 *751:33 *1178:39 0
23 *751:33 *1187:43 0
24 *751:48 *2835:B1 3.11029e-05
25 *751:48 *3183:RESET_B 0.000144768
26 *751:48 *907:80 0
27 *751:48 *1173:58 0.000305521
28 *751:48 *1175:70 0
29 gpio_out[30] *3659:A 0
30 gpio_out[31] *3659:A 4.75278e-05
31 *2817:A1 *751:33 4.77425e-05
32 *2841:A2 *751:48 0
33 *2879:A *2876:B1 1.54556e-05
34 *3171:D *751:33 0.000144261
35 *3201:D *751:33 0.000240536
36 *3203:D *2876:B1 0
37 *3330:A *751:33 0
38 *3351:A *751:33 0
39 *9:8 *751:48 0
40 *11:10 *751:48 0
41 *31:10 *751:48 0
42 *278:8 *751:48 0.000238308
43 *287:8 *751:8 7.52158e-05
44 *388:12 *751:8 0
45 *467:12 *751:33 0.000240668
46 *482:10 *751:48 0.000531319
47 *485:10 *751:48 0.000932646
48 *743:54 *751:48 0
*RES
1 *3203:Q *751:8 46.7774 
2 *751:8 *751:10 20 
3 *751:10 *2876:B1 23.3578 
4 *751:10 *751:33 24.6376 
5 *751:33 *2835:A1 20 
6 *751:33 *751:48 37.0671 
7 *751:48 *3659:A 42.2454 
*END

*D_NET *752 0.0232834
*CONN
*I *2727:A1 I *D sg13g2_a22oi_1
*I *3660:A I *D sg13g2_buf_1
*I *2963:B1 I *D sg13g2_a21oi_1
*I *3245:Q O *D sg13g2_dfrbpq_1
*CAP
1 *2727:A1 0
2 *3660:A 0
3 *2963:B1 0.000353111
4 *3245:Q 0
5 *752:43 0.000207042
6 *752:37 0.00131232
7 *752:33 0.00110528
8 *752:29 0.000215404
9 *752:21 0.00286829
10 *752:19 0.00265288
11 *752:6 0.000353111
12 *2963:B1 *2963:A1 0
13 *2963:B1 *778:22 0.000176083
14 *2963:B1 *807:48 0.000404465
15 *2963:B1 *909:78 0
16 *752:21 *828:74 0
17 *752:21 *1169:16 0
18 *752:21 *1169:31 0
19 *752:29 *3562:A 0.000176099
20 *752:29 *844:18 0.000143758
21 *752:29 *844:29 4.77425e-05
22 *752:29 *893:16 0.0004947
23 *752:29 *934:18 0.000496718
24 *752:37 *755:45 0.00242938
25 *752:37 *757:65 0
26 *752:37 *1169:33 0
27 *752:43 *830:54 0
28 *752:43 *1065:16 0
29 *419:16 *752:43 0.000306304
30 *717:16 *752:21 0.00467191
31 *728:10 *752:21 0.00486882
32 *728:26 *752:37 0
33 *740:16 *2963:B1 0
*RES
1 *3245:Q *752:6 40 
2 *752:6 *2963:B1 43.5432 
3 *752:6 *752:19 20 
4 *752:19 *752:21 33.6295 
5 *752:21 *752:29 43.5123 
6 *752:29 *752:33 40 
7 *752:33 *752:37 35.9238 
8 *752:37 *752:43 42.0497 
9 *752:43 *3660:A 40 
10 *752:29 *2727:A1 20 
*END

*D_NET *753 0.0140575
*CONN
*I *2880:B1 I *D sg13g2_a21oi_1
*I *3661:A I *D sg13g2_buf_1
*I *2839:A1 I *D sg13g2_a22oi_1
*I *3205:Q O *D sg13g2_dfrbpq_1
*CAP
1 *2880:B1 0.00046755
2 *3661:A 0
3 *2839:A1 0
4 *3205:Q 0
5 *753:41 0.000202323
6 *753:28 0.00205004
7 *753:18 0.00427593
8 *753:6 0.00289576
9 *2880:B1 *766:36 0
10 *2880:B1 *822:87 0
11 *2880:B1 *1185:28 0
12 *753:18 *2758:A2 0
13 *753:18 *3143:RESET_B 0
14 *753:18 *3143:D 0
15 *753:18 *3293:RESET_B 0
16 *753:18 *754:47 0
17 *753:18 *800:27 0
18 *753:18 *1170:29 0.00120525
19 *753:28 *2758:A2 0
20 *753:28 *2820:A1 0.000241639
21 *753:28 *2820:A2 0
22 *753:28 *2839:B1 8.02105e-05
23 *753:28 *754:47 0
24 *753:28 *754:62 0.000208912
25 *753:28 *773:8 0
26 *753:28 *848:127 0
27 *753:28 *882:24 0
28 *753:28 *907:12 0
29 *753:28 *907:25 8.0194e-05
30 *753:28 *1176:50 0.00118634
31 *753:41 *2839:B1 3.23472e-05
32 *753:41 *754:62 4.78028e-05
33 *2761:A1 *753:18 0
34 *2761:B1 *753:18 0.000139945
35 *2821:B1 *753:28 0
36 *3205:CLK *2880:B1 0.000258292
37 *425:14 *753:18 0
38 *425:14 *753:28 0
39 *485:10 *753:41 0.00012816
40 *697:11 *753:18 0
41 *697:194 *2880:B1 0
42 *697:194 *753:18 0
43 *710:40 *753:18 0
44 *710:61 *753:18 0
45 *711:39 *2880:B1 1.54556e-05
46 *743:54 *753:41 0
47 *747:52 *753:28 0
48 *747:67 *753:41 7.34424e-05
49 *748:23 *753:18 0
50 *750:34 *753:28 0.000467915
51 *750:42 *753:41 0
*RES
1 *3205:Q *753:6 40 
2 *753:6 *753:18 44.0264 
3 *753:18 *753:28 18.6242 
4 *753:28 *2839:A1 20 
5 *753:28 *753:41 42.1527 
6 *753:41 *3661:A 20 
7 *753:6 *2880:B1 45.0882 
*END

*D_NET *754 0.0155432
*CONN
*I *3662:A I *D sg13g2_buf_1
*I *2843:A1 I *D sg13g2_a22oi_1
*I *2884:B1 I *D sg13g2_a21oi_1
*I *3207:Q O *D sg13g2_dfrbpq_1
*CAP
1 *3662:A 0
2 *2843:A1 0
3 *2884:B1 0.000585203
4 *3207:Q 0.000461372
5 *754:62 0.000469631
6 *754:47 0.00495884
7 *754:8 0.00553579
8 *2884:B1 *873:78 0
9 *754:8 *873:78 0.000339261
10 *754:8 *908:24 0.000143999
11 *754:47 *2758:A2 0.000822153
12 *754:47 *2760:B1 0
13 *754:47 *2760:A2 0
14 *754:47 *2818:B1 0.000183222
15 *754:47 *2843:B1 4.77425e-05
16 *754:47 *2843:B2 0
17 *754:47 *3173:RESET_B 0
18 *754:47 *773:8 0
19 *754:47 *843:81 0
20 *754:47 *853:10 1.54008e-05
21 *754:47 *882:24 0
22 *754:47 *908:18 0
23 *754:47 *908:24 0
24 *754:47 *1170:29 0
25 *754:47 *1174:56 0
26 *754:62 *2843:B1 6.46834e-05
27 *754:62 *848:127 0
28 *754:62 *853:10 8.00842e-05
29 *754:62 *853:12 0
30 *754:62 *1070:14 0.000335652
31 *2809:B1 *754:47 0.000143781
32 *2821:A1 *754:47 1.66316e-05
33 *2887:A *2884:B1 0
34 *3494:A *754:47 0.000144389
35 *3659:A *754:62 0.000208857
36 *4:10 *754:62 0.000208857
37 *426:10 *754:47 0
38 *460:20 *754:47 8.00842e-05
39 *710:36 *2884:B1 0
40 *710:40 *2884:B1 0
41 *710:40 *754:47 0
42 *722:59 *754:47 0
43 *743:29 *754:8 0
44 *743:54 *754:47 0
45 *743:54 *754:62 0
46 *746:39 *754:62 0.000440895
47 *753:18 *754:47 0
48 *753:28 *754:47 0
49 *753:28 *754:62 0.000208912
50 *753:41 *754:62 4.78028e-05
*RES
1 *3207:Q *754:8 24.532 
2 *754:8 *2884:B1 25.9122 
3 *754:8 *754:47 39.043 
4 *754:47 *2843:A1 20 
5 *754:47 *754:62 45.9637 
6 *754:62 *3662:A 20 
*END

*D_NET *755 0.0271997
*CONN
*I *2731:A1 I *D sg13g2_a22oi_1
*I *3663:A I *D sg13g2_buf_1
*I *2967:B1 I *D sg13g2_a21oi_1
*I *3247:Q O *D sg13g2_dfrbpq_1
*CAP
1 *2731:A1 6.29735e-05
2 *3663:A 0
3 *2967:B1 0.000224757
4 *3247:Q 0.000401658
5 *755:53 0.00054182
6 *755:45 0.00167969
7 *755:41 0.00125362
8 *755:35 0.00063402
9 *755:33 0.00122111
10 *755:23 0.00361303
11 *755:21 0.00284723
12 *755:8 0.000626415
13 *2731:A1 *844:85 4.77425e-05
14 *2731:A1 *844:100 4.77425e-05
15 *2731:A1 *1076:16 0.000112535
16 *755:8 *808:59 0
17 *755:8 *885:99 0
18 *755:23 *3147:RESET_B 0.000112689
19 *755:23 *818:10 0
20 *755:23 *818:82 0
21 *755:23 *818:116 0
22 *755:23 *899:35 0.000501011
23 *755:33 *2732:B1 4.68099e-05
24 *755:33 *2732:A1 0
25 *755:33 *2767:B1 0
26 *755:33 *3147:RESET_B 0
27 *755:35 *2732:B1 0
28 *755:35 *2767:B1 0
29 *755:35 *844:77 0
30 *755:35 *1076:16 0.000208
31 *755:41 *757:59 0
32 *755:45 *757:65 0.00189369
33 *755:45 *1169:33 0
34 *755:53 *871:14 0
35 *2733:A1 *755:35 0
36 *2733:A2 *2731:A1 0
37 *2733:A2 *755:35 0.000241166
38 *3247:CLK *2967:B1 0.000551913
39 *3247:CLK *755:8 0.00026599
40 *3451:A *755:33 0
41 *386:28 *2967:B1 0
42 *432:10 *755:33 0
43 *546:20 *755:23 0.00111503
44 *646:10 *2967:B1 0
45 *646:10 *755:8 0
46 *699:22 *755:33 0.000112335
47 *716:10 *755:35 0
48 *720:41 *755:23 0
49 *722:39 *2967:B1 4.77425e-05
50 *723:81 *755:45 0.00237647
51 *724:27 *755:45 0
52 *731:18 *755:23 0.000306964
53 *731:25 *755:23 0.00299314
54 *731:33 *755:33 0
55 *731:46 *755:33 0
56 *739:28 *755:53 0.000683075
57 *742:23 *755:53 0
58 *742:44 *755:53 0
59 *752:37 *755:45 0.00242938
*RES
1 *3247:Q *755:8 44.3054 
2 *755:8 *2967:B1 42.8943 
3 *755:8 *755:21 20 
4 *755:21 *755:23 31.6828 
5 *755:23 *755:33 46.8289 
6 *755:33 *755:35 4.2127 
7 *755:35 *755:41 40.9682 
8 *755:41 *755:45 41.6094 
9 *755:45 *755:53 46.077 
10 *755:53 *3663:A 40 
11 *755:35 *2731:A1 20.7519 
*END

*D_NET *756 0.020097
*CONN
*I *3664:A I *D sg13g2_buf_1
*I *2735:A1 I *D sg13g2_a22oi_1
*I *2971:B1 I *D sg13g2_a21oi_1
*I *3249:Q O *D sg13g2_dfrbpq_1
*CAP
1 *3664:A 0
2 *2735:A1 0.000181872
3 *2971:B1 0
4 *3249:Q 0.000298393
5 *756:61 0.000244052
6 *756:53 0.00188353
7 *756:34 0.00419386
8 *756:30 0.00373002
9 *756:24 0.0013575
10 *756:10 0.000298393
11 *2735:A1 *1037:10 0.000866194
12 *2735:A1 *1067:16 0.000866608
13 *756:10 *3103:A1 0.000124547
14 *756:10 *818:20 0.000492961
15 *756:10 *865:46 0.000209087
16 *756:10 *898:37 0
17 *756:30 *790:14 0
18 *756:30 *1169:16 0
19 *756:34 *757:31 0
20 *756:34 *790:14 0
21 *756:34 *1025:16 0
22 *756:34 *1049:18 0
23 *756:53 *2751:A1 4.77425e-05
24 *756:53 *2834:A2 4.77425e-05
25 *756:53 *759:71 0
26 *756:53 *830:54 0
27 *756:53 *840:47 7.30101e-05
28 *756:53 *848:55 0
29 *756:53 *848:66 0.000127802
30 *756:53 *851:58 0.000646391
31 *756:53 *946:20 0.000498767
32 *756:53 *1037:10 0.000916606
33 *756:53 *1065:16 0
34 *756:53 *1067:16 0.00137541
35 *756:53 *1069:12 0
36 *756:53 *1078:14 0
37 *756:61 *2751:A1 0.000176551
38 *756:61 *3666:A 0.000335157
39 *756:61 *3668:A 0.00017889
40 gpio_out[1] *756:53 0
41 gpio_out[2] *756:53 0.000337353
42 *2971:A2 *756:10 7.40536e-05
43 *90:16 *756:53 0.000127542
44 *97:34 *756:61 0.000240437
45 *259:14 *756:34 0
46 *571:95 *756:10 7.34783e-05
47 *724:18 *756:53 7.30101e-05
48 *728:20 *756:34 0
49 *740:44 *756:34 0
50 *740:67 *756:34 0
*RES
1 *3249:Q *756:10 43.7286 
2 *756:10 *2971:B1 40 
3 *3249:Q *756:24 40 
4 *756:24 *756:30 35.6869 
5 *756:30 *756:34 37.8262 
6 *756:34 *2735:A1 44.0582 
7 *756:34 *756:53 39.8172 
8 *756:53 *756:61 43.2033 
9 *756:61 *3664:A 20 
*END

*D_NET *757 0.0220027
*CONN
*I *2739:A1 I *D sg13g2_a22oi_1
*I *3665:A I *D sg13g2_buf_1
*I *2975:B1 I *D sg13g2_a21oi_1
*I *3251:Q O *D sg13g2_dfrbpq_1
*CAP
1 *2739:A1 2.18538e-05
2 *3665:A 0
3 *2975:B1 0.000267053
4 *3251:Q 0.000373562
5 *757:77 0.00019141
6 *757:65 0.000854549
7 *757:59 0.000791349
8 *757:51 0.000817079
9 *757:41 0.00148072
10 *757:31 0.00237835
11 *757:27 0.00416714
12 *757:10 0.00286956
13 *757:8 0.000373562
14 *2739:A1 *3556:A 4.77425e-05
15 *2739:A1 *844:100 3.23417e-05
16 *2975:B1 *2975:A1 0
17 *757:8 *883:70 7.52158e-05
18 *757:27 *2709:A 0.00114955
19 *757:27 *2939:B 0
20 *757:27 *3307:RESET_B 0.000273699
21 *757:27 *766:22 0
22 *757:27 *880:49 0
23 *757:27 *880:62 0
24 *757:27 *892:6 0
25 *757:27 *892:8 0
26 *757:27 *930:12 7.00878e-05
27 *757:27 *1181:31 0
28 *757:41 *828:31 7.34778e-05
29 *757:41 *839:29 7.49317e-05
30 *757:41 *1045:10 0.000273328
31 *757:51 *3556:A 0.00027232
32 *757:51 *844:18 0
33 *757:51 *844:100 1.54118e-05
34 *757:51 *946:8 0.000176718
35 *757:51 *1045:10 0
36 *757:51 *1149:14 0.000143099
37 *757:51 *1181:43 8.00842e-05
38 *757:59 *2746:A1 7.30101e-05
39 *757:59 *1149:14 0
40 *757:59 *1181:47 0.000110743
41 *757:77 *798:10 0
42 *757:77 *798:14 0.000146978
43 *757:77 *830:54 0
44 *757:77 *1060:12 0
45 *2939:A *757:27 0.000177257
46 *2978:A *2975:B1 3.7631e-05
47 *3071:A *757:27 0
48 *3094:A *757:27 0
49 *3094:B *757:27 0
50 *3129:D *757:51 0.000224401
51 *3348:A *757:41 0.000144251
52 *3389:A *757:77 0
53 *3:18 *757:8 0
54 *95:12 *757:77 0
55 *259:14 *757:31 0
56 *312:10 *2975:B1 0
57 *354:24 *2975:B1 0
58 *354:24 *757:27 0
59 *359:20 *757:27 0
60 *359:24 *757:27 0.00102
61 *410:14 *757:41 0
62 *410:14 *757:51 0.000595495
63 *413:16 *757:77 0
64 *571:12 *2975:B1 0
65 *571:12 *757:8 0.000235055
66 *698:38 *757:8 0
67 *706:8 *757:27 0
68 *724:27 *757:65 0
69 *730:26 *757:41 0
70 *752:37 *757:65 0
71 *755:41 *757:59 0
72 *755:45 *757:65 0.00189369
73 *756:34 *757:31 0
*RES
1 *3251:Q *757:8 43.3166 
2 *757:8 *757:10 20 
3 *757:10 *2975:B1 21.965 
4 *757:10 *757:27 46.3316 
5 *757:27 *757:31 39.7863 
6 *757:31 *757:41 47.725 
7 *757:41 *757:51 47.107 
8 *757:51 *757:59 41.1021 
9 *757:59 *757:65 49.991 
10 *757:65 *757:77 42.1398 
11 *757:77 *3665:A 20 
12 *757:51 *2739:A1 20.3193 
*END

*D_NET *758 0.0252507
*CONN
*I *3666:A I *D sg13g2_buf_1
*I *2743:A1 I *D sg13g2_a22oi_1
*I *2979:B1 I *D sg13g2_a21oi_1
*I *3253:Q O *D sg13g2_dfrbpq_1
*CAP
1 *3666:A 0.000707865
2 *2743:A1 4.9906e-05
3 *2979:B1 0
4 *3253:Q 0.00184998
5 *758:60 0.00110419
6 *758:56 0.00113163
7 *758:46 0.00370601
8 *758:38 0.00450362
9 *758:32 0.00310987
10 *758:10 0.000322933
11 *2743:A1 *851:38 0
12 *2743:A1 *851:42 0
13 *3666:A *3668:A 0
14 *3666:A *851:38 0
15 *3666:A *871:14 0
16 *758:10 *820:36 0
17 *758:10 *883:70 0
18 *758:10 *891:51 0.000177526
19 *758:32 *2983:B1 0.000209115
20 *758:32 *820:36 0
21 *758:32 *820:47 0
22 *758:32 *820:58 0
23 *758:32 *885:58 0
24 *758:32 *885:64 0.00128824
25 *758:32 *891:51 0.000392547
26 *758:38 *3225:RESET_B 0.00053269
27 *758:38 *795:26 0
28 *758:38 *796:18 0.00018366
29 *758:38 *885:64 0.00017718
30 *758:38 *885:91 0.000291085
31 *758:38 *885:142 0.00132569
32 *758:46 *2742:A2 0.000122403
33 *758:46 *2806:A1 0
34 *758:46 *3151:RESET_B 0
35 *758:46 *3151:D 0.000177394
36 *758:46 *3373:A 0.000241325
37 *758:46 *3383:A 0
38 *758:46 *3565:A 0
39 *758:46 *769:8 7.95529e-05
40 *758:46 *769:27 0
41 *758:46 *827:12 0
42 *758:46 *828:10 0.000177164
43 *758:46 *840:26 0
44 *758:46 *1175:10 0
45 *758:56 *798:14 0
46 *758:56 *840:47 0
47 *758:56 *1061:18 0
48 *758:60 *851:42 0
49 *758:60 *871:14 0
50 *758:60 *1039:16 0.000499436
51 gpio_out[9] *3666:A 0
52 *2745:A1 *758:46 0
53 *2745:A2 *758:46 0.000143999
54 *3115:B1 *758:32 8.0216e-05
55 *3118:A *758:32 8.00842e-05
56 *3237:CLK *758:38 0
57 *3255:D *758:32 0
58 *3311:CLK *758:32 0
59 *95:12 *758:56 0
60 *357:28 *758:32 0
61 *571:37 *758:10 0.000287845
62 *646:14 *758:38 0
63 *646:14 *758:46 0.00140803
64 *693:10 *758:32 0
65 *707:8 *758:32 0
66 *724:12 *758:56 0.000474051
67 *727:24 *758:60 0
68 *733:12 *758:46 0
69 *733:31 *758:46 8.02924e-05
70 *733:52 *758:60 0
71 *756:61 *3666:A 0.000335157
*RES
1 *3253:Q *758:10 43.7286 
2 *758:10 *2979:B1 40 
3 *3253:Q *758:32 36.4285 
4 *758:32 *758:38 36.0886 
5 *758:38 *758:46 47.9604 
6 *758:46 *758:56 47.4778 
7 *758:56 *758:60 23.811 
8 *758:60 *2743:A1 40.5356 
9 *758:60 *3666:A 46.0255 
*END

*D_NET *759 0.0204284
*CONN
*I *3667:A I *D sg13g2_buf_1
*I *2747:A1 I *D sg13g2_a22oi_1
*I *2983:B1 I *D sg13g2_a21oi_1
*I *3255:Q O *D sg13g2_dfrbpq_1
*CAP
1 *3667:A 0
2 *2747:A1 0
3 *2983:B1 0.00057209
4 *3255:Q 0.000293899
5 *759:71 0.000853182
6 *759:55 0.000983094
7 *759:49 0.00155588
8 *759:45 0.0029841
9 *759:39 0.00407633
10 *759:10 0.00338419
11 *2983:B1 *820:58 0
12 *759:10 *820:58 0
13 *759:39 *806:63 0.000144312
14 *759:39 *819:35 0.000596195
15 *759:39 *856:94 0
16 *759:39 *885:142 0
17 *759:45 *2776:B1 0
18 *759:45 *3229:RESET_B 0
19 *759:45 *902:6 0
20 *759:45 *902:19 0
21 *759:45 *903:48 0.00039467
22 *759:49 *2834:A1 0
23 *759:49 *3139:RESET_B 0
24 *759:49 *3139:D 0
25 *759:49 *1055:18 4.77425e-05
26 *759:71 *2834:A1 0
27 *759:71 *2834:B1 0
28 *759:71 *798:39 0
29 *759:71 *830:46 0
30 *759:71 *1065:16 0.000232389
31 *759:71 *1071:10 0
32 gpio_out[0] *759:71 2.46413e-05
33 *2753:A1 *759:49 0
34 *2924:A2 *759:39 0
35 *2929:A *759:39 6.57705e-05
36 *2929:A *759:45 6.49135e-05
37 *2929:B *759:39 0
38 *3135:CLK *759:71 0
39 *3151:CLK *759:45 0
40 *3229:D *759:45 0
41 *3255:CLK *759:39 0
42 *79:12 *759:71 0.000228663
43 *90:16 *759:71 0
44 *97:10 *759:55 0.000124859
45 *301:10 *759:39 4.77425e-05
46 *363:16 *759:10 0
47 *416:10 *759:71 2.1786e-05
48 *422:24 *759:49 0
49 *478:18 *759:71 0
50 *546:112 *759:39 0
51 *595:10 *2983:B1 0
52 *697:17 *759:39 0
53 *697:75 *759:10 0
54 *697:165 *759:49 0
55 *700:36 *759:49 0
56 *700:53 *759:55 0
57 *723:54 *759:39 0.00150253
58 *723:54 *759:45 0.00202031
59 *723:70 *759:71 0
60 *756:53 *759:71 0
61 *758:32 *2983:B1 0.000209115
*RES
1 *3255:Q *759:10 42.6471 
2 *759:10 *2983:B1 45.2118 
3 *759:10 *759:39 45.4101 
4 *759:39 *759:45 37.0774 
5 *759:45 *759:49 31.4113 
6 *759:49 *759:55 41.0918 
7 *759:55 *759:71 48.0031 
8 *759:71 *2747:A1 20 
9 *759:55 *3667:A 20 
*END

*D_NET *760 0.0100203
*CONN
*I *2803:B2 I *D sg13g2_a22oi_1
*I *3556:X O *D sg13g2_buf_1
*CAP
1 *2803:B2 0
2 *3556:X 2.41961e-05
3 *760:26 0.000674784
4 *760:14 0.00214128
5 *760:8 0.00149069
6 *760:14 *2772:B1 0
7 *760:14 *3149:RESET_B 8.01705e-05
8 *760:14 *804:12 0
9 *760:14 *826:14 0
10 *760:14 *829:20 0.000971913
11 *760:14 *830:35 0.000441259
12 *760:14 *838:10 0.000390367
13 *760:14 *845:31 0
14 *760:14 *1032:18 0
15 *760:14 *1171:10 0.00139436
16 *760:14 *1171:18 0
17 *760:26 *2783:B2 0
18 *760:26 *2803:A2 1.54556e-05
19 *760:26 *804:12 0
20 *760:26 *851:8 0.000144861
21 *2773:A1 *760:14 0
22 *2799:B2 *760:26 0
23 *3394:A *760:26 0.000194517
24 *99:14 *760:26 0
25 *392:41 *760:14 0.00122981
26 *435:10 *760:14 0
27 *458:10 *760:26 0.000176301
28 *481:24 *760:26 0.000650296
29 *700:53 *760:26 0
*RES
1 *3556:X *760:8 40.3193 
2 *760:8 *760:14 38.3443 
3 *760:14 *760:26 47.2677 
4 *760:26 *2803:B2 20 
*END

*D_NET *761 0.0125975
*CONN
*I *3668:A I *D sg13g2_buf_1
*I *2751:A1 I *D sg13g2_a22oi_1
*I *2922:B1 I *D sg13g2_a21oi_1
*I *3225:Q O *D sg13g2_dfrbpq_1
*CAP
1 *3668:A 0.000479149
2 *2751:A1 0.000103392
3 *2922:B1 0.000536285
4 *3225:Q 0
5 *761:25 0.000582542
6 *761:23 0.00413389
7 *761:21 0.00413389
8 *761:6 0.000536285
9 *2751:A1 *851:38 0.000229428
10 *2922:B1 *819:35 0.000371059
11 *3668:A *762:50 0.00012596
12 *3668:A *871:14 0
13 *761:23 *762:31 0
14 *761:23 *819:62 0
15 *761:23 *819:83 0
16 *761:23 *820:108 0
17 *761:23 *957:16 7.97336e-05
18 *761:23 *1032:14 0.000631062
19 *761:23 *1055:12 0
20 gpio_out[1] *2751:A1 0
21 gpio_out[9] *3668:A 0.000176474
22 *3054:A2 *2922:B1 0
23 *3639:A *3668:A 0
24 *3666:A *3668:A 0
25 *97:26 *761:23 0
26 *99:14 *3668:A 7.51285e-05
27 *419:16 *761:23 0
28 *422:18 *761:23 0
29 *546:112 *2922:B1 0
30 *546:127 *2922:B1 0
31 *697:17 *2922:B1 0
32 *707:39 *2922:B1 0
33 *723:62 *761:23 0
34 *727:24 *3668:A 0
35 *731:50 *761:23 0
36 *756:53 *2751:A1 4.77425e-05
37 *756:61 *2751:A1 0.000176551
38 *756:61 *3668:A 0.00017889
*RES
1 *3225:Q *761:6 40 
2 *761:6 *2922:B1 44.9131 
3 *761:6 *761:21 20 
4 *761:21 *761:23 44.6608 
5 *761:23 *761:25 20 
6 *761:25 *2751:A1 41.4111 
7 *761:25 *3668:A 44.9646 
*END

*D_NET *762 0.00936379
*CONN
*I *2755:A1 I *D sg13g2_a22oi_1
*I *3669:A I *D sg13g2_buf_1
*I *2926:B1 I *D sg13g2_a21oi_1
*I *3227:Q O *D sg13g2_dfrbpq_1
*CAP
1 *2755:A1 0
2 *3669:A 0
3 *2926:B1 0.000711902
4 *3227:Q 0
5 *762:50 0.000322904
6 *762:37 0.000263826
7 *762:31 0.00314476
8 *762:6 0.00326993
9 *2926:B1 *798:24 0.000495743
10 *2926:B1 *819:68 1.54008e-05
11 *2926:B1 *819:83 0
12 *762:31 *820:108 0
13 *762:31 *826:14 0.000275572
14 *762:31 *851:20 0
15 *762:37 *848:37 0.000126202
16 *762:50 *851:20 0
17 *2926:A2 *2926:B1 4.77425e-05
18 *3227:CLK *2926:B1 0
19 *3668:A *762:50 0.00012596
20 *261:10 *762:37 0.000387288
21 *435:10 *762:37 0.000176551
22 *443:10 *762:31 0
23 *478:18 *762:37 0
24 *546:80 *2926:B1 0
25 *697:125 *2926:B1 0
26 *723:54 *2926:B1 0
27 *731:50 *762:31 0
28 *731:50 *762:50 0
29 *761:23 *762:31 0
*RES
1 *3227:Q *762:6 40 
2 *762:6 *2926:B1 47.4263 
3 *762:6 *762:31 46.9242 
4 *762:31 *762:37 42.8222 
5 *762:37 *3669:A 20 
6 *762:31 *762:50 42.6471 
7 *762:50 *2755:A1 20 
*END

*D_NET *763 0.00471536
*CONN
*I *2846:A_N I *D sg13g2_nand3b_1
*I *2711:A I *D sg13g2_nor2b_1
*I *2712:A_N I *D sg13g2_nand2b_1
*I *3670:A I *D sg13g2_buf_1
*I *3121:Q O *D sg13g2_dfrbpq_1
*CAP
1 *2846:A_N 4.01995e-05
2 *2711:A 0
3 *2712:A_N 4.73699e-05
4 *3670:A 0.000880199
5 *3121:Q 0.00129677
6 *763:32 0.00049057
7 *763:26 0.00089997
8 *2846:A_N *2846:C 7.43486e-05
9 *3670:A *3684:A 0
10 *3670:A *3698:A 0
11 *3670:A *1001:8 0
12 *763:26 *797:39 0.000586439
13 *763:26 *798:24 0
14 *763:26 *1001:8 0
15 *763:32 *2846:C 0
16 *763:32 *3121:RESET_B 0
17 *763:32 *3187:RESET_B 0
18 *763:32 *797:39 0.000181694
19 s_axil_rdata[6] *763:26 0.000143449
20 *2847:B *763:32 0
21 *3187:D *763:32 0
22 *389:12 *2712:A_N 0
23 *389:12 *763:32 0
24 *702:48 *763:32 0
25 *702:61 *2846:A_N 7.43486e-05
*RES
1 *3121:Q *3670:A 49.3936 
2 *3121:Q *763:26 44.9028 
3 *763:26 *763:32 24.4084 
4 *763:32 *2712:A_N 20.5974 
5 *763:32 *2711:A 20 
6 *763:26 *2846:A_N 40.497 
*END

*D_NET *764 0.0170318
*CONN
*I *3323:A I *D sg13g2_buf_1
*I *3119:A1 I *D sg13g2_o21ai_1
*I *2703:A I *D sg13g2_inv_1
*I *2849:A I *D sg13g2_nor3_1
*I *3671:A I *D sg13g2_buf_1
*I *3189:Q O *D sg13g2_dfrbpq_1
*CAP
1 *3323:A 0.000237127
2 *3119:A1 0
3 *2703:A 0.000474384
4 *2849:A 0.000351082
5 *3671:A 0
6 *3189:Q 0.000252471
7 *764:51 0.000556955
8 *764:38 0.0010294
9 *764:23 0.000586268
10 *764:21 0.00305938
11 *764:19 0.00332783
12 *764:10 0.000520928
13 *2703:A *3611:A 4.78195e-05
14 *2703:A *1155:10 7.94445e-05
15 *2849:A *3279:RESET_B 0
16 *2849:A *3608:A 0.000307057
17 *3323:A *3621:A 4.78195e-05
18 *3323:A *3625:A 0
19 *3323:A *1168:12 0
20 *3323:A *1180:6 1.54556e-05
21 *764:10 *3598:A 0
22 *764:10 *1162:12 0
23 *764:19 *3209:RESET_B 0
24 *764:19 *3598:A 1.54008e-05
25 *764:19 *1162:12 0
26 *764:21 *3596:A 0.000816167
27 *764:21 *816:10 0.000268679
28 *764:21 *816:12 0.000425632
29 *764:21 *816:18 0.000992942
30 *764:21 *889:79 0
31 *764:21 *1093:12 0.000722468
32 *764:21 *1124:16 0.000399241
33 *764:21 *1134:8 0
34 *764:21 *1150:12 0
35 *764:21 *1161:10 0.0014733
36 *764:21 *1166:37 7.34889e-05
37 *764:21 *1177:16 0
38 *764:38 *821:10 8.02379e-05
39 *764:38 *825:10 7.61961e-05
40 *764:38 *1152:14 7.61954e-05
41 *764:38 *1155:10 0
42 *764:51 *2852:A1 0
43 *764:51 *1164:10 0
44 s_axil_awready *764:10 0
45 *2849:B *2703:A 0
46 *2849:B *2849:A 0
47 *2850:B *3323:A 0
48 *3279:CLK *2703:A 0
49 *362:22 *764:19 0
50 *376:10 *2703:A 0
51 *491:37 *3323:A 1.54008e-05
52 *492:12 *2849:A 0
53 *492:16 *764:38 0
54 *493:16 *764:51 0
55 *493:30 *764:38 0.000288855
56 *493:41 *764:21 0
57 *524:8 *764:21 0
58 *622:8 *764:21 0.000183828
59 *624:8 *764:21 0.000230373
60 *708:82 *764:21 0
61 *714:29 *3323:A 0
62 *714:29 *764:51 0
63 *714:48 *3323:A 0
*RES
1 *3189:Q *764:10 22.3175 
2 *764:10 *3671:A 20 
3 *764:10 *764:19 22.6986 
4 *764:19 *764:21 32.7334 
5 *764:21 *764:23 20 
6 *764:23 *2849:A 23.5123 
7 *764:23 *764:38 22.7707 
8 *764:38 *2703:A 43.9964 
9 *764:38 *764:51 22.575 
10 *764:51 *3119:A1 20 
11 *764:51 *3323:A 22.2151 
*END

*D_NET *765 0.00540373
*CONN
*I *2853:A I *D sg13g2_nand2_1
*I *3672:A I *D sg13g2_buf_1
*I *2852:B1 I *D sg13g2_a21o_1
*I *3191:Q O *D sg13g2_dfrbpq_1
*CAP
1 *2853:A 0
2 *3672:A 0.000229131
3 *2852:B1 0
4 *3191:Q 0.000339412
5 *765:27 0.000450451
6 *765:20 0.000542607
7 *765:12 0.000930325
8 *765:8 0.00050581
9 *765:8 *1028:10 0
10 *765:12 *3585:A 0
11 *765:20 *895:88 0
12 *765:20 *979:10 0.00163514
13 *765:20 *1028:10 0.000561128
14 *765:27 *2853:B 0
15 *765:27 *3321:RESET_B 0
16 *765:27 *3585:A 0
17 s_axil_bvalid *3672:A 0.000209725
18 s_axil_bvalid *765:12 0
19 s_axil_bvalid *765:27 0
20 *171:10 *765:8 0
21 *282:12 *765:20 0
22 *709:42 *3672:A 0
23 *709:50 *765:8 0
*RES
1 *3191:Q *765:8 43.811 
2 *765:8 *765:12 21.6171 
3 *765:12 *765:20 48.0855 
4 *765:20 *2852:B1 20 
5 *765:12 *765:27 2.0497 
6 *765:27 *3672:A 22.6471 
7 *765:27 *2853:A 20 
*END

*D_NET *766 0.0320216
*CONN
*I *2720:A1 I *D sg13g2_o21ai_1
*I *3673:A I *D sg13g2_buf_1
*I *3123:Q O *D sg13g2_dfrbpq_1
*CAP
1 *2720:A1 6.94342e-05
2 *3673:A 0.000137907
3 *3123:Q 0.000420304
4 *766:36 0.00284865
5 *766:34 0.00271074
6 *766:32 0.00237497
7 *766:22 0.00276756
8 *766:16 0.00339092
9 *766:10 0.00306776
10 *766:8 0.000420304
11 *2720:A1 *2720:B1 0
12 *2720:A1 *2720:A2 4.76427e-05
13 *2720:A1 *909:14 4.7752e-05
14 *3673:A *1001:8 0.00020758
15 *766:8 *833:80 0
16 *766:8 *833:99 7.33225e-05
17 *766:8 *901:20 0
18 *766:8 *901:55 0
19 *766:16 *2762:A1 4.23522e-05
20 *766:16 *2762:B1 0
21 *766:16 *2936:A1 0.000112426
22 *766:16 *3145:RESET_B 0
23 *766:16 *3231:RESET_B 0
24 *766:16 *795:24 0
25 *766:16 *828:48 0
26 *766:16 *833:59 0.000306755
27 *766:16 *833:61 0
28 *766:16 *833:70 0
29 *766:16 *903:8 0
30 *766:16 *903:14 0.00098528
31 *766:22 *2709:A 0
32 *766:22 *899:60 0
33 *766:22 *1181:31 0.000629703
34 *766:32 *3079:C 0
35 *766:32 *778:22 0
36 *766:32 *864:63 0.00214537
37 *766:32 *873:88 0.000232054
38 *766:32 *879:41 0
39 *766:32 *885:159 0
40 *766:36 *2861:D 0
41 *766:36 *2873:D 0
42 *766:36 *2993:C 0
43 *766:36 *3005:C 0
44 *766:36 *3012:A1 0.000340704
45 *766:36 *778:26 0.00596757
46 *766:36 *822:87 0
47 *766:36 *873:88 0.00182033
48 s_axil_rdata[0] *3673:A 0
49 *2880:B1 *766:36 0
50 *2937:B *766:16 0
51 *2940:A2 *766:22 0
52 *2941:B *766:22 0
53 *3231:D *766:16 0
54 *289:10 *766:36 0
55 *358:33 *766:32 0.000386402
56 *361:35 *766:36 0.000125013
57 *428:10 *2720:A1 0
58 *559:10 *766:16 0.000342728
59 *567:8 *766:32 0
60 *657:10 *766:16 0
61 *697:11 *766:32 0
62 *697:11 *766:36 0
63 *697:17 *766:32 0
64 *697:194 *766:36 0
65 *718:8 *766:36 0
66 *718:12 *766:36 0
67 *730:26 *766:16 0
68 *757:27 *766:22 0
*RES
1 *3123:Q *766:8 43.0694 
2 *766:8 *766:10 20 
3 *766:10 *766:16 48.6958 
4 *766:16 *766:22 44.2127 
5 *766:22 *766:32 44.8539 
6 *766:32 *766:34 20 
7 *766:34 *766:36 37.6774 
8 *766:36 *3673:A 41.4008 
9 *766:10 *2720:A1 20.7519 
*END

*D_NET *767 0.0116074
*CONN
*I *3674:A I *D sg13g2_buf_1
*I *2760:A1 I *D sg13g2_o21ai_1
*I *3143:Q O *D sg13g2_dfrbpq_1
*CAP
1 *3674:A 0.000161153
2 *2760:A1 0.00048139
3 *3143:Q 0
4 *767:29 0.00320614
5 *767:6 0.00352638
6 *2760:A1 *2760:A2 0.000240559
7 *2760:A1 *770:32 0.000447474
8 *2760:A1 *772:25 0
9 *2760:A1 *908:12 0.000240405
10 *3674:A *801:25 0
11 *767:29 *2796:A1 0.000714003
12 *767:29 *3677:A 0.000175748
13 *767:29 *770:32 0
14 *767:29 *772:25 0
15 *767:29 *777:29 0.000335207
16 *767:29 *801:25 0
17 *767:29 *979:22 0.000866513
18 s_axil_rdata[13] *767:29 0
19 s_axil_rdata[14] *767:29 0
20 *3157:CLK *767:29 0
21 *3161:CLK *767:29 0
22 *393:8 *767:29 0.000232418
23 *701:77 *767:29 0
24 *702:35 *767:29 0.000979993
*RES
1 *3143:Q *767:6 40 
2 *767:6 *2760:A1 45.6032 
3 *767:6 *767:29 49.6331 
4 *767:29 *3674:A 21.751 
*END

*D_NET *768 0.015658
*CONN
*I *2764:A1 I *D sg13g2_o21ai_1
*I *3675:A I *D sg13g2_buf_1
*I *3145:Q O *D sg13g2_dfrbpq_1
*CAP
1 *2764:A1 2.678e-05
2 *3675:A 0
3 *3145:Q 0.00047624
4 *768:32 0.000241687
5 *768:16 0.0024076
6 *768:12 0.00583126
7 *768:8 0.00368499
8 *2764:A1 *2764:A2 3.96571e-05
9 *768:8 *833:25 0
10 *768:8 *899:21 0.00040418
11 *768:12 *3078:B1 0
12 *768:12 *769:31 0
13 *768:12 *796:39 0
14 *768:12 *799:18 0
15 *768:12 *800:33 0
16 *768:12 *1170:35 0
17 *768:12 *1175:10 0
18 *768:16 *2796:A2 0
19 *768:16 *769:37 0
20 *768:16 *800:33 0
21 *768:16 *835:38 0
22 *768:16 *1170:35 0
23 *768:32 *2738:B1 0
24 *768:32 *833:25 0.000340288
25 *768:32 *899:12 0.000234224
26 *768:32 *899:21 0.000145052
27 *3133:CLK *768:8 0
28 *3151:CLK *768:12 0
29 *3195:CLK *768:16 0.000288173
30 *410:14 *2764:A1 4.77425e-05
31 *546:101 *768:12 0
32 *646:22 *768:12 0
33 *646:37 *768:12 0
34 *646:63 *768:12 0
35 *697:329 *768:16 0
36 *701:38 *768:16 0.00149015
37 *710:61 *768:12 0
38 *713:8 *768:12 0
39 *713:82 *768:12 0
40 *734:8 *768:12 0
41 *748:23 *768:12 0
*RES
1 *3145:Q *768:8 42.6986 
2 *768:8 *768:12 33.9488 
3 *768:12 *768:16 47.7894 
4 *768:16 *3675:A 20 
5 *3145:Q *768:32 42.7707 
6 *768:32 *2764:A1 40.3193 
*END

*D_NET *769 0.0182131
*CONN
*I *3676:A I *D sg13g2_buf_1
*I *2768:A1 I *D sg13g2_o21ai_1
*I *3147:Q O *D sg13g2_dfrbpq_1
*CAP
1 *3676:A 0
2 *2768:A1 0.000441411
3 *3147:Q 5.91379e-05
4 *769:37 0.00312325
5 *769:31 0.00486241
6 *769:27 0.00257933
7 *769:8 0.00134071
8 *2768:A1 *2768:B1 0
9 *2768:A1 *839:8 0
10 *769:27 *2776:B1 0
11 *769:27 *3151:RESET_B 0
12 *769:27 *3373:A 0
13 *769:27 *3383:A 0.000177003
14 *769:27 *834:41 0
15 *769:27 *839:8 0
16 *769:31 *832:74 0
17 *769:31 *958:10 0
18 *769:31 *1175:10 0
19 *769:37 *2796:A2 0
20 *769:37 *770:32 0
21 *769:37 *832:74 0.00124399
22 *769:37 *835:38 0
23 *769:37 *1016:10 0.000766205
24 *769:37 *1170:35 0
25 *3151:CLK *769:27 0
26 *262:8 *769:31 0
27 *306:10 *769:31 0
28 *424:8 *769:31 0.000286631
29 *437:18 *2768:A1 0.000144661
30 *452:24 *769:31 0
31 *452:30 *769:31 0.00129353
32 *452:30 *769:37 0
33 *453:10 *769:37 0.000817019
34 *697:289 *769:37 0
35 *697:329 *769:37 0
36 *700:20 *2768:A1 0
37 *700:20 *769:27 0
38 *701:38 *769:37 0
39 *713:82 *769:31 0
40 *722:45 *769:31 0
41 *733:31 *769:8 0
42 *734:8 *769:31 0.000604477
43 *734:27 *769:31 0.000393736
44 *758:46 *769:8 7.95529e-05
45 *758:46 *769:27 0
46 *768:12 *769:31 0
47 *768:16 *769:37 0
*RES
1 *3147:Q *769:8 40.5356 
2 *769:8 *2768:A1 44.0376 
3 *769:8 *769:27 45.9232 
4 *769:27 *769:31 20.909 
5 *769:31 *769:37 32.9085 
6 *769:37 *3676:A 40 
*END

*D_NET *770 0.0221552
*CONN
*I *2772:A1 I *D sg13g2_o21ai_1
*I *3677:A I *D sg13g2_buf_1
*I *3149:Q O *D sg13g2_dfrbpq_1
*CAP
1 *2772:A1 0
2 *3677:A 0.000115195
3 *3149:Q 0.000223478
4 *770:49 0.000442816
5 *770:32 0.00384139
6 *770:26 0.00414666
7 *770:20 0.00165956
8 *770:6 0.00190538
9 *770:6 *782:16 0
10 *770:6 *852:18 0
11 *770:20 *2787:B2 0
12 *770:20 *782:16 0
13 *770:20 *846:24 0
14 *770:20 *852:93 8.02031e-05
15 *770:32 *2796:A1 0.000717083
16 *770:32 *772:25 0
17 *770:32 *777:29 0.000265794
18 *770:49 *2772:A2 4.78521e-05
19 *770:49 *2779:B1 0
20 *770:49 *851:20 0.00012778
21 *770:49 *1174:32 0
22 s_axil_rdata[13] *3677:A 0
23 s_axil_rdata[14] *3677:A 0
24 *2760:A1 *770:32 0.000447474
25 *3394:A *770:49 0
26 *267:10 *770:32 0
27 *391:12 *770:49 0
28 *391:37 *770:20 0.000401767
29 *392:41 *770:49 0.000389867
30 *393:8 *770:32 0.000232418
31 *421:8 *770:20 0.000126146
32 *426:10 *770:32 0.000394248
33 *452:10 *770:49 0
34 *452:24 *770:32 0.000394925
35 *452:30 *770:32 0.00434785
36 *453:10 *770:32 0
37 *721:71 *770:20 0.000126146
38 *722:45 *770:32 0
39 *729:33 *770:49 4.77425e-05
40 *732:35 *770:49 7.33225e-05
41 *735:49 *770:20 0.000111928
42 *735:49 *770:26 0.000411827
43 *741:32 *770:6 0
44 *741:32 *770:20 0.000207854
45 *744:47 *770:20 0
46 *744:47 *770:26 0.000692769
47 *767:29 *3677:A 0.000175748
48 *767:29 *770:32 0
49 *769:37 *770:32 0
*RES
1 *3149:Q *770:6 21.8334 
2 *770:6 *770:20 31.6493 
3 *770:20 *770:26 44.6453 
4 *770:26 *770:32 39.5829 
5 *770:32 *3677:A 41.1845 
6 *770:6 *770:49 44.3775 
7 *770:49 *2772:A1 20 
*END

*D_NET *771 0.00119616
*CONN
*I *2806:A1 I *D sg13g2_a21oi_1
*I *3557:X O *D sg13g2_buf_1
*CAP
1 *2806:A1 0.0003482
2 *3557:X 0.0003482
3 *2806:A1 *3563:A 0.000212466
4 *2806:A1 *827:12 0.000143358
5 *2806:A1 *1075:12 0
6 *437:18 *2806:A1 0
7 *460:12 *2806:A1 0.000143932
8 *758:46 *2806:A1 0
*RES
1 *3557:X *2806:A1 43.6926 
*END

*D_NET *772 0.0122563
*CONN
*I *3678:A I *D sg13g2_buf_1
*I *2776:A1 I *D sg13g2_o21ai_1
*I *3151:Q O *D sg13g2_dfrbpq_1
*CAP
1 *3678:A 7.2463e-05
2 *2776:A1 0.000346568
3 *3151:Q 0.000131285
4 *772:25 0.00531339
5 *772:8 0.00571878
6 *2776:A1 *2776:A2 1.55212e-05
7 *2776:A1 *834:31 0
8 *3678:A *777:29 0
9 *772:25 *2756:A1 0
10 *772:25 *773:31 0
11 *772:25 *774:23 0
12 *772:25 *800:27 0
13 *772:25 *832:10 0
14 *772:25 *834:31 0
15 *772:25 *843:12 0
16 *772:25 *843:127 0
17 *772:25 *905:75 0
18 *772:25 *1175:44 0
19 *772:25 *1177:31 0
20 s_axil_rdata[15] *3678:A 0
21 *2760:A1 *772:25 0
22 *3157:CLK *772:25 0
23 *3161:CLK *772:25 0
24 *258:10 *772:25 0
25 *389:14 *772:25 0
26 *389:20 *772:25 0
27 *393:18 *772:25 0
28 *423:8 *772:25 0.000658343
29 *442:8 *772:25 0
30 *444:10 *772:25 0
31 *697:165 *772:8 0
32 *702:35 *772:25 0
33 *722:45 *2776:A1 0
34 *722:45 *772:25 0
35 *723:54 *772:8 0
36 *767:29 *772:25 0
37 *770:32 *772:25 0
*RES
1 *3151:Q *772:8 41.1845 
2 *772:8 *2776:A1 43.1415 
3 *772:8 *772:25 48.7293 
4 *772:25 *3678:A 40.7519 
*END

*D_NET *773 0.014712
*CONN
*I *3679:A I *D sg13g2_buf_1
*I *2780:A1 I *D sg13g2_o21ai_1
*I *3153:Q O *D sg13g2_dfrbpq_1
*CAP
1 *3679:A 0
2 *2780:A1 0.000479271
3 *3153:Q 9.66366e-05
4 *773:31 0.0005299
5 *773:23 0.00290634
6 *773:8 0.00295234
7 *2780:A1 *2780:A2 1.54008e-05
8 *2780:A1 *909:32 0
9 *773:8 *2758:A2 0
10 *773:23 *2758:A2 0.00039332
11 *773:23 *2786:A2 0.000711887
12 *773:23 *2790:A1 0.000605447
13 *773:23 *2800:A1 0
14 *773:23 *774:23 0
15 *773:23 *775:29 0
16 *773:23 *837:31 0.00267041
17 *773:23 *837:123 0.00045026
18 *773:23 *841:102 0.000160978
19 *773:23 *843:38 0.000956431
20 *773:23 *905:27 0
21 *773:23 *909:32 0
22 *773:23 *1179:53 0.00118834
23 *773:31 *774:23 0
24 *773:31 *801:25 0
25 *773:31 *835:49 0
26 *3163:CLK *773:31 0.000306832
27 *393:37 *2780:A1 0
28 *445:10 *773:23 0.000288184
29 *455:20 *2780:A1 0
30 *455:20 *773:23 0
31 *455:24 *773:23 0
32 *745:28 *2780:A1 0
33 *748:37 *2780:A1 0
34 *753:28 *773:8 0
35 *754:47 *773:8 0
36 *772:25 *773:31 0
*RES
1 *3153:Q *773:8 40.7519 
2 *773:8 *2780:A1 43.9243 
3 *773:8 *773:23 30.5086 
4 *773:23 *773:31 45.2736 
5 *773:31 *3679:A 40 
*END

*D_NET *774 0.00576014
*CONN
*I *3680:A I *D sg13g2_buf_1
*I *2784:A1 I *D sg13g2_o21ai_1
*I *3155:Q O *D sg13g2_dfrbpq_1
*CAP
1 *3680:A 0
2 *2784:A1 0.000551364
3 *3155:Q 0
4 *774:23 0.000937529
5 *774:6 0.00148889
6 *2784:A1 *2784:B1 0
7 *2784:A1 *2784:A2 1.54008e-05
8 *2784:A1 *843:23 0
9 *2784:A1 *979:22 0
10 *774:23 *2800:A1 0
11 *774:23 *841:26 0.000234224
12 *774:23 *843:23 0
13 *3155:CLK *2784:A1 0
14 *268:8 *774:23 0
15 *389:14 *774:23 0.0016134
16 *389:20 *2784:A1 0.000763219
17 *389:20 *774:23 0.00015611
18 *456:12 *774:23 0
19 *719:37 *774:23 0
20 *772:25 *774:23 0
21 *773:23 *774:23 0
22 *773:31 *774:23 0
*RES
1 *3155:Q *774:6 40 
2 *774:6 *2784:A1 46.0461 
3 *774:6 *774:23 31.7626 
4 *774:23 *3680:A 20 
*END

*D_NET *775 0.00561242
*CONN
*I *3681:A I *D sg13g2_buf_1
*I *2788:A1 I *D sg13g2_o21ai_1
*I *3157:Q O *D sg13g2_dfrbpq_1
*CAP
1 *3681:A 0
2 *2788:A1 0.000526343
3 *3157:Q 0.000131778
4 *775:29 0.00182757
5 *775:10 0.00248569
6 *2788:A1 *2715:B 0.000128334
7 *2788:A1 *2788:B1 0
8 *2788:A1 *905:27 0
9 *775:10 *2715:A 0
10 *775:10 *905:38 1.54418e-05
11 *775:29 *2715:B 0
12 *775:29 *2800:A1 0
13 *775:29 *776:29 0
14 *775:29 *779:8 0
15 *775:29 *835:49 0
16 *775:29 *835:53 0
17 *775:29 *837:123 0.000449137
18 *775:29 *905:56 0
19 *775:29 *990:33 0
20 s_axil_rdata[17] *775:29 0
21 s_axil_rdata[18] *775:29 0
22 *393:31 *2788:A1 4.81157e-05
23 *773:23 *775:29 0
*RES
1 *3157:Q *775:10 41.1021 
2 *775:10 *2788:A1 44.4187 
3 *775:10 *775:29 36.6448 
4 *775:29 *3681:A 20 
*END

*D_NET *776 0.00638668
*CONN
*I *3682:A I *D sg13g2_buf_1
*I *2792:A1 I *D sg13g2_o21ai_1
*I *3159:Q O *D sg13g2_dfrbpq_1
*CAP
1 *3682:A 0
2 *2792:A1 0.000482153
3 *3159:Q 7.95278e-05
4 *776:29 0.0022663
5 *776:8 0.00282798
6 *2792:A1 *837:69 0.000145023
7 *2792:A1 *837:76 1.54008e-05
8 *2792:A1 *907:100 0
9 *776:8 *3708:A 0
10 *776:8 *3715:A 0.000111699
11 *776:29 *2788:A2 0
12 *776:29 *3685:A 7.98201e-05
13 *776:29 *835:53 0
14 *776:29 *905:48 0
15 *776:29 *907:100 0
16 s_axil_rdata[19] *776:29 0
17 *3159:CLK *2792:A1 0.000144673
18 *269:8 *776:29 0
19 *389:24 *2792:A1 0
20 *389:24 *776:29 0
21 *457:8 *776:29 0.000234106
22 *458:32 *776:29 0
23 *704:55 *776:29 0
24 *775:29 *776:29 0
*RES
1 *3159:Q *776:8 40.7519 
2 *776:8 *2792:A1 44.2848 
3 *776:8 *776:29 43.2471 
4 *776:29 *3682:A 20 
*END

*D_NET *777 0.00663539
*CONN
*I *3683:A I *D sg13g2_buf_1
*I *2796:A1 I *D sg13g2_o21ai_1
*I *3161:Q O *D sg13g2_dfrbpq_1
*CAP
1 *3683:A 0
2 *2796:A1 0.000339997
3 *3161:Q 0
4 *777:29 0.000973739
5 *777:6 0.00131374
6 *2796:A1 *2796:B1 0
7 *2796:A1 *2796:A2 1.54556e-05
8 *2796:A1 *837:23 0
9 *777:29 *3685:A 0.000658154
10 *777:29 *801:25 0.00130222
11 s_axil_rdata[15] *777:29 0
12 s_axil_rdata[17] *777:29 0
13 *3678:A *777:29 0
14 *767:29 *2796:A1 0.000714003
15 *767:29 *777:29 0.000335207
16 *770:32 *2796:A1 0.000717083
17 *770:32 *777:29 0.000265794
*RES
1 *3161:Q *777:6 40 
2 *777:6 *2796:A1 44.9337 
3 *777:6 *777:29 32.3188 
4 *777:29 *3683:A 20 
*END

*D_NET *778 0.0355311
*CONN
*I *2724:A1 I *D sg13g2_o21ai_1
*I *3684:A I *D sg13g2_buf_1
*I *3125:Q O *D sg13g2_dfrbpq_1
*CAP
1 *2724:A1 0
2 *3684:A 0.000169984
3 *3125:Q 0.000195762
4 *778:45 0.000107242
5 *778:26 0.00244334
6 *778:22 0.0056302
7 *778:18 0.00335685
8 *778:16 0.00337117
9 *778:14 0.00376741
10 *778:10 0.000484767
11 *778:10 *828:99 0
12 *778:10 *860:18 4.77866e-05
13 *778:10 *904:8 2.14736e-05
14 *778:10 *1059:10 0
15 *778:14 *828:74 0.000474411
16 *778:16 *828:74 0.000377598
17 *778:16 *833:80 0
18 *778:22 *2939:B 0
19 *778:22 *3064:B1 0.00151467
20 *778:22 *864:63 0
21 *778:22 *865:54 0
22 *778:22 *873:88 0.00187514
23 *778:22 *879:30 0.00166594
24 *778:22 *879:41 0
25 *778:26 *3013:B 0
26 *778:26 *872:23 0
27 *778:26 *897:8 0
28 *778:26 *1011:8 0
29 *778:26 *1187:8 0
30 *778:45 *2724:A2 3.15716e-05
31 *778:45 *850:76 6.39133e-05
32 *778:45 *935:12 7.30101e-05
33 s_axil_rdata[0] *3684:A 0
34 s_axil_rdata[0] *778:26 0.000128742
35 *2963:B1 *778:22 0.000176083
36 *3257:CLK *778:26 0
37 *3448:A *778:10 0
38 *3670:A *3684:A 0
39 *304:10 *778:22 0
40 *358:33 *778:22 0.000703598
41 *360:49 *778:22 0
42 *361:18 *778:22 0.00160385
43 *407:14 *778:14 0.000197311
44 *407:14 *778:16 0.000507999
45 *564:14 *778:22 0
46 *566:8 *778:22 0
47 *571:116 *778:22 0
48 *616:10 *778:26 0
49 *654:10 *778:22 0
50 *711:31 *778:26 0
51 *719:8 *778:26 0
52 *728:10 *778:16 0
53 *738:8 *778:45 7.40536e-05
54 *740:8 *778:22 0
55 *749:20 *778:10 0.000499631
56 *766:32 *778:22 0
57 *766:36 *778:26 0.00596757
*RES
1 *3125:Q *778:10 42.6471 
2 *778:10 *778:14 23.5638 
3 *778:14 *778:16 34.4947 
4 *778:16 *778:18 20 
5 *778:18 *778:22 40.7159 
6 *778:22 *778:26 48.7782 
7 *778:26 *3684:A 21.0627 
8 *778:14 *778:45 41.339 
9 *778:45 *2724:A1 20 
*END

*D_NET *779 0.00308332
*CONN
*I *3685:A I *D sg13g2_buf_1
*I *2800:A1 I *D sg13g2_o21ai_1
*I *3163:Q O *D sg13g2_dfrbpq_1
*CAP
1 *3685:A 0.000430684
2 *2800:A1 0.000436268
3 *3163:Q 0.000136846
4 *779:8 0.0010038
5 *2800:A1 *835:38 1.54556e-05
6 *2800:A1 *835:49 0.00024205
7 s_axil_rdata[17] *3685:A 0
8 s_axil_rdata[18] *3685:A 0
9 s_axil_rdata[19] *3685:A 0
10 *3163:CLK *2800:A1 0
11 *389:12 *2800:A1 8.02431e-05
12 *773:23 *2800:A1 0
13 *774:23 *2800:A1 0
14 *775:29 *2800:A1 0
15 *775:29 *779:8 0
16 *776:29 *3685:A 7.98201e-05
17 *777:29 *3685:A 0.000658154
*RES
1 *3163:Q *779:8 41.5862 
2 *779:8 *2800:A1 44.6865 
3 *779:8 *3685:A 44.7792 
*END

*D_NET *780 0.00414158
*CONN
*I *3686:A I *D sg13g2_buf_1
*I *2804:A1 I *D sg13g2_o21ai_1
*I *3165:Q O *D sg13g2_dfrbpq_1
*CAP
1 *3686:A 0
2 *2804:A1 0
3 *3165:Q 8.28896e-05
4 *780:29 0.000675919
5 *780:16 0.000597119
6 *780:6 0.00135593
7 *780:6 *3381:A 0.000111032
8 *780:6 *801:25 0
9 *780:16 *2804:A2 0
10 *780:16 *781:27 0
11 *780:16 *905:56 0
12 *780:16 *1186:39 0
13 *780:29 *2812:A1 0
14 *780:29 *3381:A 0.000388131
15 *780:29 *784:27 0
16 *459:10 *780:16 0
17 *704:45 *780:29 0.000176432
18 *704:55 *780:16 0.000754133
19 *704:55 *780:29 0
*RES
1 *3165:Q *780:6 20.7519 
2 *780:6 *780:16 46.5199 
3 *780:16 *2804:A1 20 
4 *780:6 *780:29 46.0152 
5 *780:29 *3686:A 20 
*END

*D_NET *781 0.0081968
*CONN
*I *3687:A I *D sg13g2_buf_1
*I *2808:A1 I *D sg13g2_o21ai_1
*I *3167:Q O *D sg13g2_dfrbpq_1
*CAP
1 *3687:A 0
2 *2808:A1 0.000496692
3 *3167:Q 2.67072e-05
4 *781:27 0.00250327
5 *781:8 0.00302667
6 *2808:A1 *2808:A2 4.7803e-05
7 *2808:A1 *854:24 0.000660336
8 *2808:A1 *907:41 4.75229e-05
9 *2808:A1 *1185:34 0
10 *781:8 *854:24 4.75229e-05
11 *781:8 *1174:68 4.75229e-05
12 *781:27 *2812:A1 0.000714759
13 *781:27 *2814:A2 0
14 *781:27 *3688:A 0
15 *781:27 *801:25 0
16 *781:27 *831:97 0
17 *781:27 *841:69 0
18 *781:27 *841:71 0
19 *781:27 *937:10 0.00012816
20 *781:27 *1185:34 0
21 *781:27 *1192:32 0
22 s_axil_rdata[22] *781:27 4.73361e-05
23 *3171:CLK *781:27 0
24 *271:10 *781:27 0
25 *391:12 *2808:A1 0
26 *391:12 *781:27 0
27 *392:12 *781:27 0
28 *392:18 *781:27 0
29 *465:8 *781:27 0
30 *466:8 *781:27 0
31 *468:8 *781:27 0
32 *697:315 *781:27 0
33 *703:16 *2808:A1 0.000144893
34 *703:25 *2808:A1 0.000257609
35 *780:16 *781:27 0
*RES
1 *3167:Q *781:8 40.3193 
2 *781:8 *2808:A1 46.0152 
3 *781:8 *781:27 44.6891 
4 *781:27 *3687:A 20 
*END

*D_NET *782 0.00692896
*CONN
*I *2811:B2 I *D sg13g2_a22oi_1
*I *3558:X O *D sg13g2_buf_1
*CAP
1 *2811:B2 0
2 *3558:X 0.00022848
3 *782:16 0.00170533
4 *782:10 0.00193381
5 *782:10 *2744:B1 0
6 *782:10 *833:112 0
7 *782:10 *1061:18 7.55825e-05
8 *782:16 *2744:A2 0.000652369
9 *782:16 *2772:A2 0.000338971
10 *782:16 *793:12 0
11 *782:16 *833:112 0
12 *782:16 *846:55 0
13 *782:16 *852:18 0
14 *254:8 *782:16 0.000496503
15 *392:30 *782:16 0.000761234
16 *414:8 *782:16 0.000599891
17 *422:18 *782:16 7.34081e-05
18 *460:20 *782:16 0
19 *464:8 *782:16 6.33886e-05
20 *770:6 *782:16 0
21 *770:20 *782:16 0
*RES
1 *3558:X *782:10 42.1527 
2 *782:10 *782:16 36.9538 
3 *782:16 *2811:B2 20 
*END

*D_NET *783 0.00278599
*CONN
*I *3688:A I *D sg13g2_buf_1
*I *2812:A1 I *D sg13g2_o21ai_1
*I *3169:Q O *D sg13g2_dfrbpq_1
*CAP
1 *3688:A 0.000316017
2 *2812:A1 0.00049582
3 *3169:Q 0.000135933
4 *783:14 0.00094777
5 *2812:A1 *2812:A2 0.000112766
6 *2812:A1 *3169:RESET_B 0
7 *2812:A1 *3381:A 0
8 s_axil_rdata[21] *3688:A 1.54008e-05
9 s_axil_rdata[23] *3688:A 0
10 s_axil_rdata[24] *3688:A 0
11 s_axil_rdata[25] *3688:A 4.75265e-05
12 *780:29 *2812:A1 0
13 *781:27 *2812:A1 0.000714759
14 *781:27 *3688:A 0
*RES
1 *3169:Q *783:14 41.7716 
2 *783:14 *2812:A1 45.5517 
3 *783:14 *3688:A 43.0488 
*END

*D_NET *784 0.00521444
*CONN
*I *3689:A I *D sg13g2_buf_1
*I *2816:A1 I *D sg13g2_o21ai_1
*I *3171:Q O *D sg13g2_dfrbpq_1
*CAP
1 *3689:A 0
2 *2816:A1 0.000231174
3 *3171:Q 0.000157236
4 *784:27 0.0014757
5 *784:10 0.00186411
6 *2816:A1 *2816:A2 1.54008e-05
7 *2816:A1 *831:81 0.000555321
8 *784:10 *831:65 0.000209043
9 *784:10 *832:18 0.000209043
10 *784:27 *801:25 0
11 *784:27 *841:69 0
12 *784:27 *841:71 0
13 *784:27 *1189:30 0
14 s_axil_rdata[24] *784:27 0
15 *391:8 *2816:A1 4.77425e-05
16 *464:10 *2816:A1 0
17 *464:10 *784:27 0
18 *465:8 *784:27 0.000449672
19 *780:29 *784:27 0
*RES
1 *3171:Q *784:10 41.9364 
2 *784:10 *2816:A1 43.1415 
3 *784:10 *784:27 34.7908 
4 *784:27 *3689:A 20 
*END

*D_NET *785 0.0120103
*CONN
*I *3690:A I *D sg13g2_buf_1
*I *2820:A1 I *D sg13g2_o21ai_1
*I *3173:Q O *D sg13g2_dfrbpq_1
*CAP
1 *3690:A 0
2 *2820:A1 0.000151106
3 *3173:Q 0.00031454
4 *785:23 0.00291956
5 *785:8 0.00338521
6 *2820:A1 *2820:A2 1.53099e-05
7 *785:23 *2826:A2 0.000288087
8 *785:23 *2835:B1 0
9 *785:23 *2840:B1 0.000393736
10 *785:23 *3691:A 0
11 *785:23 *791:12 0.000553334
12 *785:23 *832:24 0
13 *785:23 *832:35 0
14 *785:23 *836:8 0
15 *785:23 *842:16 0
16 *785:23 *906:29 0.00267652
17 *785:23 *1175:64 7.51285e-05
18 *2821:B1 *2820:A1 0
19 *3173:CLK *785:23 0.00023464
20 *467:12 *785:8 0
21 *467:12 *785:23 0
22 *481:24 *785:8 0
23 *703:40 *785:23 0.000371726
24 *722:73 *785:23 0.000389781
25 *753:28 *2820:A1 0.000241639
*RES
1 *3173:Q *785:8 43.0694 
2 *785:8 *2820:A1 41.6171 
3 *785:8 *785:23 33.8664 
4 *785:23 *3690:A 40 
*END

*D_NET *786 0.0029065
*CONN
*I *3691:A I *D sg13g2_buf_1
*I *2824:A1 I *D sg13g2_o21ai_1
*I *3175:Q O *D sg13g2_dfrbpq_1
*CAP
1 *3691:A 0.000674289
2 *2824:A1 0.000438241
3 *3175:Q 0.000103608
4 *786:8 0.00121614
5 *2824:A1 *2824:A2 1.54008e-05
6 *2824:A1 *2826:A2 0
7 *2824:A1 *842:16 0.000443366
8 *2824:A1 *1180:60 0
9 *3691:A *2828:A1 0
10 *3691:A *801:25 0
11 *786:8 *3177:RESET_B 0
12 *2829:A1 *786:8 0
13 *2829:B1 *786:8 1.54556e-05
14 *192:10 *3691:A 0
15 *476:20 *2824:A1 0
16 *477:10 *3691:A 0
17 *704:39 *2824:A1 0
18 *704:39 *3691:A 0
19 *785:23 *3691:A 0
*RES
1 *3175:Q *786:8 40.9682 
2 *786:8 *2824:A1 44.5938 
3 *786:8 *3691:A 46.7877 
*END

*D_NET *787 0.00323956
*CONN
*I *3692:A I *D sg13g2_buf_1
*I *2828:A1 I *D sg13g2_o21ai_1
*I *3177:Q O *D sg13g2_dfrbpq_1
*CAP
1 *3692:A 0.000695472
2 *2828:A1 0.000654749
3 *3177:Q 0.000117745
4 *787:8 0.00146797
5 *2828:A1 *2828:A2 1.54285e-05
6 *2828:A1 *2844:B1 0
7 *2828:A1 *2844:A2 0
8 *2828:A1 *789:29 0
9 *3692:A *3696:A 0.000240669
10 *3692:A *789:29 0
11 *3692:A *801:25 0
12 s_axil_rdata[29] *3692:A 0
13 s_axil_rdata[30] *3692:A 0
14 s_axil_rvalid *3692:A 4.75265e-05
15 *3691:A *2828:A1 0
16 *192:10 *3692:A 0
17 *704:39 *2828:A1 0
18 *704:45 *2828:A1 0
*RES
1 *3177:Q *787:8 41.339 
2 *787:8 *2828:A1 45.7989 
3 *787:8 *3692:A 46.6332 
*END

*D_NET *788 0.0119569
*CONN
*I *3693:A I *D sg13g2_buf_1
*I *2832:A1 I *D sg13g2_o21ai_1
*I *3179:Q O *D sg13g2_dfrbpq_1
*CAP
1 *3693:A 0
2 *2832:A1 0.000431022
3 *3179:Q 3.34444e-05
4 *788:25 0.00179617
5 *788:8 0.00226064
6 *2832:A1 *2832:A2 0.00020973
7 *2832:A1 *854:65 0.000235394
8 *788:25 *2836:A1 0.000715225
9 *788:25 *789:29 0.00252368
10 *788:25 *791:27 0
11 *788:25 *801:25 0.000500573
12 gpio_dir[22] *788:8 4.77425e-05
13 *3185:CLK *788:25 0
14 *275:10 *788:25 0
15 *476:20 *2832:A1 0
16 *476:20 *788:25 0
17 *483:10 *788:25 0.000181192
18 *488:24 *2832:A1 0.000604442
19 *488:24 *788:25 0.00193374
20 *703:40 *2832:A1 0.000144768
21 *704:45 *788:25 0
22 *726:58 *2832:A1 0.000339135
*RES
1 *3179:Q *788:8 40.3193 
2 *788:8 *2832:A1 45.5208 
3 *788:8 *788:25 44.4625 
4 *788:25 *3693:A 20 
*END

*D_NET *789 0.00938515
*CONN
*I *3694:A I *D sg13g2_buf_1
*I *2836:A1 I *D sg13g2_o21ai_1
*I *3181:Q O *D sg13g2_dfrbpq_1
*CAP
1 *3694:A 0
2 *2836:A1 0.00044997
3 *3181:Q 6.37257e-05
4 *789:29 0.00122179
5 *789:8 0.00173548
6 *2836:A1 *2836:A2 1.54008e-05
7 *2836:A1 *854:10 0.000176498
8 *2836:A1 *906:8 0
9 *789:8 *1189:47 7.90177e-05
10 *789:29 *791:27 0
11 *789:29 *792:10 0.000240474
12 s_axil_rdata[29] *789:29 0
13 s_axil_rdata[30] *789:29 0
14 s_axil_rdata[31] *789:29 0
15 *2828:A1 *789:29 0
16 *3175:D *789:8 0
17 *3181:CLK *2836:A1 0.000176098
18 *3397:A *2836:A1 0
19 *3692:A *789:29 0
20 *192:10 *789:29 0
21 *476:20 *2836:A1 0.000715225
22 *476:20 *789:29 0.00127256
23 *704:39 *789:29 0
24 *788:25 *2836:A1 0.000715225
25 *788:25 *789:29 0.00252368
*RES
1 *3181:Q *789:8 40.5356 
2 *789:8 *2836:A1 46.2315 
3 *789:8 *789:29 37.0362 
4 *789:29 *3694:A 20 
*END

*D_NET *790 0.026109
*CONN
*I *2728:A1 I *D sg13g2_o21ai_1
*I *3695:A I *D sg13g2_buf_1
*I *3127:Q O *D sg13g2_dfrbpq_1
*CAP
1 *2728:A1 4.75777e-05
2 *3695:A 0
3 *3127:Q 0.00014617
4 *790:18 0.00534208
5 *790:16 0.00534208
6 *790:14 0.00233028
7 *790:10 0.00252402
8 *2728:A1 *909:58 0
9 *790:10 *828:59 4.78356e-05
10 *790:10 *839:59 4.77425e-05
11 *790:10 *909:58 0
12 *790:14 *909:72 0
13 *790:14 *1169:16 0
14 *790:18 *2927:D 0.000340991
15 *790:18 *2935:C 0
16 *790:18 *2940:A1 0.000428367
17 *790:18 *3005:B 0
18 *790:18 *3079:C 0
19 *790:18 *794:33 0
20 *790:18 *794:37 0
21 *790:18 *807:74 0.000285457
22 *790:18 *813:51 0
23 *790:18 *814:49 0
24 *790:18 *858:81 0.000880935
25 *790:18 *864:53 0.000341913
26 *790:18 *864:57 0.000344954
27 *790:18 *870:64 0
28 *790:18 *878:70 0.000534753
29 *790:18 *878:72 0.000319811
30 *790:18 *879:41 0
31 *790:18 *899:54 0.0013654
32 *790:18 *899:60 0.000238126
33 *790:18 *1165:57 0
34 *2951:A *790:18 0
35 *3293:CLK *790:18 0.000431031
36 *289:10 *790:18 0
37 *305:16 *790:18 0.000668798
38 *375:14 *790:18 0.00221752
39 *375:24 *790:18 0.000238126
40 *378:30 *790:18 0.000237686
41 *402:10 *790:10 0.000124862
42 *510:10 *790:18 0.000504118
43 *551:8 *790:18 0
44 *559:10 *790:18 0
45 *567:8 *790:18 0
46 *610:8 *790:18 0
47 *646:96 *790:18 0
48 *660:8 *790:18 0.000179385
49 *697:11 *790:18 0
50 *710:46 *790:18 0.000234274
51 *718:8 *790:18 0
52 *731:18 *790:18 0.000291717
53 *733:8 *790:18 0
54 *740:44 *790:10 7.30101e-05
55 *740:52 *2728:A1 0
56 *740:52 *790:10 0
57 *756:30 *790:14 0
58 *756:34 *790:14 0
*RES
1 *3127:Q *790:10 41.4111 
2 *790:10 *790:14 37.1381 
3 *790:14 *790:16 20 
4 *790:16 *790:18 65.8582 
5 *790:18 *3695:A 40 
6 *790:10 *2728:A1 40.3502 
*END

*D_NET *791 0.00674419
*CONN
*I *3696:A I *D sg13g2_buf_1
*I *2840:A1 I *D sg13g2_o21ai_1
*I *3183:Q O *D sg13g2_dfrbpq_1
*CAP
1 *3696:A 0.000163064
2 *2840:A1 0
3 *3183:Q 0
4 *791:27 0.00177664
5 *791:12 0.000468459
6 *791:4 0.00208204
7 *791:12 *3727:A 0
8 *791:12 *842:16 0.000552831
9 *791:12 *1191:26 0
10 *791:27 *2844:A1 0
11 *791:27 *3717:A 0
12 *791:27 *3727:A 0
13 *791:27 *792:10 0
14 *791:27 *1186:53 0
15 s_axil_rdata[30] *3696:A 0
16 *3397:A *791:12 0.000564047
17 *3397:A *791:27 0.000161915
18 *3692:A *3696:A 0.000240669
19 *275:10 *791:27 0.000181192
20 *473:14 *791:27 0
21 *488:24 *791:27 0
22 *489:8 *791:27 0
23 *718:41 *791:27 0
24 *719:53 *791:27 0
25 *785:23 *791:12 0.000553334
26 *788:25 *791:27 0
27 *789:29 *791:27 0
*RES
1 *3183:Q *791:4 20 
2 *791:4 *791:12 46.3551 
3 *791:12 *2840:A1 20 
4 *791:4 *791:27 37.0053 
5 *791:27 *3696:A 41.6171 
*END

*D_NET *792 0.00138116
*CONN
*I *3697:A I *D sg13g2_buf_1
*I *2844:A1 I *D sg13g2_o21ai_1
*I *3185:Q O *D sg13g2_dfrbpq_1
*CAP
1 *3697:A 0
2 *2844:A1 0.000157172
3 *3185:Q 0.000341449
4 *792:10 0.000498621
5 s_axil_rdata[30] *792:10 0.000143449
6 s_axil_rresp[0] *2844:A1 0
7 s_axil_rresp[0] *792:10 0
8 *789:29 *792:10 0.000240474
9 *791:27 *2844:A1 0
10 *791:27 *792:10 0
*RES
1 *3185:Q *792:10 43.4505 
2 *792:10 *2844:A1 42.0085 
3 *792:10 *3697:A 40 
*END

*D_NET *793 0.00925729
*CONN
*I *2815:B2 I *D sg13g2_a22oi_1
*I *3559:X O *D sg13g2_buf_1
*CAP
1 *2815:B2 0
2 *3559:X 0
3 *793:12 0.00145972
4 *793:6 0.00145972
5 *793:12 *2744:B1 0
6 *793:12 *2744:A2 0.00065352
7 *793:12 *2772:A2 0.000317584
8 *793:12 *852:83 0.00036914
9 *793:12 *882:24 0.00329827
10 *254:8 *793:12 0.000496917
11 *392:22 *793:12 0
12 *392:30 *793:12 0.000865537
13 *745:28 *793:12 0.000336867
14 *782:16 *793:12 0
*RES
1 *3559:X *793:6 40 
2 *793:6 *793:12 40.1056 
3 *793:12 *2815:B2 20 
*END

*D_NET *794 0.0303312
*CONN
*I *3698:A I *D sg13g2_buf_1
*I *2732:A1 I *D sg13g2_o21ai_1
*I *3129:Q O *D sg13g2_dfrbpq_1
*CAP
1 *3698:A 0.000132644
2 *2732:A1 0.000573795
3 *3129:Q 0
4 *794:37 0.00244044
5 *794:33 0.00437586
6 *794:27 0.00465159
7 *794:6 0.00315732
8 *2732:A1 *3147:RESET_B 0
9 *2732:A1 *833:99 7.98669e-05
10 *2732:A1 *833:112 1.54008e-05
11 *3698:A *1001:8 0
12 *794:27 *2766:B1 0
13 *794:27 *2774:A2 0
14 *794:27 *3078:B1 0
15 *794:27 *3080:A1 0.000176388
16 *794:27 *796:18 0
17 *794:27 *839:14 0
18 *794:27 *1173:25 0.00208524
19 *794:33 *2928:B1 0.00028986
20 *794:33 *3062:B1 0.000554356
21 *794:33 *3084:B1 0.000473614
22 *794:33 *796:18 0
23 *794:33 *796:26 0
24 *794:33 *806:63 0.00115203
25 *794:33 *864:93 0.00028279
26 *794:33 *900:10 0.000314263
27 *794:33 *900:32 0.000161737
28 *794:33 *900:43 0.000535859
29 *794:33 *900:54 0.000639744
30 *794:33 *1170:8 0.000831495
31 *794:37 *2862:A1 0.00018387
32 *794:37 *796:26 0
33 *794:37 *813:49 0.000774393
34 *794:37 *813:51 0.000615026
35 *794:37 *813:53 0.000400629
36 *794:37 *813:55 0.000508835
37 *794:37 *908:35 0.00104768
38 *794:37 *908:46 0.00064756
39 *794:37 *908:57 0.000591515
40 *794:37 *908:72 0.000592451
41 *2777:A1 *794:27 0
42 *2946:A2 *794:27 8.00842e-05
43 *2951:A *794:33 0
44 *3081:B *794:27 1.54556e-05
45 *3670:A *3698:A 0
46 *430:8 *2732:A1 0
47 *437:18 *794:27 0
48 *546:59 *794:27 0.000291765
49 *646:96 *794:33 0.000232563
50 *651:8 *794:33 0.000286947
51 *665:10 *794:27 0
52 *699:8 *794:27 0.000209506
53 *699:12 *2732:A1 0
54 *699:12 *794:27 0
55 *699:22 *2732:A1 0
56 *716:10 *2732:A1 0.000207769
57 *731:46 *2732:A1 0
58 *731:46 *794:27 0
59 *733:8 *794:33 0.000720909
60 *733:31 *794:27 0
61 *755:33 *2732:A1 0
62 *790:18 *794:33 0
63 *790:18 *794:37 0
*RES
1 *3129:Q *794:6 40 
2 *794:6 *2732:A1 45.2736 
3 *794:6 *794:27 46.8933 
4 *794:27 *794:33 47.089 
5 *794:33 *794:37 48.7782 
6 *794:37 *3698:A 21.4008 
*END

*D_NET *795 0.0256831
*CONN
*I *2736:A1 I *D sg13g2_o21ai_1
*I *3699:A I *D sg13g2_buf_1
*I *3131:Q O *D sg13g2_dfrbpq_1
*CAP
1 *2736:A1 0
2 *3699:A 0
3 *3131:Q 0.000103403
4 *795:26 0.00462912
5 *795:24 0.00738553
6 *795:12 0.00279591
7 *795:8 0.000142908
8 *795:8 *833:59 7.48178e-05
9 *795:8 *1172:30 0.000283565
10 *795:12 *833:59 6.46834e-05
11 *795:24 *3080:B1 0.000454055
12 *795:24 *3145:RESET_B 0
13 *795:24 *833:42 4.77425e-05
14 *795:24 *833:59 1.54008e-05
15 *795:24 *899:35 0.00029161
16 *795:24 *899:64 0.000290273
17 *795:24 *909:78 0
18 *795:26 *2876:A1 0
19 *795:26 *796:18 0
20 *795:26 *796:26 0.000398164
21 *795:26 *806:53 0.00029161
22 *795:26 *806:63 0.000497716
23 *795:26 *806:87 0
24 *795:26 *814:64 0
25 *795:26 *823:78 0.000335861
26 *795:26 *824:46 0.00270215
27 *795:26 *824:54 0
28 *795:26 *1191:8 0
29 *2734:A1 *795:8 0
30 *2992:A2 *795:26 0.0010396
31 *3070:A2 *795:24 0.000728044
32 *3145:D *795:24 0
33 *333:8 *795:26 0.000450938
34 *336:8 *795:26 0
35 *546:59 *795:26 0
36 *550:8 *795:26 0
37 *555:12 *795:26 0
38 *556:8 *795:24 0
39 *569:10 *795:26 0.00029161
40 *596:82 *795:26 0.000443717
41 *601:10 *795:26 0.000345615
42 *602:8 *795:26 0.000291251
43 *609:8 *795:26 0
44 *657:10 *795:24 0
45 *670:8 *795:26 0
46 *721:44 *795:24 0.000436927
47 *721:50 *795:12 8.00842e-05
48 *721:50 *795:24 0.000209676
49 *731:8 *795:24 0.000561086
50 *758:38 *795:26 0
51 *766:16 *795:24 0
*RES
1 *3131:Q *795:8 41.339 
2 *795:8 *795:12 20.5356 
3 *795:12 *795:24 48.6649 
4 *795:24 *795:26 53.7454 
5 *795:26 *3699:A 40 
6 *795:12 *2736:A1 20 
*END

*D_NET *796 0.0272992
*CONN
*I *2740:A1 I *D sg13g2_o21ai_1
*I *3700:A I *D sg13g2_buf_1
*I *3133:Q O *D sg13g2_dfrbpq_1
*CAP
1 *2740:A1 0
2 *3700:A 0
3 *3133:Q 0.000180202
4 *796:39 0.000308465
5 *796:26 0.00365966
6 *796:18 0.00580552
7 *796:6 0.00263452
8 *796:6 *3301:RESET_B 0
9 *796:18 *2928:B1 0.000289674
10 *796:18 *3060:A1 0
11 *796:18 *806:63 0.00131624
12 *796:18 *818:116 0.000615942
13 *796:18 *861:99 0.000663635
14 *796:18 *899:39 0
15 *796:18 *900:10 0.000336204
16 *796:18 *900:32 0.00018387
17 *796:18 *900:43 0.000559026
18 *796:18 *900:54 0.000130055
19 *796:26 *3084:B1 0
20 *796:26 *824:46 0.00270215
21 *796:26 *900:54 0
22 *796:26 *908:18 0.000346423
23 *796:26 *908:35 0.00126284
24 *796:26 *908:46 0.000669983
25 *796:26 *908:57 0.000612414
26 *796:26 *908:72 0.000611974
27 *796:39 *833:14 0.00012816
28 s_axil_rdata[4] *796:26 0.000129961
29 *2992:A2 *796:26 0.00104186
30 *3081:B *796:18 0
31 *3301:D *796:18 0.000370677
32 *552:8 *796:18 0.00055732
33 *554:18 *796:18 7.34842e-05
34 *596:82 *796:26 0.000422244
35 *601:10 *796:26 0.000345615
36 *602:8 *796:26 0.000291208
37 *646:37 *796:39 0
38 *720:41 *796:6 0.00029081
39 *720:41 *796:18 0.000177226
40 *758:38 *796:18 0.00018366
41 *768:12 *796:39 0
42 *794:27 *796:18 0
43 *794:33 *796:18 0
44 *794:33 *796:26 0
45 *794:37 *796:26 0
46 *795:26 *796:18 0
47 *795:26 *796:26 0.000398164
*RES
1 *3133:Q *796:6 22.0497 
2 *796:6 *796:18 47.7647 
3 *796:18 *796:26 42.6214 
4 *796:26 *3700:A 40 
5 *796:6 *796:39 43.3166 
6 *796:39 *2740:A1 20 
*END

*D_NET *797 0.0261102
*CONN
*I *3701:A I *D sg13g2_buf_1
*I *2744:A1 I *D sg13g2_o21ai_1
*I *3135:Q O *D sg13g2_dfrbpq_1
*CAP
1 *3701:A 0
2 *2744:A1 0.000510912
3 *3135:Q 0.00013843
4 *797:39 0.0025074
5 *797:35 0.00330265
6 *797:29 0.00333914
7 *797:12 0.00319323
8 *2744:A1 *2744:A2 1.54008e-05
9 *2744:A1 *1171:18 0
10 *797:12 *2772:B1 0
11 *797:12 *1171:18 4.72458e-05
12 *797:29 *2779:B1 0
13 *797:29 *799:18 0
14 *797:29 *840:88 0.000693686
15 *797:35 *798:24 0.00336249
16 *797:35 *1174:8 0.00187634
17 *797:35 *1174:26 0.000605753
18 *797:39 *2846:B 0.000767865
19 *797:39 *2876:A1 0
20 *797:39 *798:24 0
21 *797:39 *823:91 0
22 *797:39 *908:87 0.00187639
23 *797:39 *1188:12 0
24 *2953:B *797:29 0.000500852
25 *79:12 *2744:A1 0
26 *306:10 *797:29 0.000466707
27 *392:41 *797:29 0
28 *440:10 *797:29 0
29 *460:20 *2744:A1 0
30 *460:20 *797:29 0
31 *496:83 *797:39 0
32 *496:91 *797:39 0.000287672
33 *511:8 *797:39 0
34 *700:36 *2744:A1 0.000112289
35 *725:43 *797:35 7.34778e-05
36 *725:47 *797:29 0
37 *732:29 *797:29 0
38 *734:27 *797:29 0.00166414
39 *746:8 *797:39 0
40 *763:26 *797:39 0.000586439
41 *763:32 *797:39 0.000181694
*RES
1 *3135:Q *797:12 41.2051 
2 *797:12 *2744:A1 43.8213 
3 *797:12 *797:29 44.308 
4 *797:29 *797:35 36.2122 
5 *797:35 *797:39 48.7782 
6 *797:39 *3701:A 20 
*END

*D_NET *798 0.0215504
*CONN
*I *2748:A1 I *D sg13g2_o21ai_1
*I *3702:A I *D sg13g2_buf_1
*I *3137:Q O *D sg13g2_dfrbpq_1
*CAP
1 *2748:A1 0
2 *3702:A 7.09219e-05
3 *3137:Q 8.89504e-05
4 *798:39 0.000148643
5 *798:24 0.0041123
6 *798:22 0.00665035
7 *798:14 0.00308652
8 *798:10 0.000417845
9 *3702:A *1001:8 0.000111929
10 *798:10 *851:48 0
11 *798:14 *845:75 0.000454073
12 *798:22 *830:54 0
13 *798:22 *833:124 0
14 *798:22 *845:75 0.000144563
15 *798:24 *2846:C 0
16 *798:24 *822:102 0
17 *798:24 *1174:56 0
18 *798:24 *1188:12 0.00108168
19 *798:39 *833:124 0.000178388
20 *2926:B1 *798:24 0.000495743
21 *95:12 *798:14 0
22 *300:8 *798:22 0
23 *390:8 *798:24 0
24 *512:8 *798:24 0
25 *723:62 *798:22 0
26 *724:12 *798:22 0
27 *727:24 *798:10 0.000126724
28 *746:8 *798:24 0.000872356
29 *757:77 *798:10 0
30 *757:77 *798:14 0.000146978
31 *758:56 *798:14 0
32 *759:71 *798:39 0
33 *763:26 *798:24 0
34 *797:35 *798:24 0.00336249
35 *797:39 *798:24 0
*RES
1 *3137:Q *798:10 40.9476 
2 *798:10 *798:14 23.5638 
3 *798:14 *798:22 46.8272 
4 *798:22 *798:24 48.307 
5 *798:24 *3702:A 40.7519 
6 *798:14 *798:39 41.339 
7 *798:39 *2748:A1 20 
*END

*D_NET *799 0.0199511
*CONN
*I *2752:A1 I *D sg13g2_o21ai_1
*I *3703:A I *D sg13g2_buf_1
*I *3139:Q O *D sg13g2_dfrbpq_1
*CAP
1 *2752:A1 0
2 *3703:A 0
3 *3139:Q 0.000111264
4 *799:33 0.00016048
5 *799:22 0.0024073
6 *799:18 0.00459287
7 *799:6 0.00245731
8 *799:18 *3058:A1 0
9 *799:18 *3082:B1 0.000181335
10 *799:18 *1176:8 0.00129489
11 *799:22 *2712:B 0.000342035
12 *799:22 *800:33 0.000341019
13 *799:22 *1001:12 0.000340324
14 *799:22 *1174:56 0
15 *799:22 *1178:37 0
16 *2757:A2 *799:33 0
17 *287:8 *799:22 0
18 *388:10 *799:22 0
19 *388:12 *799:18 0
20 *388:12 *799:22 0
21 *509:8 *799:22 0.000288087
22 *512:8 *799:22 0
23 *646:63 *799:18 0.000765194
24 *646:78 *799:18 0.000606679
25 *650:8 *799:18 0
26 *701:29 *799:22 0.000555736
27 *721:71 *799:33 0.000444197
28 *725:47 *799:6 0.000208878
29 *725:47 *799:18 0.00137252
30 *726:20 *799:18 0.000553901
31 *734:27 *799:6 0.000193477
32 *734:27 *799:18 0.000824145
33 *746:25 *799:22 0
34 *750:10 *799:22 0.000448427
35 *751:8 *799:22 0.00146105
36 *768:12 *799:18 0
37 *797:29 *799:18 0
*RES
1 *3139:Q *799:6 21.4008 
2 *799:6 *799:18 45.3277 
3 *799:18 *799:22 48.7782 
4 *799:22 *3703:A 20 
5 *799:6 *799:33 42.0806 
6 *799:33 *2752:A1 20 
*END

*D_NET *800 0.0158098
*CONN
*I *3704:A I *D sg13g2_buf_1
*I *2756:A1 I *D sg13g2_o21ai_1
*I *3141:Q O *D sg13g2_dfrbpq_1
*CAP
1 *3704:A 6.22659e-05
2 *2756:A1 0.000416752
3 *3141:Q 2.59689e-05
4 *800:33 0.00250189
5 *800:27 0.00309581
6 *800:8 0.0010989
7 *2756:A1 *834:14 0.00030365
8 *2756:A1 *1175:44 0
9 *800:27 *1175:44 0
10 s_axil_rdata[10] *3704:A 0
11 *2761:A1 *800:27 0
12 *3379:A *2756:A1 0
13 *388:10 *800:33 0.000607109
14 *388:12 *800:33 0.00618442
15 *425:14 *800:27 0.000176426
16 *710:61 *800:27 0.000175815
17 *726:20 *800:27 0
18 *748:23 *800:33 0
19 *748:37 *800:27 0.000819786
20 *753:18 *800:27 0
21 *768:12 *800:33 0
22 *768:16 *800:33 0
23 *772:25 *2756:A1 0
24 *772:25 *800:27 0
25 *799:22 *800:33 0.000341019
*RES
1 *3141:Q *800:8 40.3193 
2 *800:8 *2756:A1 44.0067 
3 *800:8 *800:27 46.7568 
4 *800:27 *800:33 34.5771 
5 *800:33 *3704:A 40.6695 
*END

*D_NET *801 0.00969282
*CONN
*I *3705:A I *D sg13g2_buf_1
*I *2846:C I *D sg13g2_nand3b_1
*I *3187:Q O *D sg13g2_dfrbpq_1
*CAP
1 *3705:A 0
2 *2846:C 0.000442557
3 *3187:Q 0.000165546
4 *801:25 0.00309688
5 *801:21 0.00309688
6 *801:8 0.000608103
7 *2846:C *3121:RESET_B 0
8 *2846:C *1001:12 0
9 *801:25 *2844:A2 0
10 *801:25 *3381:A 0
11 *801:25 *1001:8 0
12 s_axil_rdata[10] *801:25 0
13 s_axil_rdata[22] *801:25 0
14 s_axil_rdata[28] *801:25 0.000175959
15 s_axil_rdata[9] *801:8 0.000182216
16 s_axil_rresp[0] *801:25 0
17 s_axil_rvalid *801:25 4.75265e-05
18 *2846:A_N *2846:C 7.43486e-05
19 *3163:CLK *801:25 0
20 *3185:CLK *801:25 0
21 *3674:A *801:25 0
22 *3691:A *801:25 0
23 *3692:A *801:25 0
24 *702:48 *2846:C 0
25 *702:48 *801:25 0
26 *702:61 *2846:C 0
27 *704:45 *801:25 0
28 *704:55 *801:25 0
29 *763:32 *2846:C 0
30 *767:29 *801:25 0
31 *773:31 *801:25 0
32 *777:29 *801:25 0.00130222
33 *780:6 *801:25 0
34 *781:27 *801:25 0
35 *784:27 *801:25 0
36 *788:25 *801:25 0.000500573
37 *798:24 *2846:C 0
*RES
1 *3187:Q *801:8 42.0806 
2 *801:8 *2846:C 44.0376 
3 *801:8 *801:21 20 
4 *801:21 *801:25 30.3971 
5 *801:25 *3705:A 20 
*END

*D_NET *802 0.00111952
*CONN
*I *3706:A I *D sg13g2_buf_1
*I *3323:X O *D sg13g2_buf_1
*CAP
1 *3706:A 0.000122912
2 *3323:X 0.000331973
3 *802:8 0.000454885
4 *3706:A *982:12 0
5 *375:8 *3706:A 0
6 *709:42 *3706:A 0.000209746
*RES
1 *3323:X *802:8 43.811 
2 *802:8 *3706:A 41.4008 
*END

*D_NET *803 0.0183487
*CONN
*I *2977:A1 I *D sg13g2_o21ai_1
*I *3109:A1 I *D sg13g2_o21ai_1
*I *3093:A1 I *D sg13g2_o21ai_1
*I *2957:A1 I *D sg13g2_o21ai_1
*I *3089:A1 I *D sg13g2_o21ai_1
*I *2965:A1 I *D sg13g2_o21ai_1
*I *3097:A1 I *D sg13g2_o21ai_1
*I *2981:A1 I *D sg13g2_o21ai_1
*I *3352:X O *D sg13g2_buf_1
*CAP
1 *2977:A1 0
2 *3109:A1 0
3 *3093:A1 0
4 *2957:A1 0
5 *3089:A1 0
6 *2965:A1 0
7 *3097:A1 0
8 *2981:A1 0
9 *3352:X 4.39651e-05
10 *803:95 0.000794032
11 *803:80 0.00139762
12 *803:69 0.00118351
13 *803:58 0.00115015
14 *803:47 0.000850995
15 *803:37 0.000759566
16 *803:27 0.00072741
17 *803:25 0.00076104
18 *803:12 0.000582521
19 *803:8 0.000114053
20 *803:8 *3364:A 0.000130055
21 *803:12 *808:27 0.000112426
22 *803:12 *866:66 0
23 *803:25 *808:27 4.77425e-05
24 *803:25 *817:10 0.000237686
25 *803:25 *890:78 0.00147976
26 *803:25 *890:97 0.000107631
27 *803:27 *2977:B1 0
28 *803:37 *861:26 0.00044762
29 *803:37 *889:14 7.62389e-05
30 *803:37 *1012:32 0.000175513
31 *803:47 *3424:A 0.000181385
32 *803:47 *885:33 0.000711505
33 *803:47 *890:46 0.000868868
34 *803:58 *3096:C 0
35 *803:58 *881:59 0
36 *803:80 *3089:B1 0
37 *803:80 *862:61 0
38 *803:80 *862:76 0
39 *803:80 *891:12 4.78192e-05
40 *803:80 *891:22 0
41 *803:95 *2957:B1 0
42 *803:95 *3104:C 0
43 *803:95 *817:69 0
44 *803:95 *862:76 0
45 *803:95 *865:16 0
46 *803:95 *865:90 0
47 *803:95 *890:8 0
48 *803:95 *891:12 0.000435905
49 *2956:A *803:69 0
50 *2956:A *803:80 0.000468094
51 *2957:A2 *803:80 8.0216e-05
52 *2965:A2 *803:58 0.000500797
53 *2977:A2 *803:37 0.00037157
54 *3089:A2 *803:69 0.000112667
55 *3093:A2 *803:95 0.000176543
56 *3097:A2 *803:47 1.54008e-05
57 *3097:A2 *803:58 0.00022617
58 *344:10 *803:37 0.000178187
59 *353:12 *803:47 8.00842e-05
60 *353:12 *803:58 0.000306244
61 *355:24 *803:58 0.000436937
62 *355:24 *803:69 0.000598608
63 *359:14 *803:27 0.00033012
64 *359:14 *803:37 0.00037157
65 *360:20 *803:37 0.000224795
66 *360:20 *803:47 8.00842e-05
67 *360:30 *803:95 0.000176543
68 *573:12 *803:80 0
69 *580:26 *803:69 0.000112826
70 *580:26 *803:80 0
71 *580:26 *803:95 0
72 *591:10 *803:25 7.62389e-05
73 *671:33 *803:12 0
74 *673:12 *803:69 0
*RES
1 *3352:X *803:8 40.5974 
2 *803:8 *803:12 20.7519 
3 *803:12 *2981:A1 20 
4 *803:12 *803:25 47.5911 
5 *803:25 *803:27 2.4823 
6 *803:27 *803:37 46.18 
7 *803:37 *803:47 45.1294 
8 *803:47 *3097:A1 20 
9 *803:47 *803:58 6.6126 
10 *803:58 *2965:A1 20 
11 *803:58 *803:69 6.4272 
12 *803:69 *3089:A1 20 
13 *803:69 *803:80 6.8598 
14 *803:80 *2957:A1 20 
15 *803:80 *803:95 48.1576 
16 *803:95 *3093:A1 20 
17 *803:37 *3109:A1 20 
18 *803:27 *2977:A1 20 
*END

*D_NET *804 0.00897964
*CONN
*I *2819:B2 I *D sg13g2_a22oi_1
*I *3560:X O *D sg13g2_buf_1
*CAP
1 *2819:B2 0
2 *3560:X 0
3 *804:20 0.000223233
4 *804:12 0.00281886
5 *804:6 0.00259563
6 *804:12 *2783:B2 0.000543204
7 *804:12 *3561:A 0.00075075
8 *804:12 *826:14 0
9 *804:12 *827:20 0
10 *804:12 *829:10 0.000596637
11 *804:12 *845:25 0.000545878
12 *804:12 *851:20 0
13 *804:12 *852:14 0
14 *804:12 *852:73 0
15 *804:12 *1032:18 0
16 *804:12 *1174:32 0
17 *804:20 *815:20 0
18 *804:20 *848:127 0.000126302
19 *3654:A *804:20 0
20 *452:10 *804:12 0.000495493
21 *467:12 *804:12 7.58806e-05
22 *470:10 *804:20 0.000207768
23 *481:24 *804:12 0
24 *700:53 *804:12 0
25 *742:23 *804:12 0
26 *760:14 *804:12 0
27 *760:26 *804:12 0
*RES
1 *3560:X *804:6 40 
2 *804:6 *804:12 45.3895 
3 *804:12 *804:20 42.2145 
4 *804:20 *2819:B2 20 
*END

*D_NET *805 0.0101285
*CONN
*I *2985:A1 I *D sg13g2_o21ai_1
*I *3101:A1 I *D sg13g2_o21ai_1
*I *3117:A1 I *D sg13g2_o21ai_1
*I *3352:A I *D sg13g2_buf_1
*I *3113:A1 I *D sg13g2_o21ai_1
*I *3353:X O *D sg13g2_buf_1
*CAP
1 *2985:A1 0
2 *3101:A1 0.000539057
3 *3117:A1 4.60402e-05
4 *3352:A 0.000391674
5 *3113:A1 0
6 *3353:X 0.000449449
7 *805:65 0.00102736
8 *805:59 0.00111314
9 *805:40 0.00101213
10 *805:25 0.00105959
11 *805:16 4.18525e-05
12 *805:10 0.000368526
13 *805:8 0.000449449
14 *3101:A1 *808:27 0.000802611
15 *3352:A *820:21 0
16 *3352:A *890:97 0.000130162
17 *805:8 *808:16 0.000130162
18 *805:8 *816:18 0
19 *805:8 *866:43 0
20 *805:8 *881:115 0.000502762
21 *805:40 *3116:D 0
22 *805:40 *885:33 0.000598855
23 *805:59 *2985:B1 0.000144
24 *805:59 *856:94 0.000241132
25 *805:59 *885:33 0.000145036
26 *805:59 *885:41 0
27 *805:59 *885:58 0
28 *805:65 *891:37 0
29 *2985:A2 *805:59 0.000338114
30 *3101:A2 *3101:A1 0.000112749
31 *3117:A2 *3117:A1 6.19736e-05
32 *3117:A2 *805:40 0
33 *3117:A2 *805:59 0.000144921
34 *357:16 *805:8 7.34842e-05
35 *357:26 *3352:A 8.01938e-05
36 *591:10 *3352:A 0.000124091
37 *671:47 *3101:A1 0
38 *693:10 *805:65 0
*RES
1 *3353:X *805:8 44.7998 
2 *805:8 *805:10 20 
3 *805:10 *805:16 40.5356 
4 *805:16 *3113:A1 20 
5 *805:10 *805:25 23.7801 
6 *805:25 *3352:A 43.605 
7 *805:25 *805:40 23.9964 
8 *805:40 *3117:A1 20.6154 
9 *805:40 *805:59 6.9113 
10 *805:59 *805:65 44.5526 
11 *805:65 *3101:A1 26.1594 
12 *805:59 *2985:A1 20 
*END

*D_NET *806 0.0155009
*CONN
*I *2932:A1 I *D sg13g2_o21ai_1
*I *3060:A1 I *D sg13g2_o21ai_1
*I *2952:A1 I *D sg13g2_o21ai_1
*I *2928:A1 I *D sg13g2_o21ai_1
*I *2948:A1 I *D sg13g2_o21ai_1
*I *2944:A1 I *D sg13g2_o21ai_1
*I *3056:A1 I *D sg13g2_o21ai_1
*I *2924:A1 I *D sg13g2_o21ai_1
*I *3354:X O *D sg13g2_buf_1
*CAP
1 *2932:A1 0
2 *3060:A1 0.000133585
3 *2952:A1 3.78077e-05
4 *2928:A1 0
5 *2948:A1 0.000401218
6 *2944:A1 0
7 *3056:A1 0
8 *2924:A1 0.000282012
9 *3354:X 4.25753e-05
10 *806:87 0.000408137
11 *806:63 0.000967378
12 *806:53 0.000661534
13 *806:51 0.000332118
14 *806:49 0.000390082
15 *806:47 0.00119804
16 *806:34 0.00163842
17 *806:19 0.000946289
18 *806:8 0.000440405
19 *2924:A1 *3354:A 0
20 *2924:A1 *898:37 0.000713174
21 *2948:A1 *2948:B1 0
22 *2948:A1 *3079:C 0
23 *2948:A1 *3080:A1 0
24 *2948:A1 *3237:RESET_B 7.50503e-05
25 *2948:A1 *899:39 0
26 *3060:A1 *861:99 0.000266962
27 *806:8 *864:36 8.02105e-05
28 *806:8 *885:76 8.02105e-05
29 *806:19 *898:37 0.000159096
30 *806:19 *898:54 0.00012816
31 *806:34 *2944:B1 0
32 *806:34 *3289:RESET_B 0.000274028
33 *806:34 *820:66 0
34 *806:34 *820:89 0
35 *806:34 *864:36 0
36 *806:34 *898:54 0.000266492
37 *806:47 *2944:B1 0
38 *806:47 *819:58 7.61954e-05
39 *806:47 *820:89 0
40 *806:47 *820:104 0
41 *806:49 *2927:C 0
42 *806:49 *2932:B1 0
43 *806:49 *820:104 0
44 *806:49 *864:63 0
45 *806:87 *861:99 0.000396673
46 *2928:A2 *806:49 0
47 *2931:A *806:47 0
48 *2932:A2 *806:49 8.00842e-05
49 *2948:A2 *2948:A1 1.54008e-05
50 *3054:A2 *806:34 0.00017641
51 *3060:A2 *3060:A1 4.77425e-05
52 *3080:A2 *2948:A1 0.000273991
53 *362:32 *806:34 0
54 *362:32 *806:47 0
55 *552:8 *806:63 0
56 *554:18 *806:53 0
57 *554:18 *806:87 2.14736e-05
58 *569:10 *3060:A1 0.000237794
59 *569:10 *806:87 7.62389e-05
60 *723:54 *806:63 0.000144181
61 *732:6 *806:34 0
62 *732:14 *806:47 0
63 *732:29 *806:47 0.000629847
64 *759:39 *806:63 0.000144312
65 *794:33 *806:63 0.00115203
66 *795:26 *806:53 0.00029161
67 *795:26 *806:63 0.000497716
68 *795:26 *806:87 0
69 *796:18 *3060:A1 0
70 *796:18 *806:63 0.00131624
*RES
1 *3354:X *806:8 40.5356 
2 *806:8 *2924:A1 43.3166 
3 *806:8 *806:19 1.339 
4 *806:19 *3056:A1 40 
5 *806:19 *806:34 28.0958 
6 *806:34 *2944:A1 20 
7 *806:34 *806:47 47.9619 
8 *806:47 *806:49 3.3475 
9 *806:49 *806:51 20 
10 *806:51 *806:53 1.339 
11 *806:53 *806:63 49.3318 
12 *806:63 *2948:A1 44.0788 
13 *806:53 *2928:A1 40 
14 *806:51 *806:87 2.6471 
15 *806:87 *2952:A1 40.3193 
16 *806:87 *3060:A1 41.9055 
17 *806:49 *2932:A1 20 
*END

*D_NET *807 0.0146021
*CONN
*I *2969:A1 I *D sg13g2_o21ai_1
*I *2961:A1 I *D sg13g2_o21ai_1
*I *2940:A1 I *D sg13g2_o21ai_1
*I *2936:A1 I *D sg13g2_o21ai_1
*I *3068:A1 I *D sg13g2_o21ai_1
*I *3072:A1 I *D sg13g2_o21ai_1
*I *2973:A1 I *D sg13g2_o21ai_1
*I *3105:A1 I *D sg13g2_o21ai_1
*I *3355:X O *D sg13g2_buf_1
*CAP
1 *2969:A1 6.16602e-05
2 *2961:A1 0
3 *2940:A1 0.00014912
4 *2936:A1 0.00015552
5 *3068:A1 0
6 *3072:A1 0
7 *2973:A1 0
8 *3105:A1 0.000389363
9 *3355:X 0.000145452
10 *807:102 0.000170563
11 *807:74 0.000640571
12 *807:67 0.000311613
13 *807:52 0.000457419
14 *807:48 0.00138184
15 *807:40 0.00166166
16 *807:25 0.000718488
17 *807:10 0.00142436
18 *807:8 0.00111461
19 *3105:A1 *3105:B1 0
20 *3105:A1 *892:83 0
21 *807:8 *892:23 0
22 *807:8 *892:34 0
23 *807:8 *898:37 0
24 *807:10 *892:23 0
25 *807:10 *892:83 0
26 *807:10 *898:37 0
27 *807:40 *3431:A 0
28 *807:40 *898:14 0.000741531
29 *807:48 *2961:B1 0
30 *807:48 *2963:A1 0
31 *807:48 *3068:B1 0
32 *807:48 *898:14 0
33 *807:48 *909:78 0
34 *807:67 *3068:B1 0
35 *807:67 *899:64 0
36 *807:74 *865:60 0.000337248
37 *807:74 *899:64 0
38 *807:102 *898:14 0.000124859
39 *807:102 *909:78 4.78359e-05
40 *2936:A2 *2936:A1 0.00014474
41 *2963:B1 *807:48 0.000404465
42 *2969:A2 *2969:A1 1.54008e-05
43 *2973:A2 *807:25 0.000209807
44 *3072:A2 *807:48 8.02102e-05
45 *3072:A2 *807:52 0.000274518
46 *3241:CLK *3105:A1 8.00842e-05
47 *559:10 *2940:A1 0
48 *576:16 *807:25 0
49 *576:16 *807:40 0
50 *576:16 *807:48 0
51 *576:16 *807:102 0.000144635
52 *584:8 *807:40 0
53 *586:10 *807:40 0.000209516
54 *657:10 *2936:A1 0
55 *657:10 *807:67 0.000178836
56 *660:8 *807:74 0
57 *661:16 *807:67 4.77425e-05
58 *671:137 *3105:A1 0
59 *671:137 *807:10 0
60 *706:10 *807:102 0
61 *721:10 *3105:A1 0.000448012
62 *721:28 *807:40 0
63 *721:28 *807:48 0.000922571
64 *721:44 *807:48 0
65 *721:44 *807:52 0.000274518
66 *721:44 *807:67 0.000307057
67 *740:16 *807:48 0
68 *766:16 *2936:A1 0.000112426
69 *790:18 *2940:A1 0.000428367
70 *790:18 *807:74 0.000285457
*RES
1 *3355:X *807:8 41.339 
2 *807:8 *807:10 8.2606 
3 *807:10 *3105:A1 44.3466 
4 *807:10 *807:25 21.4008 
5 *807:25 *2973:A1 20 
6 *807:25 *807:40 45.9946 
7 *807:40 *807:48 29.7026 
8 *807:48 *807:52 21.8334 
9 *807:52 *3072:A1 20 
10 *807:52 *807:67 43.2136 
11 *807:67 *3068:A1 20 
12 *807:48 *807:74 3.3166 
13 *807:74 *2936:A1 41.9364 
14 *807:74 *2940:A1 42.0806 
15 *807:40 *807:102 41.8128 
16 *807:102 *2961:A1 20 
17 *807:8 *2969:A1 40.5356 
*END

*D_NET *808 0.0202138
*CONN
*I *3080:A1 I *D sg13g2_o21ai_1
*I *3354:A I *D sg13g2_buf_1
*I *3355:A I *D sg13g2_buf_1
*I *3353:A I *D sg13g2_buf_1
*I *3356:X O *D sg13g2_buf_1
*CAP
1 *3080:A1 0.00106668
2 *3354:A 0.0006466
3 *3355:A 0.000426374
4 *3353:A 0
5 *3356:X 2.77263e-05
6 *808:59 0.00149095
7 *808:29 0.00107297
8 *808:27 0.00262646
9 *808:16 0.000321892
10 *808:6 0.00255182
11 *3080:A1 *879:37 0
12 *3354:A *885:76 0
13 *3354:A *892:64 0.000713174
14 *3354:A *898:37 0.0011146
15 *3355:A *898:37 0.000659994
16 *808:16 *2980:C 0.000176848
17 *808:16 *866:43 0
18 *808:16 *881:98 0
19 *808:16 *881:115 0
20 *808:27 *2979:A1 0
21 *808:27 *3101:B1 0
22 *808:27 *856:79 0.000533673
23 *808:27 *866:66 0
24 *808:59 *856:79 0.000614577
25 *2924:A1 *3354:A 0
26 *2948:A1 *3080:A1 0
27 *2949:A *3080:A1 0
28 *2969:A2 *3355:A 0
29 *2970:B *3355:A 0
30 *2982:A *808:27 0
31 *2982:B *808:27 0
32 *3079:A *3080:A1 0.000144025
33 *3080:A2 *3080:A1 0.000435379
34 *3101:A1 *808:27 0.000802611
35 *3237:CLK *3080:A1 0
36 *3356:A *808:16 8.00842e-05
37 *3356:A *808:27 4.77347e-05
38 *305:16 *3080:A1 0
39 *345:14 *808:16 0.00014479
40 *357:26 *808:27 0
41 *357:28 *3080:A1 0.000888663
42 *357:28 *808:27 0.00104198
43 *357:28 *808:59 0.000629901
44 *546:112 *3354:A 0
45 *546:112 *3355:A 0
46 *646:10 *808:59 0
47 *671:33 *808:27 0
48 *671:39 *808:27 0.00111578
49 *671:47 *808:27 0
50 *720:41 *3355:A 0.00037179
51 *755:8 *808:59 0
52 *794:27 *3080:A1 0.000176388
53 *803:12 *808:27 0.000112426
54 *803:25 *808:27 4.77425e-05
55 *805:8 *808:16 0.000130162
*RES
1 *3356:X *808:6 20.3502 
2 *808:6 *808:16 43.399 
3 *808:16 *3353:A 20 
4 *808:6 *808:27 23.7003 
5 *808:27 *808:29 20 
6 *808:29 *3355:A 45.5517 
7 *808:29 *3354:A 48.5799 
8 *808:27 *808:59 44.8101 
9 *808:59 *3080:A1 31.0243 
*END

*D_NET *809 0.0137118
*CONN
*I *3023:A1 I *D sg13g2_o21ai_1
*I *3027:A1 I *D sg13g2_o21ai_1
*I *2903:A1 I *D sg13g2_o21ai_1
*I *2891:A1 I *D sg13g2_o21ai_1
*I *3031:A1 I *D sg13g2_o21ai_1
*I *2899:A1 I *D sg13g2_o21ai_1
*I *2907:A1 I *D sg13g2_o21ai_1
*I *2895:A1 I *D sg13g2_o21ai_1
*I *3357:X O *D sg13g2_buf_1
*CAP
1 *3023:A1 0
2 *3027:A1 0
3 *2903:A1 6.76623e-05
4 *2891:A1 9.50219e-05
5 *3031:A1 0.000698384
6 *2899:A1 4.57377e-05
7 *2907:A1 0
8 *2895:A1 0
9 *3357:X 0.000179353
10 *809:112 0.000454663
11 *809:66 0.00126972
12 *809:55 0.00132166
13 *809:38 0.00100303
14 *809:30 0.000874442
15 *809:20 0.00142284
16 *809:12 0.00123739
17 *809:10 0.000179353
18 *2891:A1 *1163:12 0.000176133
19 *2903:A1 *2903:B1 0
20 *2903:A1 *3589:A 0.000112422
21 *3031:A1 *3031:B1 0
22 *3031:A1 *867:86 0
23 *3031:A1 *894:23 0
24 *3031:A1 *894:38 0
25 *809:10 *2694:A 8.0216e-05
26 *809:10 *876:12 0
27 *809:10 *876:33 0
28 *809:20 *821:88 0.0014158
29 *809:20 *867:35 0.000344389
30 *809:30 *821:88 0
31 *809:30 *1104:10 0
32 *809:30 *1128:14 0.000124547
33 *809:30 *1163:12 0.000175903
34 *809:38 *861:38 0.000286048
35 *809:38 *1113:18 0.000176085
36 *809:55 *2888:A 0
37 *809:55 *2891:B1 0.000216981
38 *809:55 *3620:A 0
39 *809:55 *857:51 0
40 *809:55 *861:53 0
41 *809:55 *886:26 0
42 *809:55 *1113:18 0.000304546
43 *809:55 *1163:12 0
44 *809:66 *891:110 4.75265e-05
45 *809:112 *1164:10 7.34889e-05
46 *2890:A *809:20 0
47 *2891:A2 *2891:A1 0.000161033
48 *2891:A2 *809:30 7.94043e-05
49 *2895:A2 *809:38 0.000176085
50 *2899:A2 *2899:A1 7.19987e-05
51 *2899:A2 *809:66 0
52 *2903:A2 *2903:A1 3.97009e-05
53 *3032:A *3031:A1 0.000209703
54 *358:8 *809:30 7.49652e-05
55 *368:6 *809:10 8.0216e-05
56 *371:10 *809:20 0
57 *493:41 *809:112 7.47091e-05
58 *526:10 *809:38 7.46098e-05
59 *529:8 *3031:A1 0
60 *532:12 *809:20 0
61 *532:12 *809:30 0
62 *708:82 *809:10 0.000285997
*RES
1 *3357:X *809:10 41.8746 
2 *809:10 *809:12 20 
3 *809:12 *809:20 29.7079 
4 *809:20 *809:30 25.1088 
5 *809:30 *809:38 42.5235 
6 *809:38 *2895:A1 20 
7 *809:38 *809:55 7.9378 
8 *809:55 *2907:A1 20 
9 *809:55 *809:66 24.6556 
10 *809:66 *2899:A1 40.4815 
11 *809:66 *3031:A1 46.4478 
12 *809:30 *2891:A1 21.1845 
13 *809:20 *2903:A1 40.7519 
14 *809:12 *809:112 44.4496 
15 *809:112 *3027:A1 20 
16 *809:10 *3023:A1 40 
*END

*D_NET *810 0.00487846
*CONN
*I *3047:A1 I *D sg13g2_o21ai_1
*I *2915:A1 I *D sg13g2_o21ai_1
*I *2911:A1 I *D sg13g2_o21ai_1
*I *2919:A1 I *D sg13g2_o21ai_1
*I *3358:X O *D sg13g2_buf_1
*CAP
1 *3047:A1 0.000120377
2 *2915:A1 4.36943e-05
3 *2911:A1 0.000225006
4 *2919:A1 0.000414439
5 *3358:X 0
6 *810:10 0.000807148
7 *810:8 0.000319001
8 *810:6 0.00022798
9 *2911:A1 *861:74 0
10 *2911:A1 *894:8 0
11 *2915:A1 *811:49 0
12 *2915:A1 *873:78 0
13 *2919:A1 *2909:A1 0.000287536
14 *3047:A1 *3047:A2 8.03091e-05
15 *3047:A1 *873:78 8.03091e-05
16 *3047:A1 *895:19 0
17 *810:8 *895:19 0
18 *810:10 *2913:A1 0
19 *810:10 *895:19 0
20 *2911:A2 *2911:A1 1.53311e-05
21 *2915:A2 *2915:A1 8.03091e-05
22 *539:12 *2919:A1 0
23 *544:14 *2919:A1 0.00116525
24 *544:14 *3047:A1 0.000212543
25 *544:14 *810:8 0.000320681
26 *544:14 *810:10 0.000478542
*RES
1 *3358:X *810:6 40 
2 *810:6 *810:8 1.5862 
3 *810:8 *810:10 2.3278 
4 *810:10 *2919:A1 45.5826 
5 *810:10 *2911:A1 41.8334 
6 *810:8 *2915:A1 40.5356 
7 *810:6 *3047:A1 41.6274 
*END

*D_NET *811 0.0133062
*CONN
*I *3051:A1 I *D sg13g2_o21ai_1
*I *3043:A1 I *D sg13g2_o21ai_1
*I *3357:A I *D sg13g2_buf_1
*I *3358:A I *D sg13g2_buf_1
*I *3039:A1 I *D sg13g2_o21ai_1
*I *3035:A1 I *D sg13g2_o21ai_1
*I *3359:X O *D sg13g2_buf_1
*CAP
1 *3051:A1 2.63427e-05
2 *3043:A1 0
3 *3357:A 2.45336e-05
4 *3358:A 0
5 *3039:A1 0
6 *3035:A1 0.000241874
7 *3359:X 0.000521696
8 *811:81 0.000108996
9 *811:73 0.000756862
10 *811:60 0.000675347
11 *811:49 0.0013325
12 *811:39 0.00277927
13 *811:28 0.000969965
14 *811:20 0.00107536
15 *3035:A1 *868:114 0
16 *3035:A1 *895:73 0
17 *3051:A1 *3051:A2 1.54008e-05
18 *3357:A *2694:A 4.79124e-05
19 *811:20 *2697:A 0
20 *811:20 *2700:A 0
21 *811:20 *3033:A1 0
22 *811:20 *821:21 0
23 *811:20 *868:114 7.94445e-05
24 *811:28 *3050:C 0.000112535
25 *811:39 *3039:B1 0
26 *811:39 *3050:C 0.000129499
27 *811:39 *821:25 0
28 *811:39 *1178:8 0
29 *811:49 *2910:B 0
30 *811:49 *2914:C 0
31 *811:49 *2915:B1 0
32 *811:49 *3277:D 0.000177378
33 *811:49 *873:78 0.000274299
34 *811:49 *877:50 0
35 *811:73 *895:54 0.00059862
36 *2915:A1 *811:49 0
37 *2915:A2 *811:49 0
38 *3034:A *3035:A1 0
39 *3035:A2 *3035:A1 1.54556e-05
40 *3036:A *3035:A1 0
41 *3036:A *811:20 0
42 *3036:A *811:73 0
43 *3036:B *3035:A1 0
44 *3038:A *811:28 0
45 *3043:A2 *811:81 4.77425e-05
46 *3510:A *811:49 0
47 *323:12 *3357:A 4.79124e-05
48 *324:8 *811:39 0
49 *324:8 *811:49 0
50 *365:16 *811:49 0.000501079
51 *365:29 *811:49 0
52 *374:18 *811:81 4.77425e-05
53 *377:10 *3051:A1 3.24568e-05
54 *377:10 *811:20 0.000209315
55 *377:10 *811:28 0
56 *377:10 *811:73 8.00954e-05
57 *621:44 *811:28 0.000287788
58 *621:54 *811:20 0
59 *621:54 *811:73 4.77202e-05
60 *621:61 *811:73 0.00064793
61 *621:82 *811:73 0.000194209
62 *628:8 *811:49 0.000606366
63 *629:14 *811:49 0.000177164
64 *635:8 *811:28 0
65 *636:10 *811:39 0
66 *638:8 *811:81 0.000287256
67 *645:8 *811:81 0.00012816
*RES
1 *3359:X *3035:A1 42.4926 
2 *3359:X *811:20 22.6986 
3 *811:20 *811:28 42.0909 
4 *811:28 *3039:A1 20 
5 *811:28 *811:39 27.7456 
6 *811:39 *811:49 33.8803 
7 *811:49 *3358:A 20 
8 *811:39 *811:60 46.592 
9 *811:60 *3357:A 40.3193 
10 *811:20 *811:73 6.9422 
11 *811:73 *811:81 41.6583 
12 *811:81 *3043:A1 20 
13 *811:73 *3051:A1 20.3193 
*END

*D_NET *812 0.0127381
*CONN
*I *3010:A1 I *D sg13g2_o21ai_1
*I *2998:A1 I *D sg13g2_o21ai_1
*I *3002:A1 I *D sg13g2_o21ai_1
*I *2870:A1 I *D sg13g2_o21ai_1
*I *2878:A1 I *D sg13g2_o21ai_1
*I *2886:A1 I *D sg13g2_o21ai_1
*I *2990:A1 I *D sg13g2_o21ai_1
*I *2866:A1 I *D sg13g2_o21ai_1
*I *3360:X O *D sg13g2_buf_1
*CAP
1 *3010:A1 0.000650056
2 *2998:A1 3.34444e-05
3 *3002:A1 3.34444e-05
4 *2870:A1 2.58084e-05
5 *2878:A1 0
6 *2886:A1 0
7 *2990:A1 0.000238957
8 *2866:A1 0.000299048
9 *3360:X 3.56971e-05
10 *812:71 0.000450666
11 *812:54 0.000539594
12 *812:37 0.000791994
13 *812:16 0.000834317
14 *812:14 0.000412329
15 *812:12 0.000401802
16 *812:10 0.000199964
17 *812:6 0.000799277
18 *2866:A1 *2866:B1 0.00028427
19 *2866:A1 *858:41 0.000209637
20 *2866:A1 *859:33 0
21 *2866:A1 *874:31 0
22 *2866:A1 *896:62 7.48209e-05
23 *2870:A1 *2870:B1 4.77702e-05
24 *2990:A1 *824:25 0.000497964
25 *2990:A1 *887:23 0
26 *2990:A1 *887:42 0
27 *2990:A1 *896:31 1.54008e-05
28 *2990:A1 *896:47 0
29 *3010:A1 *3370:A 0
30 *3010:A1 *813:30 0
31 *3010:A1 *814:10 0
32 *3010:A1 *823:6 0
33 *3010:A1 *897:20 8.00842e-05
34 *3010:A1 *1189:14 0
35 *812:10 *2998:B1 0.000104585
36 *812:10 *1167:16 0
37 *812:12 *2998:B1 0.000265663
38 *812:14 *2998:B1 0.00108256
39 *812:14 *896:62 5.30319e-05
40 *812:16 *896:62 0.000265575
41 *812:37 *3412:A 0
42 *812:37 *859:33 0
43 *812:37 *870:23 0.000468456
44 *812:37 *896:47 0.000726675
45 *812:54 *824:25 0.00012816
46 *812:54 *887:42 7.35191e-05
47 *812:71 *2878:B1 0
48 *812:71 *858:97 0
49 *812:71 *859:33 0
50 *812:71 *875:52 0
51 *812:71 *898:84 0
52 *2866:A2 *2866:A1 8.02102e-05
53 *2870:A2 *2870:A1 4.77702e-05
54 *2886:A2 *812:37 0.000274057
55 *2886:A2 *812:54 8.00842e-05
56 *2990:A2 *2990:A1 8.00842e-05
57 *2996:A2 *3010:A1 0.000144519
58 *3002:A2 *3002:A1 4.77425e-05
59 *3003:A *3010:A1 0
60 *3010:A2 *3010:A1 0.000209374
61 *372:16 *2998:A1 4.77425e-05
62 *372:16 *3010:A1 0
63 *379:22 *2866:A1 0
64 *508:10 *2866:A1 0.000337302
65 *508:10 *812:16 0.000128248
66 *513:10 *812:71 7.30101e-05
67 *514:8 *812:71 0.000181646
68 *596:18 *2990:A1 0
69 *596:55 *3010:A1 0
70 *604:10 *812:10 7.48178e-05
71 *604:10 *812:12 0.000287672
72 *604:10 *812:14 0.00039332
73 *605:8 *812:10 0.000125906
*RES
1 *3360:X *812:6 20.3193 
2 *812:6 *812:10 21.339 
3 *812:10 *812:12 1.339 
4 *812:12 *812:14 5.2942 
5 *812:14 *812:16 1.339 
6 *812:16 *2866:A1 44.0891 
7 *812:16 *812:37 45.5105 
8 *812:37 *2990:A1 42.8634 
9 *812:37 *812:54 21.133 
10 *812:54 *2886:A1 20 
11 *812:54 *812:71 44.4908 
12 *812:71 *2878:A1 20 
13 *812:14 *2870:A1 40.3193 
14 *812:12 *3002:A1 40.3193 
15 *812:10 *2998:A1 40.3193 
16 *812:6 *3010:A1 26.4587 
*END

*D_NET *813 0.0155162
*CONN
*I *3014:A1 I *D sg13g2_o21ai_1
*I *3006:A1 I *D sg13g2_o21ai_1
*I *2994:A1 I *D sg13g2_o21ai_1
*I *2874:A1 I *D sg13g2_o21ai_1
*I *2882:A1 I *D sg13g2_o21ai_1
*I *2862:A1 I *D sg13g2_o21ai_1
*I *3018:A1 I *D sg13g2_o21ai_1
*I *3360:A I *D sg13g2_buf_1
*I *3361:X O *D sg13g2_buf_1
*CAP
1 *3014:A1 0
2 *3006:A1 8.97707e-05
3 *2994:A1 0.00011628
4 *2874:A1 0.000252124
5 *2882:A1 0.0007374
6 *2862:A1 0.0001406
7 *3018:A1 0
8 *3360:A 0.000122809
9 *3361:X 0.00095797
10 *813:55 0.000988967
11 *813:53 0.000459006
12 *813:51 0.000434157
13 *813:49 0.00109928
14 *813:41 0.00121563
15 *813:30 0.00103032
16 *813:10 0.000478542
17 *2862:A1 *1179:32 0.000144181
18 *2882:A1 *2861:D 0.000177076
19 *2882:A1 *858:75 0.000660844
20 *2882:A1 *870:79 0
21 *2882:A1 *1179:32 0
22 *2882:A1 *1187:43 0
23 *3006:A1 *3006:A2 0.000144181
24 *3360:A *1180:33 0
25 *813:10 *3002:B1 0.000112656
26 *813:10 *1189:20 0
27 *813:30 *3002:B1 0.000434589
28 *813:30 *3436:A 0
29 *813:30 *897:20 0
30 *813:41 *3014:B1 0
31 *813:41 *3436:A 0
32 *813:41 *897:16 0.000339516
33 *813:41 *1192:26 0
34 *813:49 *1192:26 0
35 *813:51 *858:81 0
36 *813:53 *870:79 0.000215263
37 *813:55 *870:79 0.000345425
38 *2862:A2 *2862:A1 0.00014474
39 *2874:A2 *2874:A1 0.000468173
40 *2879:B *2874:A1 0.000468173
41 *2882:A2 *2882:A1 1.54556e-05
42 *2992:A2 *3006:A1 8.00842e-05
43 *3010:A1 *813:30 0
44 *3015:A *813:49 0
45 *3015:B *813:49 0
46 *3257:D *2882:A1 0.000176334
47 *372:16 *813:10 0.000112579
48 *372:16 *813:30 0.000337901
49 *373:22 *813:30 0
50 *378:30 *2882:A1 0
51 *517:10 *2882:A1 0
52 *603:8 *813:10 0
53 *608:8 *813:10 0
54 *610:8 *813:49 0
55 *718:14 *813:49 0.000533463
56 *719:37 *813:49 0
57 *790:18 *813:51 0
58 *794:37 *2862:A1 0.00018387
59 *794:37 *813:49 0.000774393
60 *794:37 *813:51 0.000615026
61 *794:37 *813:53 0.000400629
62 *794:37 *813:55 0.000508835
*RES
1 *3361:X *813:10 43.0797 
2 *813:10 *3360:A 40.9682 
3 *3361:X *813:30 26.2109 
4 *813:30 *3018:A1 20 
5 *813:30 *813:41 4.4496 
6 *813:41 *813:49 28.7756 
7 *813:49 *813:51 2.8222 
8 *813:51 *813:53 1.8334 
9 *813:53 *813:55 2.3278 
10 *813:55 *2862:A1 41.8128 
11 *813:55 *2882:A1 47.725 
12 *813:53 *2874:A1 43.1312 
13 *813:51 *2994:A1 40.9682 
14 *813:49 *3006:A1 40.9682 
15 *813:41 *3014:A1 20 
*END

*D_NET *814 0.0152024
*CONN
*I *3361:A I *D sg13g2_buf_1
*I *3064:A1 I *D sg13g2_o21ai_1
*I *3084:A1 I *D sg13g2_o21ai_1
*I *3076:A1 I *D sg13g2_o21ai_1
*I *2858:A1 I *D sg13g2_o21ai_1
*I *3362:X O *D sg13g2_buf_1
*CAP
1 *3361:A 0.000114931
2 *3064:A1 0
3 *3084:A1 0
4 *3076:A1 0
5 *2858:A1 0
6 *3362:X 0.000221333
7 *814:64 0.000614261
8 *814:49 0.00096396
9 *814:41 0.000684933
10 *814:35 0.000935338
11 *814:33 0.00116425
12 *814:20 0.00226459
13 *814:10 0.00203671
14 *3361:A *3002:B1 0.000176657
15 *814:10 *825:59 0
16 *814:20 *2857:B 0
17 *814:20 *2857:D 0
18 *814:20 *2858:B1 0
19 *814:20 *2868:A1 0
20 *814:20 *2989:D 0
21 *814:20 *3017:B 0.000819485
22 *814:20 *825:59 0
23 *814:20 *858:56 0.000394248
24 *814:20 *870:23 0.0003943
25 *814:20 *875:25 0
26 *814:20 *883:90 0
27 *814:20 *898:73 0.000112558
28 *814:33 *2858:B1 8.02128e-05
29 *814:33 *898:73 0.00024211
30 *814:35 *822:36 0
31 *814:49 *1165:57 0
32 *814:64 *824:54 0
33 *2855:C *814:20 0
34 *3010:A1 *814:10 0
35 *3064:A2 *814:35 6.31433e-05
36 *3076:A2 *814:49 0.000112287
37 *3077:B *814:64 0
38 *3084:A2 *814:64 0.000240586
39 *3193:CLK *814:33 0.000395789
40 *372:16 *814:10 0.000111744
41 *373:22 *3361:A 0
42 *374:26 *814:20 0.000341535
43 *379:28 *814:20 0
44 *497:8 *814:33 0.000394831
45 *498:10 *814:20 0
46 *499:8 *814:33 0
47 *596:33 *814:10 0
48 *596:33 *814:20 0
49 *710:10 *814:33 0.000585755
50 *710:12 *814:33 0.000211965
51 *711:39 *814:20 0.000181192
52 *744:35 *814:35 0
53 *744:35 *814:64 0
54 *745:12 *814:35 0.000818303
55 *745:20 *814:41 0.000525369
56 *747:28 *814:20 0
57 *747:36 *814:35 0
58 *790:18 *814:49 0
59 *795:26 *814:64 0
*RES
1 *3362:X *814:10 41.8437 
2 *814:10 *814:20 38.334 
3 *814:20 *2858:A1 20 
4 *814:20 *814:33 48.1473 
5 *814:33 *814:35 6.3757 
6 *814:35 *814:41 43.3475 
7 *814:41 *814:49 42.5853 
8 *814:49 *3076:A1 20 
9 *814:49 *814:64 45.1912 
10 *814:64 *3084:A1 20 
11 *814:35 *3064:A1 20 
12 *814:10 *3361:A 41.1845 
*END

*D_NET *815 0.0110135
*CONN
*I *2823:B2 I *D sg13g2_a22oi_1
*I *3561:X O *D sg13g2_buf_1
*CAP
1 *2823:B2 0
2 *3561:X 9.65984e-05
3 *815:26 4.60667e-05
4 *815:20 0.00168561
5 *815:14 0.00203125
6 *815:8 0.000488298
7 *815:8 *3561:A 4.77425e-05
8 *815:8 *845:14 0
9 *815:8 *1075:12 0
10 *815:14 *851:58 0
11 *815:14 *1071:18 0.000240887
12 *815:20 *2819:B1 0
13 *815:20 *846:76 0
14 *815:20 *847:35 0.000111177
15 *815:20 *848:37 0.000104241
16 *815:20 *848:39 0.000210551
17 *815:20 *848:41 0.000313935
18 *815:20 *848:47 0.000176313
19 *815:20 *848:66 0.000282152
20 *815:20 *848:127 0.00123638
21 *815:20 *946:20 0.00133377
22 *815:26 *2819:A2 7.49652e-05
23 *815:26 *853:14 5.37768e-05
24 *2783:A1 *815:20 0.000703008
25 *261:10 *815:20 0
26 *699:92 *815:14 0
27 *727:24 *815:20 0
28 *735:78 *815:20 0.000125903
29 *749:20 *815:20 0.00165084
30 *804:20 *815:20 0
*RES
1 *3561:X *815:8 40.7519 
2 *815:8 *815:14 43.5638 
3 *815:14 *815:20 41.8051 
4 *815:20 *815:26 40.5974 
5 *815:26 *2823:B2 20 
*END

*D_NET *816 0.016546
*CONN
*I *2893:A1 I *D sg13g2_a21oi_1
*I *2905:A1 I *D sg13g2_a21oi_1
*I *2909:A1 I *D sg13g2_a21oi_1
*I *2917:A1 I *D sg13g2_a21oi_1
*I *2897:A1 I *D sg13g2_a21oi_1
*I *2889:A1 I *D sg13g2_a21oi_1
*I *3111:A1 I *D sg13g2_a21oi_1
*I *2851:B I *D sg13g2_and2_1
*I *3363:X O *D sg13g2_buf_1
*CAP
1 *2893:A1 9.55297e-05
2 *2905:A1 0.000140527
3 *2909:A1 0.000449456
4 *2917:A1 0.000125911
5 *2897:A1 0
6 *2889:A1 0
7 *3111:A1 0
8 *2851:B 0.000305072
9 *3363:X 0.00010734
10 *816:66 0.000912215
11 *816:55 0.000559112
12 *816:51 0.000999681
13 *816:36 0.000948004
14 *816:18 0.00133881
15 *816:12 0.00143442
16 *816:10 0.000292429
17 *2851:B *2851:A 0
18 *2909:A1 *891:91 0
19 *2917:A1 *891:91 0
20 *816:10 *889:79 0.0002899
21 *816:12 *889:79 0.000448022
22 *816:18 *866:43 0
23 *816:18 *881:115 7.97665e-05
24 *816:18 *889:79 0.00202246
25 *816:18 *890:97 0
26 *816:36 *820:12 0
27 *816:51 *883:74 0
28 *816:66 *891:91 0.00028875
29 *2889:A2 *816:36 1.54556e-05
30 *2889:A2 *816:51 4.79124e-05
31 *2893:A2 *2893:A1 1.53311e-05
32 *2893:B1 *816:36 0
33 *2897:B1 *2917:A1 0
34 *2901:A2 *2893:A1 0
35 *2908:A *816:51 0
36 *2912:A *2909:A1 0
37 *2919:A1 *2909:A1 0.000287536
38 *2980:A *2851:B 0
39 *3111:A2 *2851:B 1.54556e-05
40 *3111:A2 *816:18 0.000129358
41 *3219:CLK *2917:A1 0
42 *3:18 *816:51 0
43 *295:10 *816:51 0
44 *521:53 *816:55 0
45 *521:61 *816:55 4.76874e-05
46 *521:61 *816:66 1.54008e-05
47 *521:68 *2909:A1 8.00842e-05
48 *521:68 *816:66 0
49 *521:76 *2909:A1 0
50 *521:76 *2917:A1 1.54008e-05
51 *521:83 *2909:A1 3.22653e-05
52 *534:8 *2905:A1 0.000372702
53 *534:8 *816:51 7.34808e-05
54 *539:12 *2909:A1 7.31628e-05
55 *544:14 *816:66 0
56 *545:8 *2909:A1 2.17531e-05
57 *545:8 *2917:A1 0.000231414
58 *692:10 *2851:B 0
59 *692:10 *816:18 0
60 *735:6 *816:36 0.000466304
61 *735:23 *816:36 1.54556e-05
62 *735:23 *816:51 0.000815428
63 *735:23 *816:55 0
64 *737:10 *816:55 0
65 *737:10 *816:66 0
66 *741:14 *2905:A1 0.000342083
67 *741:14 *816:51 7.34424e-05
68 *741:22 *2909:A1 0
69 *741:22 *816:55 0.00033736
70 *741:22 *816:66 0.000481505
71 *744:16 *2909:A1 1.54008e-05
72 *764:21 *816:10 0.000268679
73 *764:21 *816:12 0.000425632
74 *764:21 *816:18 0.000992942
75 *805:8 *816:18 0
*RES
1 *3363:X *816:10 41.8746 
2 *816:10 *816:12 2.0806 
3 *816:12 *816:18 33.4312 
4 *816:18 *2851:B 22.8634 
5 *816:18 *3111:A1 20 
6 *816:12 *816:36 23.1312 
7 *816:36 *2889:A1 20 
8 *816:36 *816:51 27.4531 
9 *816:51 *816:55 22.4823 
10 *816:55 *2897:A1 20 
11 *816:55 *816:66 23.8831 
12 *816:66 *2917:A1 41.4111 
13 *816:66 *2909:A1 44.5835 
14 *816:51 *2905:A1 42.3999 
15 *816:10 *2893:A1 40.9682 
*END

*D_NET *817 0.0169462
*CONN
*I *2979:A1 I *D sg13g2_a21oi_1
*I *2975:A1 I *D sg13g2_a21oi_1
*I *2955:A1 I *D sg13g2_a21oi_1
*I *3091:A1 I *D sg13g2_a21oi_1
*I *3099:A1 I *D sg13g2_a21oi_1
*I *3087:A1 I *D sg13g2_a21oi_1
*I *3095:A1 I *D sg13g2_a21oi_1
*I *3107:A1 I *D sg13g2_a21oi_1
*I *3364:X O *D sg13g2_buf_1
*CAP
1 *2979:A1 0.00065325
2 *2975:A1 5.72532e-05
3 *2955:A1 0
4 *3091:A1 0
5 *3099:A1 0.000179124
6 *3087:A1 2.52938e-05
7 *3095:A1 0.000537001
8 *3107:A1 0.000240738
9 *3364:X 0.000280922
10 *817:75 0.000978284
11 *817:69 0.0012506
12 *817:61 0.000934245
13 *817:52 0.000508097
14 *817:50 0.000572072
15 *817:27 0.0014305
16 *817:25 0.000499157
17 *817:23 0.00113146
18 *817:12 0.000598465
19 *817:10 0.000280922
20 *3095:A1 *3086:A 0
21 *3095:A1 *881:59 0
22 *3095:A1 *883:39 0
23 *3099:A1 *3101:B1 0
24 *3099:A1 *866:66 0.000208878
25 *3107:A1 *889:39 0.000241979
26 *817:10 *3364:A 0
27 *817:23 *889:39 0.000518233
28 *817:27 *883:62 0
29 *817:50 *2710:A 0
30 *817:50 *856:46 0
31 *817:50 *881:67 0.000597834
32 *817:50 *883:39 0.000145173
33 *817:50 *884:75 8.02434e-05
34 *817:61 *862:76 0
35 *817:61 *880:19 0
36 *817:61 *891:12 0
37 *817:69 *856:46 0.000530789
38 *817:69 *862:76 0.00033998
39 *817:75 *3091:B1 0.000606694
40 *817:75 *856:67 0
41 *817:75 *866:76 0
42 *817:75 *1181:8 0.00085026
43 *2955:B1 *817:61 0
44 *2975:B1 *2975:A1 0
45 *2978:A *2975:A1 0
46 *3099:B1 *3099:A1 0
47 *3107:A2 *3107:A1 4.78356e-05
48 *3311:D *3099:A1 0
49 *352:16 *817:10 0
50 *359:20 *2975:A1 0
51 *360:30 *817:69 0.000595434
52 *571:12 *2975:A1 1.54556e-05
53 *571:16 *2979:A1 0
54 *571:61 *3087:A1 4.78524e-05
55 *571:61 *817:61 0.000823815
56 *572:10 *817:61 0.000209763
57 *671:8 *3095:A1 0.00046883
58 *671:14 *3095:A1 1.54008e-05
59 *671:101 *3087:A1 1.54556e-05
60 *671:118 *3087:A1 3.23472e-05
61 *671:118 *817:61 0.000143501
62 *671:122 *817:69 0
63 *671:137 *817:69 1.54008e-05
64 *720:8 *817:75 0
65 *722:14 *3107:A1 0
66 *722:39 *3107:A1 0
67 *722:39 *817:10 0
68 *722:39 *817:23 0
69 *803:25 *817:10 0.000237686
70 *803:95 *817:69 0
71 *808:27 *2979:A1 0
*RES
1 *3364:X *817:10 42.7089 
2 *817:10 *817:12 20 
3 *817:12 *3107:A1 22.266 
4 *817:12 *817:23 23.5638 
5 *817:23 *817:25 1.0918 
6 *817:25 *817:27 3.5638 
7 *817:27 *3095:A1 45.7474 
8 *817:27 *817:50 45.8401 
9 *817:50 *817:52 20 
10 *817:52 *3087:A1 20.3193 
11 *817:52 *817:61 5.5105 
12 *817:61 *817:69 45.5826 
13 *817:69 *817:75 48.5078 
14 *817:75 *3099:A1 21.8334 
15 *817:69 *3091:A1 20 
16 *817:61 *2955:A1 20 
17 *817:25 *2975:A1 40.5356 
18 *817:23 *2979:A1 46.077 
*END

*D_NET *818 0.0174718
*CONN
*I *2946:A1 I *D sg13g2_a21oi_1
*I *2938:A1 I *D sg13g2_a21oi_1
*I *2934:A1 I *D sg13g2_a21oi_1
*I *2967:A1 I *D sg13g2_a21oi_1
*I *2959:A1 I *D sg13g2_a21oi_1
*I *2963:A1 I *D sg13g2_a21oi_1
*I *2971:A1 I *D sg13g2_a21oi_1
*I *3103:A1 I *D sg13g2_a21oi_1
*I *3365:X O *D sg13g2_buf_1
*CAP
1 *2946:A1 0
2 *2938:A1 7.12781e-05
3 *2934:A1 0.00055922
4 *2967:A1 3.64002e-05
5 *2959:A1 3.13955e-05
6 *2963:A1 0.000164964
7 *2971:A1 2.84713e-05
8 *3103:A1 0.000673366
9 *3365:X 0.000992477
10 *818:116 0.000486095
11 *818:86 0.0007467
12 *818:82 0.00122726
13 *818:46 0.000669831
14 *818:20 0.000955849
15 *818:14 0.0010073
16 *818:10 0.000683725
17 *2934:A1 *3233:RESET_B 0
18 *2934:A1 *879:41 0
19 *2934:A1 *899:54 0.00029161
20 *2934:A1 *1181:31 0
21 *2963:A1 *892:114 0
22 *2963:A1 *909:78 0
23 *3103:A1 *3431:A 0
24 *818:10 *885:99 0
25 *818:14 *885:111 0
26 *818:20 *885:111 0.000111999
27 *818:46 *865:46 0
28 *818:46 *885:111 0.000582785
29 *818:46 *892:114 0
30 *818:86 *879:41 0
31 *818:86 *899:54 0.000399349
32 *818:116 *3080:B1 0.000431964
33 *818:116 *899:35 0.00018387
34 *2934:A2 *2934:A1 0.000274769
35 *2934:B1 *2934:A1 0
36 *2949:A *818:116 1.54008e-05
37 *2963:B1 *2963:A1 0
38 *2971:A2 *2971:A1 1.54008e-05
39 *2974:A *3103:A1 0
40 *3247:CLK *818:10 0.000817402
41 *3247:CLK *818:14 0.000371639
42 *311:8 *3103:A1 0.000235556
43 *359:20 *818:14 0.000287256
44 *386:10 *818:14 0
45 *546:20 *2938:A1 0.000112426
46 *571:95 *818:20 0
47 *571:103 *2967:A1 1.54008e-05
48 *571:110 *2959:A1 4.77425e-05
49 *571:116 *2963:A1 0.000230582
50 *571:116 *818:46 7.51285e-05
51 *575:10 *2963:A1 0
52 *576:16 *2971:A1 4.77425e-05
53 *580:26 *3103:A1 0.000242062
54 *581:8 *818:10 0.000657561
55 *584:8 *3103:A1 0
56 *586:10 *3103:A1 0.000287757
57 *671:137 *3103:A1 1.54008e-05
58 *706:10 *3103:A1 0
59 *706:10 *818:14 0.000554076
60 *706:10 *818:20 0
61 *706:12 *3103:A1 0
62 *720:41 *818:10 0.000273098
63 *720:41 *818:82 0.0010191
64 *720:41 *818:116 0.000306964
65 *721:10 *3103:A1 0
66 *721:28 *3103:A1 0
67 *722:39 *2934:A1 0
68 *722:39 *2938:A1 0
69 *755:23 *818:10 0
70 *755:23 *818:82 0
71 *755:23 *818:116 0
72 *756:10 *3103:A1 0.000124547
73 *756:10 *818:20 0.000492961
74 *796:18 *818:116 0.000615942
75 *807:48 *2963:A1 0
*RES
1 *3365:X *818:10 45.6444 
2 *818:10 *818:14 24.3054 
3 *818:14 *818:20 22.987 
4 *818:20 *3103:A1 47.5293 
5 *818:20 *2971:A1 40.3193 
6 *818:14 *818:46 24.841 
7 *818:46 *2963:A1 41.6583 
8 *818:46 *2959:A1 40.3193 
9 *818:10 *2967:A1 40.3193 
10 *3365:X *818:82 26.8083 
11 *818:82 *818:86 21.8334 
12 *818:86 *2934:A1 45.9843 
13 *818:86 *2938:A1 40.7519 
14 *818:82 *818:116 46.5354 
15 *818:116 *2946:A1 20 
*END

*D_NET *819 0.0195942
*CONN
*I *3078:A1 I *D sg13g2_a21oi_1
*I *3070:A1 I *D sg13g2_a21oi_1
*I *3066:A1 I *D sg13g2_a21oi_1
*I *2930:A1 I *D sg13g2_a21oi_1
*I *2926:A1 I *D sg13g2_a21oi_1
*I *2942:A1 I *D sg13g2_a21oi_1
*I *2922:A1 I *D sg13g2_a21oi_1
*I *3365:A I *D sg13g2_buf_1
*I *3366:X O *D sg13g2_buf_1
*CAP
1 *3078:A1 5.04936e-05
2 *3070:A1 0.000434081
3 *3066:A1 0.00035912
4 *2930:A1 0
5 *2926:A1 0
6 *2942:A1 0
7 *2922:A1 0
8 *3365:A 0.00110985
9 *3366:X 0.000417072
10 *819:96 0.0020888
11 *819:94 0.00221898
12 *819:83 0.00157952
13 *819:68 2.66475e-05
14 *819:62 0.00135001
15 *819:58 0.000964899
16 *819:35 0.00047408
17 *819:16 0.0018536
18 *819:12 0.000592804
19 *819:8 0.000392027
20 *3066:A1 *3066:B1 8.02763e-05
21 *3070:A1 *3070:B1 0
22 *3078:A1 *3078:B1 0
23 *3365:A *855:82 0
24 *819:16 *855:82 0.000443366
25 *819:35 *885:76 0
26 *819:58 *2927:C 0
27 *819:58 *820:104 0.00027343
28 *819:58 *885:159 0.000558834
29 *819:96 *1173:21 0
30 *2922:B1 *819:35 0.000371059
31 *2926:A2 *819:68 4.77425e-05
32 *2926:B1 *819:68 1.54008e-05
33 *2926:B1 *819:83 0
34 *2930:B1 *819:94 0
35 *2945:A *819:12 0.000436603
36 *3054:A2 *3365:A 0
37 *3054:A2 *819:16 0
38 *3066:A2 *3066:A1 8.0216e-05
39 *3066:A2 *819:96 0
40 *3070:A2 *3070:A1 0.000663588
41 *3078:A2 *3078:A1 7.48257e-05
42 *3235:CLK *819:12 0
43 *3301:CLK *819:96 0.000584597
44 *304:10 *819:12 0
45 *304:10 *819:16 0
46 *546:80 *819:83 0
47 *546:86 *819:94 0
48 *546:127 *819:12 1.54008e-05
49 *547:8 *819:35 0
50 *551:8 *819:58 0
51 *553:14 *819:83 0.00050066
52 *646:10 *3365:A 0
53 *646:22 *819:94 0
54 *646:37 *819:94 7.51285e-05
55 *646:37 *819:96 2.20966e-05
56 *646:63 *819:94 0
57 *659:10 *3070:A1 0
58 *697:17 *819:35 0
59 *697:21 *819:35 0
60 *697:59 *819:35 0
61 *697:125 *819:68 0
62 *697:125 *819:83 0
63 *697:129 *819:94 0
64 *697:129 *819:96 0
65 *697:141 *819:94 0
66 *712:10 *819:96 0.00076662
67 *712:16 *819:96 0
68 *712:18 *819:96 0
69 *712:22 *3066:A1 0
70 *712:22 *819:96 0
71 *721:44 *3070:A1 0
72 *732:14 *819:12 0
73 *759:39 *819:35 0.000596195
74 *761:23 *819:62 0
75 *761:23 *819:83 0
76 *806:47 *819:58 7.61954e-05
*RES
1 *3366:X *819:8 40.5974 
2 *819:8 *819:12 23.3475 
3 *819:12 *819:16 23.3166 
4 *819:16 *3365:A 49.5687 
5 *819:16 *819:35 45.0882 
6 *819:35 *2922:A1 40 
7 *819:12 *2942:A1 20 
8 *3366:X *819:58 44.4084 
9 *819:58 *819:62 25.9431 
10 *819:62 *819:68 40.3193 
11 *819:68 *2926:A1 20 
12 *819:62 *819:83 46.4581 
13 *819:83 *2930:A1 20 
14 *819:83 *819:94 27.313 
15 *819:94 *819:96 12.2158 
16 *819:96 *3066:A1 42.6162 
17 *819:96 *3070:A1 44.429 
18 *819:94 *3078:A1 40.4995 
*END

*D_NET *820 0.0212806
*CONN
*I *3058:A1 I *D sg13g2_a21oi_1
*I *2950:A1 I *D sg13g2_a21oi_1
*I *3366:A I *D sg13g2_buf_1
*I *3054:A1 I *D sg13g2_a21oi_1
*I *2983:A1 I *D sg13g2_a21oi_1
*I *3115:A1 I *D sg13g2_a21oi_1
*I *3364:A I *D sg13g2_buf_1
*I *3363:A I *D sg13g2_buf_1
*I *3367:X O *D sg13g2_buf_1
*CAP
1 *3058:A1 0.000629492
2 *2950:A1 0
3 *3366:A 0
4 *3054:A1 0
5 *2983:A1 0
6 *3115:A1 0
7 *3364:A 0.000697567
8 *3363:A 0
9 *3367:X 0
10 *820:108 0.00156498
11 *820:104 0.00125181
12 *820:89 0.00100372
13 *820:66 0.00167676
14 *820:58 0.00210007
15 *820:47 0.00177563
16 *820:36 0.00156678
17 *820:21 0.00316873
18 *820:12 0.000362691
19 *820:4 0.00193199
20 *3364:A *866:35 0.000562351
21 *820:12 *1162:12 0
22 *820:21 *1164:10 0
23 *820:36 *3116:D 0
24 *820:36 *3317:RESET_B 1.54008e-05
25 *820:36 *891:51 0
26 *820:58 *889:58 0
27 *820:66 *2944:B1 0.000435878
28 *820:66 *3219:RESET_B 1.54008e-05
29 *820:66 *3289:RESET_B 0
30 *820:66 *3419:A 0.00024216
31 *820:66 *878:8 8.02105e-05
32 *820:89 *2944:B1 0
33 *820:104 *864:63 0.000338082
34 *2889:A2 *820:21 0
35 *2893:A2 *820:12 0
36 *2893:B1 *820:12 7.99455e-05
37 *2931:A *820:104 4.77425e-05
38 *2983:B1 *820:58 0
39 *3054:A2 *820:66 1.54008e-05
40 *3054:A2 *820:89 0.00017641
41 *3056:A2 *820:66 0
42 *3115:A2 *820:36 6.85503e-05
43 *3115:B1 *820:47 0
44 *3255:D *820:58 0
45 *3352:A *820:21 0
46 *352:16 *3364:A 0
47 *357:26 *820:36 0
48 *357:26 *820:58 0
49 *362:32 *820:66 0
50 *493:41 *820:12 0
51 *493:41 *820:21 0
52 *521:12 *820:12 0
53 *563:10 *820:89 7.57164e-05
54 *564:14 *820:89 0.00043664
55 *571:37 *820:36 0
56 *571:37 *820:47 4.7856e-05
57 *591:10 *820:36 0
58 *595:10 *820:58 0
59 *646:63 *3058:A1 0
60 *646:78 *3058:A1 7.3287e-05
61 *650:8 *3058:A1 0
62 *671:33 *3364:A 0.00029161
63 *693:10 *820:47 0.000144261
64 *697:75 *820:66 0
65 *729:33 *3058:A1 0
66 *732:14 *820:89 0
67 *758:10 *820:36 0
68 *758:32 *820:36 0
69 *758:32 *820:47 0
70 *758:32 *820:58 0
71 *759:10 *820:58 0
72 *761:23 *820:108 0
73 *762:31 *820:108 0
74 *799:18 *3058:A1 0
75 *803:8 *3364:A 0.000130055
76 *806:34 *820:66 0
77 *806:34 *820:89 0
78 *806:47 *820:89 0
79 *806:47 *820:104 0
80 *806:49 *820:104 0
81 *816:36 *820:12 0
82 *817:10 *3364:A 0
83 *819:58 *820:104 0.00027343
*RES
1 *3367:X *820:4 20 
2 *820:4 *820:12 43.2033 
3 *820:12 *3363:A 20 
4 *820:4 *820:21 34.1934 
5 *820:21 *3364:A 47.5305 
6 *820:21 *820:36 25.2688 
7 *820:36 *3115:A1 20 
8 *820:36 *820:47 6.18 
9 *820:47 *2983:A1 20 
10 *820:47 *820:58 30.5884 
11 *820:58 *820:66 30.4716 
12 *820:66 *3054:A1 20 
13 *820:66 *820:89 47.3027 
14 *820:89 *3366:A 20 
15 *820:89 *820:104 43.5844 
16 *820:104 *820:108 30.7017 
17 *820:108 *2950:A1 40 
18 *820:108 *3058:A1 46.0358 
*END

*D_NET *821 0.0230312
*CONN
*I *3037:A1 I *D sg13g2_a21oi_1
*I *3025:A1 I *D sg13g2_a21oi_1
*I *3021:A1 I *D sg13g2_a21oi_1
*I *2901:A1 I *D sg13g2_a21oi_1
*I *3045:A1 I *D sg13g2_a21oi_1
*I *2913:A1 I *D sg13g2_a21oi_1
*I *3029:A1 I *D sg13g2_a21oi_1
*I *3033:A1 I *D sg13g2_a21oi_1
*I *3368:X O *D sg13g2_buf_1
*CAP
1 *3037:A1 0.000347495
2 *3025:A1 2.4077e-05
3 *3021:A1 0
4 *2901:A1 0.000354049
5 *3045:A1 0.000296675
6 *2913:A1 0.000852375
7 *3029:A1 0
8 *3033:A1 2.82366e-05
9 *3368:X 0.000483346
10 *821:88 0.0017194
11 *821:82 0.00211131
12 *821:42 0.00232715
13 *821:33 0.00139795
14 *821:27 0.00108116
15 *821:25 0.000791919
16 *821:21 0.00118306
17 *821:12 0.000211308
18 *821:10 0.000483346
19 *2901:A1 *1104:10 0
20 *2913:A1 *883:86 7.97988e-05
21 *2913:A1 *895:19 0
22 *3037:A1 *2697:A 0
23 *3045:A1 *3045:B1 0
24 *3045:A1 *895:42 0
25 *821:10 *2696:A 0.00027377
26 *821:10 *1152:14 0
27 *821:10 *1180:12 0.000668652
28 *821:21 *2697:A 0
29 *821:25 *3039:B1 0.00018112
30 *821:25 *895:73 0.000161447
31 *821:25 *1097:8 0.000232657
32 *821:33 *1179:12 0.00044976
33 *821:42 *2906:C 0
34 *821:42 *868:82 0
35 *821:42 *886:52 0
36 *821:42 *894:57 0.000436161
37 *821:82 *2688:A 0
38 *821:82 *2689:A 0
39 *821:82 *2690:A 1.54118e-05
40 *821:82 *1089:12 0
41 *821:82 *1096:14 0
42 *821:88 *2694:A 0
43 *821:88 *3273:D 0.000144403
44 *821:88 *1023:32 0.00166293
45 *821:88 *1089:12 0
46 *821:88 *1112:16 0
47 *821:88 *1133:8 0
48 *821:88 *1165:18 0
49 *2901:A2 *2901:A1 1.54008e-05
50 *2904:A *2901:A1 0.000368257
51 *3021:A2 *821:82 0.000290066
52 *3021:A2 *821:88 1.54556e-05
53 *3040:A *3037:A1 0
54 *3045:A2 *3045:A1 8.03692e-05
55 *3372:A *821:10 0
56 *3503:A *821:82 4.77425e-05
57 *3505:A *821:10 0
58 *3512:A *821:42 0
59 *3513:A *821:42 0
60 *297:10 *2913:A1 0
61 *323:12 *821:88 0
62 *324:8 *821:27 7.62389e-05
63 *324:8 *821:33 0.000719504
64 *329:8 *2913:A1 0.00039332
65 *329:8 *3045:A1 0.000182121
66 *358:8 *821:88 0
67 *366:16 *821:82 7.93152e-05
68 *371:10 *821:88 0
69 *374:18 *3037:A1 0.000210026
70 *492:16 *821:10 0
71 *521:83 *2913:A1 0
72 *621:14 *821:42 4.77425e-05
73 *621:20 *821:42 1.54008e-05
74 *621:44 *821:25 0
75 *621:54 *3033:A1 4.77425e-05
76 *621:54 *821:10 7.62389e-05
77 *621:54 *821:21 0.000192433
78 *621:61 *3037:A1 0.000550773
79 *621:61 *821:21 0.000112558
80 *621:82 *3037:A1 1.54556e-05
81 *640:8 *3045:A1 0
82 *697:202 *821:42 0
83 *708:8 *3045:A1 0
84 *708:8 *821:42 0
85 *743:14 *2913:A1 0
86 *764:38 *821:10 8.02379e-05
87 *809:20 *821:88 0.0014158
88 *809:30 *821:88 0
89 *810:10 *2913:A1 0
90 *811:20 *3033:A1 0
91 *811:20 *821:21 0
92 *811:39 *821:25 0
*RES
1 *3368:X *821:10 45.8875 
2 *821:10 *821:12 20 
3 *821:12 *3033:A1 20.3193 
4 *821:12 *821:21 1.8334 
5 *821:21 *821:25 26.5302 
6 *821:25 *821:27 1.0918 
7 *821:27 *821:33 23.6359 
8 *821:33 *3029:A1 20 
9 *821:33 *821:42 31.1343 
10 *821:42 *2913:A1 49.1155 
11 *821:42 *3045:A1 43.0179 
12 *821:27 *821:82 27.3027 
13 *821:82 *821:88 37.0465 
14 *821:88 *2901:A1 43.3475 
15 *821:82 *3021:A1 20 
16 *821:25 *3025:A1 40.3193 
17 *821:21 *3037:A1 23.7801 
*END

*D_NET *822 0.0166494
*CONN
*I *2864:A1 I *D sg13g2_a21oi_1
*I *2872:A1 I *D sg13g2_a21oi_1
*I *2860:A1 I *D sg13g2_a21oi_1
*I *2880:A1 I *D sg13g2_a21oi_1
*I *2856:A1 I *D sg13g2_a21oi_1
*I *2868:A1 I *D sg13g2_a21oi_1
*I *2884:A1 I *D sg13g2_a21oi_1
*I *3062:A1 I *D sg13g2_a21oi_1
*I *3369:X O *D sg13g2_buf_1
*CAP
1 *2864:A1 0
2 *2872:A1 0
3 *2860:A1 0
4 *2880:A1 0
5 *2856:A1 0
6 *2868:A1 0.000778429
7 *2884:A1 0
8 *3062:A1 0.00025495
9 *3369:X 0.000109594
10 *822:102 0.000682604
11 *822:87 0.00156269
12 *822:72 0.00132996
13 *822:50 0.000817189
14 *822:36 0.00108878
15 *822:26 0.00105194
16 *822:22 0.000694425
17 *822:14 0.00162722
18 *822:8 0.000849386
19 *2868:A1 *861:74 8.02102e-05
20 *2868:A1 *898:73 0
21 *3062:A1 *3062:B1 0
22 *822:14 *2855:A 0
23 *822:14 *2855:B 0
24 *822:22 *888:18 0
25 *822:22 *898:84 0
26 *822:36 *3207:RESET_B 0.000272135
27 *822:36 *888:18 0
28 *822:87 *824:46 0
29 *822:87 *1178:31 0
30 *822:102 *1174:56 0
31 *822:102 *1174:68 0.00017663
32 *822:102 *1178:31 0.000242236
33 *2856:B1 *822:26 7.53965e-05
34 *2856:B1 *822:50 0
35 *2860:B1 *822:102 0
36 *2863:A *822:87 0
37 *2864:A2 *822:8 0
38 *2864:A2 *822:14 0
39 *2864:B1 *822:14 0.000209807
40 *2872:A2 *822:102 0
41 *2880:B1 *822:87 0
42 *2884:A2 *822:22 7.51285e-05
43 *2884:A2 *822:26 0.00024211
44 *2887:A *822:26 0
45 *3065:B *3062:A1 0
46 *3065:B *822:36 0
47 *3195:CLK *822:102 0.000296822
48 *3197:CLK *822:14 0.00017694
49 *3205:CLK *822:72 1.54008e-05
50 *3205:CLK *822:87 0.000258221
51 *3337:A *822:14 0
52 *496:10 *822:14 0
53 *496:12 *822:22 0.00113867
54 *496:27 *822:22 4.78356e-05
55 *496:27 *822:50 6.49083e-05
56 *496:37 *2868:A1 0.000354536
57 *496:37 *822:50 1.54008e-05
58 *496:53 *822:72 0.000724638
59 *496:53 *822:87 1.54008e-05
60 *496:68 *822:87 0.000435533
61 *496:68 *822:102 1.54008e-05
62 *496:83 *822:102 6.49083e-05
63 *520:16 *822:26 0
64 *646:96 *3062:A1 1.53662e-05
65 *697:202 *822:14 0
66 *697:234 *822:72 0
67 *710:36 *822:26 0
68 *710:36 *822:50 0
69 *711:39 *822:14 0
70 *711:39 *822:72 0.000788601
71 *745:12 *822:36 0
72 *746:25 *822:102 0
73 *747:36 *3062:A1 0
74 *747:36 *822:36 0
75 *748:23 *3062:A1 0
76 *766:36 *822:87 0
77 *798:24 *822:102 0
78 *814:20 *2868:A1 0
79 *814:35 *822:36 0
*RES
1 *3369:X *822:8 21.3802 
2 *822:8 *822:14 7.2924 
3 *822:14 *822:22 46.077 
4 *822:22 *822:26 2.678 
5 *822:26 *822:36 48.2194 
6 *822:36 *3062:A1 22.6986 
7 *822:26 *2884:A1 20 
8 *822:22 *822:50 0.5356 
9 *822:50 *2868:A1 27.8704 
10 *822:50 *2856:A1 20 
11 *822:14 *822:72 5.2942 
12 *822:72 *2880:A1 20 
13 *822:72 *822:87 49.0846 
14 *822:87 *2860:A1 20 
15 *822:87 *822:102 46.9216 
16 *822:102 *2872:A1 20 
17 *822:8 *2864:A1 20 
*END

*D_NET *823 0.0141856
*CONN
*I *2992:A1 I *D sg13g2_a21oi_1
*I *2876:A1 I *D sg13g2_a21oi_1
*I *3004:A1 I *D sg13g2_a21oi_1
*I *3016:A1 I *D sg13g2_a21oi_1
*I *3008:A1 I *D sg13g2_a21oi_1
*I *2988:A1 I *D sg13g2_a21oi_1
*I *2996:A1 I *D sg13g2_a21oi_1
*I *3000:A1 I *D sg13g2_a21oi_1
*I *3370:X O *D sg13g2_buf_1
*CAP
1 *2992:A1 3.34037e-05
2 *2876:A1 0.000845038
3 *3004:A1 5.61002e-05
4 *3016:A1 0
5 *3008:A1 0.000212234
6 *2988:A1 0
7 *2996:A1 0
8 *3000:A1 4.77492e-05
9 *3370:X 0.000663281
10 *823:91 0.00153435
11 *823:78 0.00154489
12 *823:61 0.00111025
13 *823:43 0.00110431
14 *823:37 0.00131654
15 *823:35 0.000835661
16 *823:21 0.000241147
17 *823:6 0.000393885
18 *2876:A1 *1179:32 0
19 *2876:A1 *1187:43 0
20 *2992:A1 *1188:12 0
21 *3000:A1 *3000:B1 0
22 *3004:A1 *3004:B1 8.00842e-05
23 *3008:A1 *1180:33 0.000242072
24 *823:21 *3000:B1 0.000126358
25 *823:21 *1189:20 0
26 *823:35 *3370:A 1.54008e-05
27 *823:35 *824:21 0.000177164
28 *823:35 *897:16 0
29 *823:35 *897:20 0
30 *823:43 *3013:B 0
31 *823:43 *897:8 0
32 *823:43 *898:84 0
33 *823:43 *1192:26 0
34 *823:61 *3014:B1 0
35 *823:61 *897:16 0
36 *823:78 *3012:A1 0.00014446
37 *823:78 *1180:37 1.54008e-05
38 *823:78 *1191:8 0
39 *823:91 *3004:B1 0.000161763
40 *823:91 *3265:RESET_B 4.78028e-05
41 *823:91 *908:87 0
42 *823:91 *1191:8 0
43 *823:91 *1191:20 0
44 *2876:B1 *2876:A1 0
45 *2879:A *2876:A1 0
46 *2988:A2 *823:43 4.78192e-05
47 *2992:A2 *2992:A1 1.54556e-05
48 *2996:A2 *823:6 0
49 *2996:A2 *823:21 8.02105e-05
50 *3000:A2 *3000:A1 8.01116e-05
51 *3000:A2 *823:6 7.97045e-05
52 *3010:A1 *823:6 0
53 *3012:B1 *823:78 8.01447e-05
54 *3015:A *823:78 0
55 *3019:A *823:61 0
56 *3019:B *823:35 0.000177164
57 *3019:B *823:61 4.78359e-05
58 *3259:D *2992:A1 0
59 *319:10 *823:91 0.000179315
60 *373:30 *823:43 0
61 *496:91 *2876:A1 0.000338601
62 *511:8 *2876:A1 0.000341621
63 *516:8 *823:43 0.000649435
64 *596:46 *823:21 0
65 *596:55 *3008:A1 1.54556e-05
66 *596:55 *823:6 9.69532e-05
67 *596:55 *823:35 0
68 *596:62 *3008:A1 0.000242072
69 *596:62 *823:35 0
70 *596:62 *823:61 0
71 *596:62 *823:78 0
72 *596:71 *823:78 0
73 *596:82 *823:78 0
74 *597:12 *823:43 0
75 *599:10 *823:43 0.000229065
76 *602:16 *2992:A1 1.54556e-05
77 *602:16 *823:91 0.000183978
78 *616:10 *823:43 0
79 *619:10 *823:43 0
80 *620:8 *823:43 0
81 *697:248 *823:43 0
82 *719:8 *3008:A1 0
83 *719:8 *823:43 0
84 *719:12 *823:61 0
85 *719:12 *823:78 0
86 *719:27 *823:78 0
87 *719:37 *823:78 0
88 *719:37 *823:91 0
89 *795:26 *2876:A1 0
90 *795:26 *823:78 0.000335861
91 *797:39 *2876:A1 0
92 *797:39 *823:91 0
*RES
1 *3370:X *823:6 21.1845 
2 *823:6 *3000:A1 20.5356 
3 *823:6 *823:21 42.1218 
4 *823:21 *2996:A1 20 
5 *3370:X *823:35 25.4281 
6 *823:35 *823:37 20 
7 *823:37 *823:43 31.2991 
8 *823:43 *2988:A1 20 
9 *823:37 *3008:A1 42.4617 
10 *823:35 *823:61 2.44625 
11 *823:61 *3016:A1 20 
12 *823:61 *823:78 48.2349 
13 *823:78 *3004:A1 20.5356 
14 *823:78 *823:91 27.3439 
15 *823:91 *2876:A1 49.5687 
16 *823:91 *2992:A1 40.3193 
*END

*D_NET *824 0.0255705
*CONN
*I *3012:A1 I *D sg13g2_a21oi_1
*I *3082:A1 I *D sg13g2_a21oi_1
*I *3074:A1 I *D sg13g2_a21oi_1
*I *3369:A I *D sg13g2_buf_1
*I *3370:A I *D sg13g2_buf_1
*I *3371:X O *D sg13g2_buf_1
*CAP
1 *3012:A1 0.000219702
2 *3082:A1 0
3 *3074:A1 0
4 *3369:A 0.000615232
5 *3370:A 7.48699e-05
6 *3371:X 9.48016e-05
7 *824:88 0.000981753
8 *824:75 0.000645156
9 *824:58 0.000893117
10 *824:54 0.000628623
11 *824:46 0.00226996
12 *824:25 0.00391397
13 *824:21 0.00227777
14 *824:10 0.00018114
15 *824:8 9.48016e-05
16 *3369:A *2855:B 4.74145e-05
17 *3369:A *1178:31 0.000371614
18 *824:8 *825:59 0
19 *824:25 *2878:B1 0.000316541
20 *824:25 *3002:B1 0.000286284
21 *824:25 *3010:B1 0.000178206
22 *824:25 *825:59 0
23 *824:25 *887:42 0
24 *824:25 *887:87 0
25 *824:25 *896:31 0.000181192
26 *824:25 *896:93 0.000370634
27 *824:46 *3205:RESET_B 0.000338306
28 *824:46 *1178:31 0
29 *824:54 *3084:B1 0.000240669
30 *824:88 *3008:B1 0
31 *824:88 *825:59 0
32 *824:88 *1180:33 0
33 *824:88 *1190:25 0.00108365
34 *2855:C *3369:A 0.000241979
35 *2864:A2 *3369:A 0.000307227
36 *2883:B *824:46 0
37 *2990:A1 *824:25 0.000497964
38 *3010:A1 *3370:A 0
39 *3010:A2 *824:21 0
40 *3011:A *824:88 0
41 *3077:A *824:58 0
42 *3084:A2 *824:54 0.000240669
43 *3271:D *824:88 0.000242039
44 *3337:A *824:46 0
45 *289:10 *824:46 0
46 *320:10 *824:88 0.00024222
47 *336:8 *824:54 0
48 *372:20 *824:25 0
49 *496:10 *3369:A 0
50 *496:10 *824:46 0
51 *496:68 *824:46 0
52 *520:16 *824:25 0
53 *596:55 *3370:A 0
54 *596:71 *3012:A1 0.00014446
55 *614:8 *824:25 0.000178807
56 *614:8 *824:88 0.000392348
57 *646:78 *824:75 0.000392046
58 *646:109 *824:54 0
59 *646:109 *824:58 7.97219e-05
60 *646:109 *824:75 1.53311e-05
61 *697:234 *824:46 0
62 *711:10 *824:25 0
63 *711:64 *824:25 0
64 *718:8 *3012:A1 0
65 *744:35 *824:58 0
66 *744:35 *824:75 0
67 *744:47 *824:75 8.00842e-05
68 *745:28 *824:75 0
69 *766:36 *3012:A1 0.000340704
70 *795:26 *824:46 0.00270215
71 *795:26 *824:54 0
72 *796:26 *824:46 0.00270215
73 *812:54 *824:25 0.00012816
74 *814:64 *824:54 0
75 *822:87 *824:46 0
76 *823:35 *3370:A 1.54008e-05
77 *823:35 *824:21 0.000177164
78 *823:78 *3012:A1 0.00014446
*RES
1 *3371:X *824:8 41.0918 
2 *824:8 *824:10 20 
3 *824:10 *3370:A 20.7519 
4 *824:10 *824:21 21.1845 
5 *824:21 *824:25 34.6878 
6 *824:25 *3369:A 26.6332 
7 *824:25 *824:46 44.4625 
8 *824:46 *824:54 43.6977 
9 *824:54 *824:58 22.4823 
10 *824:58 *3074:A1 20 
11 *824:58 *824:75 47.2718 
12 *824:75 *3082:A1 20 
13 *824:21 *824:88 49.3215 
14 *824:88 *3012:A1 42.5544 
*END

*D_NET *825 0.0119788
*CONN
*I *3049:A1 I *D sg13g2_a21oi_1
*I *3371:A I *D sg13g2_buf_1
*I *3041:A1 I *D sg13g2_a21oi_1
*I *3368:A I *D sg13g2_buf_1
*I *3372:X O *D sg13g2_buf_1
*CAP
1 *3049:A1 0.000151379
2 *3371:A 0
3 *3041:A1 8.42737e-05
4 *3368:A 0
5 *3372:X 0.00162373
6 *825:59 0.000853915
7 *825:53 0.00218355
8 *825:38 0.00147624
9 *825:34 0.00132247
10 *825:10 0.000514968
11 *3041:A1 *3041:B1 7.51285e-05
12 *825:10 *3279:RESET_B 0.000305904
13 *825:10 *895:73 0.000500211
14 *825:34 *2697:A 0
15 *825:38 *3041:B1 0.000234224
16 *825:53 *3041:B1 4.77425e-05
17 *825:53 *869:29 0
18 *825:59 *3000:B1 0
19 *825:59 *3010:B1 0
20 *825:59 *875:19 0.000318935
21 *825:59 *875:25 7.52158e-05
22 *3040:A *825:34 0.000339591
23 *3049:A2 *3049:A1 0.00017663
24 *3052:A *3049:A1 0
25 *3052:A *825:34 0.000339623
26 *3372:A *825:10 0
27 *326:8 *825:10 0.000237686
28 *328:10 *3041:A1 0.00018128
29 *328:10 *825:38 5.33604e-05
30 *373:22 *3049:A1 0
31 *373:22 *825:34 0.000663548
32 *374:18 *825:34 0
33 *374:18 *825:53 0
34 *374:26 *825:59 0
35 *377:10 *3041:A1 4.77425e-05
36 *377:10 *825:53 0
37 *596:33 *825:59 0
38 *596:46 *825:59 0
39 *613:8 *825:59 0
40 *621:91 *3041:A1 4.78195e-05
41 *639:10 *825:34 4.74145e-05
42 *697:218 *825:38 0
43 *764:38 *825:10 7.61961e-05
44 *814:10 *825:59 0
45 *814:20 *825:59 0
46 *824:8 *825:59 0
47 *824:25 *825:59 0
48 *824:88 *825:59 0
*RES
1 *3372:X *825:10 45.4281 
2 *825:10 *3368:A 40 
3 *3372:X *825:34 32.36 
4 *825:34 *825:38 21.0918 
5 *825:38 *3041:A1 41.1639 
6 *825:38 *825:53 31.3506 
7 *825:53 *825:59 48.0134 
8 *825:59 *3371:A 20 
9 *825:34 *3049:A1 21.6171 
*END

*D_NET *826 0.00941205
*CONN
*I *2759:B2 I *D sg13g2_a22oi_1
*I *3562:X O *D sg13g2_buf_1
*CAP
1 *2759:B2 0
2 *3562:X 5.2728e-05
3 *826:20 0.00032376
4 *826:14 0.00220701
5 *826:8 0.00193597
6 *826:8 *3562:A 0
7 *826:14 *3561:A 0.000749334
8 *826:14 *845:12 0.00054275
9 *826:14 *845:25 0
10 *826:14 *845:39 0.00107738
11 *826:14 *851:20 0.000275572
12 *826:14 *893:16 0.000649209
13 *826:14 *934:18 2.14736e-05
14 *826:20 *2759:B1 0
15 *826:20 *2759:A2 4.77425e-05
16 *826:20 *3149:D 0
17 *826:20 *848:55 0
18 *2773:A1 *826:14 0.000706762
19 *2773:A1 *826:20 0
20 *255:10 *826:14 0.000130017
21 *415:8 *826:14 0
22 *422:10 *826:20 0
23 *425:8 *826:20 0.00033743
24 *428:10 *826:8 7.93334e-05
25 *433:10 *826:14 0
26 *435:10 *826:20 0
27 *760:14 *826:14 0
28 *762:31 *826:14 0.000275572
29 *804:12 *826:14 0
*RES
1 *3562:X *826:8 40.5356 
2 *826:8 *826:14 40.4764 
3 *826:14 *826:20 43.1312 
4 *826:20 *2759:B2 20 
*END

*D_NET *827 0.0101122
*CONN
*I *2827:B2 I *D sg13g2_a22oi_1
*I *3563:X O *D sg13g2_buf_1
*CAP
1 *2827:B2 0
2 *3563:X 0.000480096
3 *827:24 0
4 *827:20 0.00208646
5 *827:12 0.00256656
6 *827:12 *849:8 0
7 *827:20 *840:88 0
8 *827:20 *849:8 0
9 *827:20 *852:83 0
10 *827:20 *852:93 0
11 *827:20 *854:30 0
12 *827:20 *909:24 0.000217634
13 *2806:A1 *827:12 0.000143358
14 *391:37 *827:20 0
15 *419:16 *827:20 7.34778e-05
16 *440:10 *827:20 0
17 *449:8 *827:20 0.000659239
18 *716:16 *827:20 0.00265772
19 *723:62 *827:12 2.14736e-05
20 *723:62 *827:20 0
21 *731:46 *827:12 0
22 *731:46 *827:20 0
23 *733:31 *827:12 0.000234772
24 *740:52 *827:12 0.000971397
25 *758:46 *827:12 0
26 *804:12 *827:20 0
*RES
1 *3563:X *827:12 46.3036 
2 *827:12 *827:20 43.9784 
3 *827:20 *827:24 40 
4 *827:24 *2827:B2 20 
*END

*D_NET *828 0.0164118
*CONN
*I *2766:B1 I *D sg13g2_a21oi_1
*I *2738:B1 I *D sg13g2_a21oi_1
*I *2722:B1 I *D sg13g2_a21oi_1
*I *2718:B1 I *D sg13g2_a21oi_1
*I *2726:B1 I *D sg13g2_a21oi_1
*I *2734:B1 I *D sg13g2_a21oi_1
*I *2762:B1 I *D sg13g2_a21oi_1
*I *2774:B1 I *D sg13g2_a21oi_1
*I *3373:X O *D sg13g2_buf_1
*CAP
1 *2766:B1 0.000677639
2 *2738:B1 0.000275653
3 *2722:B1 0
4 *2718:B1 8.65453e-05
5 *2726:B1 0
6 *2734:B1 2.65311e-05
7 *2762:B1 0.000129834
8 *2774:B1 5.42718e-05
9 *3373:X 0.000239795
10 *828:99 0.00051932
11 *828:80 0.000756607
12 *828:74 0.000907861
13 *828:59 0.00154381
14 *828:48 0.00127558
15 *828:31 0.00107368
16 *828:27 0.00142176
17 *828:25 0.00147999
18 *828:12 0.000192011
19 *828:10 0.000239795
20 *2718:B1 *3574:A 0
21 *2734:B1 *909:66 4.78028e-05
22 *2738:B1 *2738:A2 0
23 *2738:B1 *833:25 0.000209966
24 *2738:B1 *834:49 0
25 *2738:B1 *899:21 0
26 *2738:B1 *1181:43 0
27 *2766:B1 *2766:A1 0.000208225
28 *2766:B1 *2766:A2 0
29 *2766:B1 *839:14 0
30 *2774:B1 *2774:A2 0
31 *2774:B1 *839:14 1.54008e-05
32 *828:10 *903:27 0
33 *828:10 *1172:49 7.51285e-05
34 *828:25 *839:14 6.43037e-05
35 *828:25 *1172:49 0
36 *828:27 *839:25 0
37 *828:27 *839:29 0
38 *828:27 *903:27 0
39 *828:31 *839:29 0
40 *828:31 *903:14 0
41 *828:31 *903:27 0
42 *828:48 *839:44 0.000232389
43 *828:48 *903:14 0.000144768
44 *828:59 *839:59 0
45 *828:59 *909:66 0.000758609
46 *828:80 *912:16 0
47 *828:99 *3574:A 0
48 *828:99 *839:87 0.000287256
49 *828:99 *860:18 0.000714419
50 *828:99 *1059:10 0
51 *2734:A1 *828:48 0
52 *3448:A *828:99 8.01776e-05
53 *250:12 *828:59 0
54 *250:12 *828:74 0
55 *397:14 *828:99 0
56 *400:10 *828:74 4.76053e-05
57 *407:20 *828:59 0
58 *427:8 *828:31 0.00012816
59 *428:10 *2762:B1 0.000144179
60 *428:10 *828:48 0.000241244
61 *699:67 *2718:B1 0.000140153
62 *699:67 *828:99 0.000208142
63 *721:71 *828:48 0
64 *728:10 *828:74 4.84528e-05
65 *728:14 *828:74 0.000177481
66 *733:31 *2774:B1 4.77425e-05
67 *733:31 *828:10 0
68 *733:31 *828:25 0
69 *740:36 *2734:B1 0
70 *740:36 *828:59 0
71 *740:67 *828:74 0
72 *749:20 *828:80 0.000339072
73 *752:21 *828:74 0
74 *757:41 *828:31 7.34778e-05
75 *758:46 *828:10 0.000177164
76 *766:16 *2762:B1 0
77 *766:16 *828:48 0
78 *768:32 *2738:B1 0
79 *778:10 *828:99 0
80 *778:14 *828:74 0.000474411
81 *778:16 *828:74 0.000377598
82 *790:10 *828:59 4.78356e-05
83 *794:27 *2766:B1 0
*RES
1 *3373:X *828:10 42.2763 
2 *828:10 *828:12 20 
3 *828:12 *2774:B1 20.5356 
4 *828:12 *828:25 21.3802 
5 *828:25 *828:27 5.5414 
6 *828:27 *828:31 24.3054 
7 *828:31 *2762:B1 21.3184 
8 *828:31 *828:48 44.4393 
9 *828:48 *2734:B1 20.3193 
10 *828:48 *828:59 8.0237 
11 *828:59 *2726:B1 20 
12 *828:59 *828:74 47.7868 
13 *828:74 *828:80 41.5862 
14 *828:80 *2718:B1 20.9399 
15 *828:80 *828:99 46.5302 
16 *828:99 *2722:B1 20 
17 *828:27 *2738:B1 42.6986 
18 *828:25 *2766:B1 45.6444 
*END

*D_NET *829 0.00633518
*CONN
*I *2806:B1 I *D sg13g2_a21oi_1
*I *2770:B1 I *D sg13g2_a21oi_1
*I *2746:B1 I *D sg13g2_a21oi_1
*I *2730:B1 I *D sg13g2_a21oi_1
*I *3374:X O *D sg13g2_buf_1
*CAP
1 *2806:B1 0
2 *2770:B1 2.36489e-05
3 *2746:B1 0
4 *2730:B1 0.000226455
5 *3374:X 0.000241487
6 *829:41 9.53918e-05
7 *829:35 0.000374991
8 *829:20 0.00072232
9 *829:14 0.000296551
10 *829:10 0.000298124
11 *2730:B1 *2730:A2 0
12 *2730:B1 *844:10 4.72458e-05
13 *2730:B1 *844:77 0
14 *2730:B1 *1058:22 0
15 *829:10 *1032:18 0.000596637
16 *829:10 *1065:24 0.000176274
17 *829:14 *901:85 8.00842e-05
18 *829:20 *845:25 0
19 *829:20 *845:31 0
20 *829:20 *1032:18 0.000809879
21 *829:35 *2770:A1 1.54008e-05
22 *829:35 *2770:A2 7.9706e-05
23 *829:35 *3388:A 4.77425e-05
24 *829:35 *845:31 0.000143666
25 *829:35 *1058:22 0
26 *829:41 *1078:14 0
27 *829:41 *1149:14 0.00023464
28 *3389:A *829:10 0.000176274
29 *716:10 *2730:B1 0
30 *720:41 *2730:B1 1.54008e-05
31 *720:54 *2730:B1 6.4711e-05
32 *760:14 *829:20 0.000971913
33 *804:12 *829:10 0.000596637
*RES
1 *3374:X *829:10 44.0067 
2 *829:10 *829:14 20.5356 
3 *829:14 *829:20 44.5526 
4 *829:20 *2730:B1 22.1836 
5 *829:20 *829:35 2.7192 
6 *829:35 *829:41 41.0918 
7 *829:41 *2746:B1 20 
8 *829:35 *2770:B1 20.3502 
9 *829:14 *2806:B1 20 
*END

*D_NET *830 0.0142722
*CONN
*I *2754:B1 I *D sg13g2_a21oi_1
*I *2750:B1 I *D sg13g2_a21oi_1
*I *3374:A I *D sg13g2_buf_1
*I *2834:B1 I *D sg13g2_a21oi_1
*I *2830:B1 I *D sg13g2_a21oi_1
*I *2742:B1 I *D sg13g2_a21oi_1
*I *3373:A I *D sg13g2_buf_1
*I *3375:X O *D sg13g2_buf_1
*CAP
1 *2754:B1 0.000380344
2 *2750:B1 0.000317632
3 *3374:A 0
4 *2834:B1 0.000531876
5 *2830:B1 1.58707e-05
6 *2742:B1 0
7 *3373:A 0.000350578
8 *3375:X 2.98188e-05
9 *830:54 0.000268341
10 *830:46 0.00081591
11 *830:42 0.000198058
12 *830:35 9.84463e-05
13 *830:29 0.00114955
14 *830:14 0.0015136
15 *830:12 0.00106716
16 *830:8 0.000881283
17 *2750:B1 *2772:B1 0
18 *2750:B1 *834:93 0
19 *2754:B1 *2754:A2 0.000287447
20 *2754:B1 *840:10 0
21 *2830:B1 *2830:A1 0
22 *2834:B1 *2834:A1 0
23 *2834:B1 *848:55 1.54008e-05
24 *3373:A *834:41 0
25 *3373:A *840:14 0.000181608
26 *830:12 *840:10 0.000897136
27 *830:12 *840:14 0.00023464
28 *830:14 *840:14 0.00118762
29 *830:29 *840:26 0
30 *830:29 *1065:24 0.000207854
31 *830:35 *1032:18 0.000442627
32 *830:42 *1065:24 0.000290167
33 *830:54 *1065:16 0
34 *2757:A2 *830:12 0
35 *2773:A1 *2834:B1 0
36 *3349:A *830:29 0
37 *3649:A *830:29 0
38 *79:12 *2834:B1 0.00023024
39 *79:12 *830:29 0
40 *95:12 *830:54 0
41 *97:10 *2834:B1 0.000126275
42 *97:20 *2834:B1 0
43 *413:16 *2830:B1 2.43244e-05
44 *413:16 *830:29 0.000143639
45 *413:16 *830:42 0.00030564
46 *418:10 *2750:B1 0.000305362
47 *418:10 *830:12 5.30319e-05
48 *418:10 *830:14 0.000761932
49 *455:20 *2754:B1 0
50 *478:18 *2834:B1 0
51 *481:16 *2834:B1 4.77425e-05
52 *700:20 *3373:A 0
53 *700:20 *830:29 0
54 *700:65 *2750:B1 0
55 *721:71 *830:12 0
56 *721:71 *830:14 0
57 *723:54 *830:29 0
58 *723:70 *2834:B1 0.000105753
59 *723:70 *830:46 7.51285e-05
60 *723:81 *830:54 0
61 *735:55 *2754:B1 0
62 *735:55 *830:12 0
63 *735:59 *830:8 0
64 *741:32 *830:8 4.76068e-05
65 *744:47 *2754:B1 0
66 *752:43 *830:54 0
67 *756:53 *830:54 0
68 *757:77 *830:54 0
69 *758:46 *3373:A 0.000241325
70 *759:71 *2834:B1 0
71 *759:71 *830:46 0
72 *760:14 *830:35 0.000441259
73 *769:27 *3373:A 0
74 *798:22 *830:54 0
*RES
1 *3375:X *830:8 40.3193 
2 *830:8 *830:12 5.6135 
3 *830:12 *830:14 5.5414 
4 *830:14 *3373:A 43.4505 
5 *830:14 *830:29 28.2256 
6 *830:29 *830:35 42.0806 
7 *830:35 *2742:B1 20 
8 *830:29 *830:42 2.0497 
9 *830:42 *830:46 20.3502 
10 *830:46 *830:54 42.1913 
11 *830:54 *2830:B1 40.1622 
12 *830:46 *2834:B1 45.3251 
13 *830:42 *3374:A 20 
14 *830:12 *2750:B1 43.0488 
15 *830:8 *2754:B1 43.5123 
*END

*D_NET *831 0.0188963
*CONN
*I *2794:B1 I *D sg13g2_a21oi_1
*I *2810:B1 I *D sg13g2_a21oi_1
*I *2798:B1 I *D sg13g2_a21oi_1
*I *2822:B1 I *D sg13g2_a21oi_1
*I *2814:B1 I *D sg13g2_a21oi_1
*I *2786:B1 I *D sg13g2_a21oi_1
*I *2782:B1 I *D sg13g2_a21oi_1
*I *2802:B1 I *D sg13g2_a21oi_1
*I *3376:X O *D sg13g2_buf_1
*CAP
1 *2794:B1 0.000277075
2 *2810:B1 7.63264e-05
3 *2798:B1 0.000465405
4 *2822:B1 0.000422256
5 *2814:B1 0
6 *2786:B1 0
7 *2782:B1 0
8 *2802:B1 0
9 *3376:X 2.56607e-05
10 *831:97 0.000726359
11 *831:81 0.000573463
12 *831:65 0.0013304
13 *831:56 0.000158761
14 *831:43 0.000269452
15 *831:33 0.00158278
16 *831:23 0.00183771
17 *831:21 0.000627171
18 *831:12 0.000793482
19 *831:6 0.00100214
20 *2794:B1 *3376:A 0.000112683
21 *2794:B1 *1180:37 3.72159e-05
22 *2794:B1 *1180:60 0.00011253
23 *2798:B1 *1183:50 0.000467118
24 *2798:B1 *1190:31 0.000724589
25 *2810:B1 *1183:50 0.000144045
26 *2810:B1 *1190:31 0.000128945
27 *2822:B1 *832:18 0.000434509
28 *831:6 *1180:37 0
29 *831:12 *1180:60 0
30 *831:12 *1184:31 4.77425e-05
31 *831:21 *841:51 0
32 *831:23 *905:42 0.000634557
33 *831:23 *905:48 0
34 *831:33 *905:42 0.000395068
35 *831:33 *1175:56 0.000304879
36 *831:33 *1187:43 0.000709425
37 *831:33 *1187:51 0.00018128
38 *831:43 *3714:A 0
39 *831:43 *843:23 0.00012785
40 *831:43 *1175:56 0.000321304
41 *831:43 *1187:43 8.00951e-05
42 *831:56 *843:23 0.000660143
43 *831:56 *1179:32 4.77425e-05
44 *831:65 *832:18 0
45 *831:65 *905:119 0
46 *831:81 *841:71 0
47 *831:81 *905:119 0.000234224
48 *831:81 *1175:56 8.00842e-05
49 *831:97 *841:51 0.000234224
50 *831:97 *905:48 0
51 *2816:A1 *831:81 0.000555321
52 *3397:A *2822:B1 0
53 *264:10 *831:43 0
54 *391:12 *831:81 0.000288502
55 *392:12 *831:65 0
56 *455:24 *831:56 0.000659727
57 *458:32 *831:33 0.000234726
58 *466:8 *831:81 7.52158e-05
59 *468:8 *831:81 0.000341119
60 *697:301 *831:33 0
61 *697:315 *831:23 0
62 *697:315 *831:33 0
63 *697:315 *831:97 0
64 *704:33 *831:12 0
65 *719:37 *2794:B1 0
66 *719:37 *831:12 0
67 *719:47 *831:12 0
68 *719:47 *831:21 0.00014395
69 *781:27 *831:97 0
70 *784:10 *831:65 0.000209043
*RES
1 *3376:X *831:6 20.3502 
2 *831:6 *831:12 6.2109 
3 *831:12 *2802:B1 20 
4 *831:12 *831:21 20.9682 
5 *831:21 *831:23 3.5638 
6 *831:23 *831:33 31.5669 
7 *831:33 *831:43 42.7501 
8 *831:43 *2782:B1 20 
9 *831:33 *831:56 43.3887 
10 *831:56 *2786:B1 20 
11 *831:23 *831:65 23.1312 
12 *831:65 *831:81 47.416 
13 *831:81 *2814:B1 20 
14 *831:65 *2822:B1 23.9964 
15 *831:21 *831:97 21.8334 
16 *831:97 *2798:B1 25.2118 
17 *831:97 *2810:B1 20.9682 
18 *831:6 *2794:B1 22.9355 
*END

*D_NET *832 0.0303886
*CONN
*I *3376:A I *D sg13g2_buf_1
*I *2826:B1 I *D sg13g2_a21oi_1
*I *2842:B1 I *D sg13g2_a21oi_1
*I *2778:B1 I *D sg13g2_a21oi_1
*I *2790:B1 I *D sg13g2_a21oi_1
*I *2758:B1 I *D sg13g2_a21oi_1
*I *2818:B1 I *D sg13g2_a21oi_1
*I *2838:B1 I *D sg13g2_a21oi_1
*I *3377:X O *D sg13g2_buf_1
*CAP
1 *3376:A 0.000117559
2 *2826:B1 0.000175717
3 *2842:B1 0.000585808
4 *2778:B1 0
5 *2790:B1 0
6 *2758:B1 0
7 *2818:B1 0.000339331
8 *2838:B1 0
9 *3377:X 0
10 *832:101 0.0010988
11 *832:94 0.0010765
12 *832:74 0.000965322
13 *832:66 0.00150328
14 *832:54 0.00263008
15 *832:35 0.00215824
16 *832:24 0.00138766
17 *832:18 0.00222131
18 *832:10 0.00163252
19 *832:4 0.000450423
20 *2818:B1 *3173:RESET_B 0.000176279
21 *2818:B1 *843:81 0
22 *2818:B1 *1176:50 0.000493412
23 *2826:B1 *3177:RESET_B 0
24 *2826:B1 *836:10 0.000234224
25 *2826:B1 *1190:39 0.000106798
26 *2842:B1 *843:127 0.000218132
27 *832:18 *2822:A2 0.000112558
28 *832:18 *905:38 0
29 *832:18 *979:22 0
30 *832:18 *1189:30 0.000337373
31 *832:18 *1192:32 0.00137148
32 *832:24 *2840:A2 0.000397421
33 *832:24 *836:12 0.00069572
34 *832:24 *1175:56 0.000144389
35 *832:24 *1191:26 0.000181192
36 *832:35 *2835:B1 0.000126354
37 *832:35 *1175:56 1.54008e-05
38 *832:35 *1176:50 0.00113525
39 *832:35 *1188:37 0
40 *832:54 *2807:A2 0.00012871
41 *832:54 *907:41 0.000489293
42 *832:54 *907:65 0
43 *832:54 *1185:28 0
44 *832:66 *2790:A1 0
45 *832:66 *1173:40 0.000340288
46 *832:66 *1185:28 0
47 *832:74 *1170:35 0.00129744
48 *832:74 *1174:68 0
49 *832:94 *907:25 0.000286862
50 *832:94 *1173:40 0
51 *832:94 *1176:31 0.000127785
52 *832:101 *836:10 0.000689948
53 *832:101 *836:12 0.00060657
54 *832:101 *1190:39 0.000289307
55 *832:101 *1191:26 0.000371223
56 *2794:B1 *3376:A 0.000112683
57 *2822:B1 *832:18 0.000434509
58 *2829:A1 *2842:B1 0
59 *3173:CLK *2818:B1 0
60 *3173:CLK *832:35 0
61 *3476:A *832:66 0.000208195
62 *389:20 *832:10 0
63 *392:12 *832:18 0
64 *393:18 *832:10 0
65 *424:8 *832:74 0
66 *441:14 *832:94 0.000140198
67 *446:12 *832:94 0
68 *448:10 *832:66 0
69 *450:10 *832:66 0.000112558
70 *461:10 *832:54 0.000144833
71 *462:10 *832:54 7.89557e-05
72 *464:10 *832:24 0
73 *464:10 *832:101 0
74 *476:20 *2842:B1 0.000208142
75 *703:40 *832:35 0
76 *713:82 *832:74 0
77 *718:14 *832:18 0
78 *718:22 *832:24 0
79 *719:37 *3376:A 0
80 *721:87 *832:54 0.000596273
81 *750:26 *832:54 0
82 *750:26 *832:66 0
83 *750:26 *832:74 0
84 *751:33 *832:24 0
85 *751:33 *832:35 0
86 *754:47 *2818:B1 0.000183222
87 *769:31 *832:74 0
88 *769:37 *832:74 0.00124399
89 *772:25 *832:10 0
90 *784:10 *832:18 0.000209043
91 *785:23 *832:24 0
92 *785:23 *832:35 0
93 *831:65 *832:18 0
*RES
1 *3377:X *832:4 20 
2 *832:4 *832:10 42.8222 
3 *832:10 *832:18 33.9668 
4 *832:18 *832:24 27.7456 
5 *832:24 *2838:B1 20 
6 *832:24 *832:35 29.0434 
7 *832:35 *2818:B1 43.6204 
8 *832:35 *832:54 29.888 
9 *832:54 *832:66 45.1706 
10 *832:66 *832:74 32.7926 
11 *832:74 *2758:B1 40 
12 *832:66 *2790:B1 20 
13 *832:54 *832:94 48.7061 
14 *832:94 *2778:B1 20 
15 *832:18 *832:101 6.0358 
16 *832:101 *2842:B1 45.2118 
17 *832:101 *2826:B1 42.06 
18 *832:4 *3376:A 21.3493 
*END

*D_NET *833 0.0189381
*CONN
*I *2720:A2 I *D sg13g2_o21ai_1
*I *2748:A2 I *D sg13g2_o21ai_1
*I *2732:A2 I *D sg13g2_o21ai_1
*I *2724:A2 I *D sg13g2_o21ai_1
*I *2728:A2 I *D sg13g2_o21ai_1
*I *2736:A2 I *D sg13g2_o21ai_1
*I *2764:A2 I *D sg13g2_o21ai_1
*I *2740:A2 I *D sg13g2_o21ai_1
*I *3378:X O *D sg13g2_buf_1
*CAP
1 *2720:A2 2.58362e-05
2 *2748:A2 0
3 *2732:A2 0
4 *2724:A2 0.000194211
5 *2728:A2 0
6 *2736:A2 0
7 *2764:A2 5.03333e-05
8 *2740:A2 0
9 *3378:X 0
10 *833:124 0.000593623
11 *833:112 0.00121662
12 *833:99 0.00120428
13 *833:91 0.000695849
14 *833:80 0.00078321
15 *833:70 0.000885422
16 *833:61 0.000691657
17 *833:59 0.000922284
18 *833:42 0.000862228
19 *833:25 0.00111144
20 *833:14 0.000142348
21 *833:4 0.000779539
22 *2720:A2 *2720:B1 4.76427e-05
23 *2724:A2 *2724:B1 0.000175891
24 *2724:A2 *850:76 0
25 *833:14 *899:21 4.79124e-05
26 *833:14 *899:29 1.54556e-05
27 *833:25 *2738:A2 0
28 *833:25 *899:21 0
29 *833:42 *2736:B1 1.54008e-05
30 *833:42 *899:12 7.34783e-05
31 *833:42 *1172:30 0
32 *833:42 *1172:49 0
33 *833:59 *2736:B1 9.71349e-05
34 *833:59 *839:29 7.48178e-05
35 *833:59 *839:44 0.000241979
36 *833:59 *1172:30 0
37 *833:61 *2736:B1 0.000790841
38 *833:61 *901:33 1.54008e-05
39 *833:70 *2720:B1 0
40 *833:70 *839:59 0.00011254
41 *833:70 *901:33 9.71568e-05
42 *833:70 *901:51 0
43 *833:80 *901:20 0
44 *833:80 *968:12 7.31655e-05
45 *833:91 *844:18 0
46 *833:99 *2732:B1 7.98669e-05
47 *833:99 *901:55 0
48 *833:99 *909:14 0.0001813
49 *833:112 *850:14 0.000446352
50 *833:112 *851:66 0
51 *833:112 *1061:18 0
52 *833:124 *3565:A 0
53 *833:124 *845:75 0.000113136
54 *833:124 *901:85 4.74897e-05
55 *2720:A1 *2720:A2 4.76427e-05
56 *2732:A1 *833:99 7.98669e-05
57 *2732:A1 *833:112 1.54008e-05
58 *2734:A1 *833:59 0
59 *2738:A1 *833:25 3.24568e-05
60 *2738:B1 *833:25 0.000209966
61 *2764:A1 *2764:A2 3.96571e-05
62 *3133:CLK *833:14 4.77425e-05
63 *3133:CLK *833:25 0.000193538
64 *251:8 *833:99 0.000340288
65 *259:14 *833:42 0.000652748
66 *400:18 *833:80 0.000318407
67 *403:8 *833:99 0.000340704
68 *405:8 *833:99 0
69 *407:14 *833:80 0.000310527
70 *409:8 *833:25 0
71 *416:10 *833:124 0
72 *429:10 *833:42 0.000124575
73 *433:10 *833:124 0
74 *460:12 *833:112 0.000388701
75 *646:37 *833:14 0
76 *699:67 *2724:A2 1.54008e-05
77 *717:39 *833:80 0.000178811
78 *720:54 *833:112 0.000709115
79 *721:71 *833:59 0
80 *722:41 *833:14 4.77425e-05
81 *722:41 *833:25 0.000500709
82 *723:70 *833:124 0.000177127
83 *724:12 *833:124 0
84 *766:8 *833:80 0
85 *766:8 *833:99 7.33225e-05
86 *766:16 *833:59 0.000306755
87 *766:16 *833:61 0
88 *766:16 *833:70 0
89 *768:8 *833:25 0
90 *768:32 *833:25 0.000340288
91 *778:16 *833:80 0
92 *778:45 *2724:A2 3.15716e-05
93 *782:10 *833:112 0
94 *782:16 *833:112 0
95 *795:8 *833:59 7.48178e-05
96 *795:12 *833:59 6.46834e-05
97 *795:24 *833:42 4.77425e-05
98 *795:24 *833:59 1.54008e-05
99 *796:39 *833:14 0.00012816
100 *798:22 *833:124 0
101 *798:39 *833:124 0.000178388
*RES
1 *3378:X *833:4 20 
2 *833:4 *833:14 41.4832 
3 *833:14 *2740:A2 20 
4 *833:4 *833:25 27.4366 
5 *833:25 *2764:A2 40.4815 
6 *833:25 *833:42 24.6968 
7 *833:42 *2736:A2 20 
8 *833:42 *833:59 44.9852 
9 *833:59 *833:61 5.2942 
10 *833:61 *2728:A2 20 
11 *833:61 *833:70 22.0497 
12 *833:70 *833:80 45.6547 
13 *833:80 *2724:A2 41.8334 
14 *833:70 *833:91 0.8446 
15 *833:91 *833:99 26.6435 
16 *833:99 *2732:A2 20 
17 *833:99 *833:112 47.3439 
18 *833:112 *833:124 45.0779 
19 *833:124 *2748:A2 20 
20 *833:91 *2720:A2 40.3193 
*END

*D_NET *834 0.0203904
*CONN
*I *2772:A2 I *D sg13g2_o21ai_1
*I *2744:A2 I *D sg13g2_o21ai_1
*I *2752:A2 I *D sg13g2_o21ai_1
*I *2776:A2 I *D sg13g2_o21ai_1
*I *2768:A2 I *D sg13g2_o21ai_1
*I *3378:A I *D sg13g2_buf_1
*I *2756:A2 I *D sg13g2_o21ai_1
*I *3379:X O *D sg13g2_buf_1
*CAP
1 *2772:A2 0.000300978
2 *2744:A2 0.000198594
3 *2752:A2 6.9753e-05
4 *2776:A2 0.000126059
5 *2768:A2 0
6 *3378:A 0
7 *2756:A2 0
8 *3379:X 0
9 *834:93 0.00136977
10 *834:49 0.00118108
11 *834:41 0.00192111
12 *834:31 0.00145411
13 *834:25 0.000657767
14 *834:23 0.00172884
15 *834:14 0.000382265
16 *834:4 0.00124091
17 *2744:A2 *2744:B1 6.40065e-05
18 *2752:A2 *2772:B1 1.54008e-05
19 *2752:A2 *902:23 9.7025e-05
20 *2772:A2 *2772:B1 0.000338114
21 *2776:A2 *2776:B1 4.78853e-05
22 *834:14 *902:45 0.000208524
23 *834:14 *1175:44 0.000178327
24 *834:23 *902:45 0
25 *834:23 *1172:49 0
26 *834:31 *902:23 0.000144822
27 *834:31 *903:48 0
28 *834:31 *1175:44 0.00113468
29 *834:41 *2776:B1 0.000177351
30 *834:41 *3441:A 8.00842e-05
31 *834:41 *839:8 0
32 *834:41 *902:6 0
33 *834:41 *1175:44 0.00012816
34 *834:49 *2738:A2 0.000339569
35 *834:49 *1181:43 0
36 *834:93 *2772:B1 0
37 *834:93 *903:48 7.34783e-05
38 *2738:B1 *834:49 0
39 *2744:A1 *2744:A2 1.54008e-05
40 *2750:B1 *834:93 0
41 *2756:A1 *834:14 0.00030365
42 *2776:A1 *2776:A2 1.55212e-05
43 *2776:A1 *834:31 0
44 *3141:CLK *834:14 0.000240669
45 *3151:CLK *2776:A2 0
46 *3373:A *834:41 0
47 *3379:A *834:14 0
48 *3472:A *834:93 4.77425e-05
49 *257:8 *834:23 0.000496785
50 *422:24 *834:93 0.000951428
51 *432:10 *834:49 0
52 *438:8 *834:41 0
53 *697:165 *834:93 0
54 *700:65 *834:93 0.000305593
55 *721:71 *834:23 0.000339976
56 *721:71 *834:41 0.00116419
57 *721:71 *834:49 0.000661057
58 *721:71 *834:93 0.000179389
59 *722:41 *834:49 0
60 *722:45 *834:31 0
61 *722:45 *834:41 0
62 *729:33 *2772:A2 0
63 *729:33 *834:31 0
64 *731:25 *834:49 0
65 *769:27 *834:41 0
66 *770:49 *2772:A2 4.78521e-05
67 *772:25 *834:31 0
68 *782:16 *2744:A2 0.000652369
69 *782:16 *2772:A2 0.000338971
70 *793:12 *2744:A2 0.00065352
71 *793:12 *2772:A2 0.000317584
*RES
1 *3379:X *834:4 20 
2 *834:4 *834:14 44.2951 
3 *834:14 *2756:A2 20 
4 *834:4 *834:23 28.5078 
5 *834:23 *834:25 20 
6 *834:25 *834:31 27.3439 
7 *834:31 *834:41 48.8374 
8 *834:41 *834:49 31.5257 
9 *834:49 *3378:A 20 
10 *834:41 *2768:A2 40 
11 *834:31 *2776:A2 41.5038 
12 *834:25 *2752:A2 20.7519 
13 *834:23 *834:93 49.4101 
14 *834:93 *2744:A2 43.605 
15 *834:93 *2772:A2 43.8522 
*END

*D_NET *835 0.0157477
*CONN
*I *2812:A2 I *D sg13g2_o21ai_1
*I *2804:A2 I *D sg13g2_o21ai_1
*I *2784:A2 I *D sg13g2_o21ai_1
*I *2816:A2 I *D sg13g2_o21ai_1
*I *2788:A2 I *D sg13g2_o21ai_1
*I *2800:A2 I *D sg13g2_o21ai_1
*I *2796:A2 I *D sg13g2_o21ai_1
*I *2713:B I *D sg13g2_nand2_1
*I *3380:X O *D sg13g2_buf_1
*CAP
1 *2812:A2 0.000580186
2 *2804:A2 6.35807e-05
3 *2784:A2 0.000863208
4 *2816:A2 0.000691835
5 *2788:A2 0.000248311
6 *2800:A2 0
7 *2796:A2 0.000151065
8 *2713:B 0
9 *3380:X 0
10 *835:66 0.00155504
11 *835:53 0.00123676
12 *835:51 0.00119835
13 *835:49 0.00120783
14 *835:38 0.00104769
15 *835:21 0.000968456
16 *835:12 0.000387433
17 *835:4 0.000638463
18 *2784:A2 *2784:B1 1.54008e-05
19 *2784:A2 *3155:RESET_B 0
20 *2788:A2 *2788:B1 1.54008e-05
21 *2788:A2 *1175:56 0
22 *2796:A2 *2796:B1 1.54556e-05
23 *2796:A2 *837:23 0
24 *2796:A2 *1186:39 0
25 *2804:A2 *905:62 1.54008e-05
26 *2812:A2 *2812:B1 0.00058996
27 *2812:A2 *3169:RESET_B 0
28 *2812:A2 *3381:A 0
29 *2812:A2 *905:56 0.00033864
30 *2816:A2 *905:38 0
31 *2816:A2 *905:119 4.77425e-05
32 *2816:A2 *1179:63 0
33 *835:12 *2713:A 0
34 *835:12 *3187:RESET_B 0
35 *835:12 *837:14 0
36 *835:12 *1186:39 0.000371965
37 *835:21 *3187:RESET_B 0.000175815
38 *835:21 *837:23 0.000434904
39 *835:38 *837:23 0
40 *835:49 *3163:RESET_B 0.000338016
41 *835:49 *3381:A 0
42 *835:53 *990:33 0
43 *2784:A1 *2784:A2 1.54008e-05
44 *2796:A1 *2796:A2 1.54556e-05
45 *2800:A1 *835:38 1.54556e-05
46 *2800:A1 *835:49 0.00024205
47 *2812:A1 *2812:A2 0.000112766
48 *2816:A1 *2816:A2 1.54008e-05
49 *3163:CLK *835:49 0
50 *388:10 *835:12 0.000212543
51 *388:12 *835:12 0.000181608
52 *389:12 *835:21 0
53 *389:12 *835:38 0
54 *391:8 *2816:A2 0
55 *393:31 *2788:A2 0.000496248
56 *393:31 *835:53 0.000953993
57 *444:10 *2784:A2 0.000209807
58 *456:12 *835:49 0
59 *459:10 *2804:A2 0
60 *697:297 *2784:A2 0
61 *697:297 *2816:A2 0
62 *701:64 *2784:A2 8.00842e-05
63 *768:16 *2796:A2 0
64 *768:16 *835:38 0
65 *769:37 *2796:A2 0
66 *769:37 *835:38 0
67 *773:31 *835:49 0
68 *775:29 *835:49 0
69 *775:29 *835:53 0
70 *776:29 *2788:A2 0
71 *776:29 *835:53 0
72 *780:16 *2804:A2 0
*RES
1 *3380:X *835:4 20 
2 *835:4 *835:12 44.3157 
3 *835:12 *2713:B 20 
4 *835:4 *835:21 22.9149 
5 *835:21 *2796:A2 41.6274 
6 *835:21 *835:38 25.2736 
7 *835:38 *2800:A2 20 
8 *835:38 *835:49 25.2736 
9 *835:49 *835:51 1.339 
10 *835:51 *835:53 10.7326 
11 *835:53 *2788:A2 42.8634 
12 *835:53 *835:66 20 
13 *835:66 *2816:A2 26.18 
14 *835:66 *2784:A2 28.5696 
15 *835:51 *2804:A2 40.5356 
16 *835:49 *2812:A2 46.4272 
*END

*D_NET *836 0.00968572
*CONN
*I *2844:A2 I *D sg13g2_o21ai_1
*I *2828:A2 I *D sg13g2_o21ai_1
*I *2824:A2 I *D sg13g2_o21ai_1
*I *2836:A2 I *D sg13g2_o21ai_1
*I *2840:A2 I *D sg13g2_o21ai_1
*I *3381:X O *D sg13g2_buf_1
*CAP
1 *2844:A2 0.00055165
2 *2828:A2 7.62073e-05
3 *2824:A2 7.02262e-05
4 *2836:A2 7.68436e-05
5 *2840:A2 0.000153853
6 *3381:X 0.000641458
7 *836:12 0.000476433
8 *836:10 0.000645288
9 *836:8 0.000495341
10 *2824:A2 *2824:B1 0.000112426
11 *2828:A2 *2844:B1 1.54285e-05
12 *2828:A2 *906:29 8.01118e-05
13 *2836:A2 *906:8 1.54008e-05
14 *2836:A2 *906:12 8.00842e-05
15 *2840:A2 *2840:B1 0.000421203
16 *2840:A2 *3714:A 0
17 *2840:A2 *906:29 5.30319e-05
18 *2844:A2 *2844:B1 0.000403789
19 *836:10 *906:29 0.00134906
20 *836:12 *906:29 0.00129777
21 *2824:A1 *2824:A2 1.54008e-05
22 *2826:B1 *836:10 0.000234224
23 *2828:A1 *2828:A2 1.54285e-05
24 *2828:A1 *2844:A2 0
25 *2836:A1 *2836:A2 1.54008e-05
26 *3185:CLK *2844:A2 0
27 *704:45 *2844:A2 0
28 *785:23 *836:8 0
29 *801:25 *2844:A2 0
30 *832:24 *2840:A2 0.000397421
31 *832:24 *836:12 0.00069572
32 *832:101 *836:10 0.000689948
33 *832:101 *836:12 0.00060657
*RES
1 *3381:X *836:8 40.8446 
2 *836:8 *836:10 6.5302 
3 *836:10 *836:12 6.0358 
4 *836:12 *2840:A2 42.5853 
5 *836:12 *2836:A2 40.7519 
6 *836:10 *2824:A2 40.7519 
7 *836:8 *2828:A2 40.7519 
8 *3381:X *2844:A2 45.7474 
*END

*D_NET *837 0.0312526
*CONN
*I *3381:A I *D sg13g2_buf_1
*I *2832:A2 I *D sg13g2_o21ai_1
*I *2808:A2 I *D sg13g2_o21ai_1
*I *2820:A2 I *D sg13g2_o21ai_1
*I *2792:A2 I *D sg13g2_o21ai_1
*I *2760:A2 I *D sg13g2_o21ai_1
*I *2780:A2 I *D sg13g2_o21ai_1
*I *3380:A I *D sg13g2_buf_1
*I *3382:X O *D sg13g2_buf_1
*CAP
1 *3381:A 0.00109887
2 *2832:A2 0.000800941
3 *2808:A2 2.99878e-05
4 *2820:A2 0.000526489
5 *2792:A2 0
6 *2760:A2 0.000603709
7 *2780:A2 0.000284563
8 *3380:A 0
9 *3382:X 0.000209675
10 *837:123 0.00124836
11 *837:80 0.000802974
12 *837:76 0.00166762
13 *837:69 0.00108092
14 *837:43 0.00146052
15 *837:33 0.00103299
16 *837:31 0.00140937
17 *837:23 0.00261242
18 *837:14 0.00126324
19 *2760:A2 *2760:B1 1.54008e-05
20 *2760:A2 *3446:A 0
21 *2760:A2 *908:12 0
22 *2760:A2 *967:10 8.00842e-05
23 *2808:A2 *907:41 4.77425e-05
24 *2808:A2 *907:65 1.54008e-05
25 *2820:A2 *882:24 0
26 *2820:A2 *907:47 7.51285e-05
27 *2832:A2 *907:67 0.00014434
28 *2832:A2 *907:80 1.54008e-05
29 *3381:A *3169:RESET_B 0
30 *837:14 *3187:RESET_B 0
31 *837:23 *2796:B1 0
32 *837:23 *3163:RESET_B 0
33 *837:23 *905:62 0
34 *837:23 *1186:39 0
35 *837:31 *2790:A1 0.000499383
36 *837:31 *1179:53 0.00116745
37 *837:43 *843:23 7.52149e-05
38 *837:43 *843:27 8.00842e-05
39 *837:43 *843:38 4.78524e-05
40 *837:43 *1172:49 0
41 *837:69 *843:38 9.5917e-05
42 *2760:A1 *2760:A2 0.000240559
43 *2780:A1 *2780:A2 1.54008e-05
44 *2792:A1 *837:69 0.000145023
45 *2792:A1 *837:76 1.54008e-05
46 *2796:A1 *837:23 0
47 *2796:A2 *837:23 0
48 *2808:A1 *2808:A2 4.7803e-05
49 *2812:A1 *3381:A 0
50 *2812:A2 *3381:A 0
51 *2820:A1 *2820:A2 1.53099e-05
52 *2832:A1 *2832:A2 0.00020973
53 *3159:CLK *837:69 0
54 *3159:CLK *837:76 0
55 *3382:A *837:14 6.31433e-05
56 *426:10 *2760:A2 0
57 *450:10 *837:69 0
58 *454:8 *837:31 0.000287342
59 *455:24 *837:31 0.00171853
60 *456:12 *837:23 0.000339135
61 *464:10 *2820:A2 0.000921222
62 *464:10 *837:80 0
63 *467:12 *837:80 0
64 *480:10 *2832:A2 0.000369865
65 *703:40 *2832:A2 0.000595498
66 *704:45 *3381:A 0
67 *721:71 *2780:A2 0.00113602
68 *721:71 *837:43 5.30319e-05
69 *721:77 *2760:A2 4.77425e-05
70 *722:59 *2760:A2 0.000144702
71 *726:46 *2780:A2 0.0011348
72 *726:46 *2832:A2 0
73 *726:46 *837:43 0.000579971
74 *726:46 *837:69 0.000176405
75 *726:46 *837:76 0
76 *746:35 *2832:A2 0
77 *746:35 *837:76 0
78 *753:28 *2820:A2 0
79 *754:47 *2760:A2 0
80 *773:23 *837:31 0.00267041
81 *773:23 *837:123 0.00045026
82 *775:29 *837:123 0.000449137
83 *780:6 *3381:A 0.000111032
84 *780:29 *3381:A 0.000388131
85 *801:25 *3381:A 0
86 *835:12 *837:14 0
87 *835:21 *837:23 0.000434904
88 *835:38 *837:23 0
89 *835:49 *3381:A 0
*RES
1 *3382:X *837:14 22.5853 
2 *837:14 *3380:A 20 
3 *837:14 *837:23 8.6745 
4 *837:23 *837:31 40.7957 
5 *837:31 *837:33 20 
6 *837:33 *837:43 26.6847 
7 *837:43 *2780:A2 45.8298 
8 *837:43 *2760:A2 45.63 
9 *837:33 *837:69 4.4805 
10 *837:69 *2792:A2 20 
11 *837:69 *837:76 5.5105 
12 *837:76 *837:80 22.0806 
13 *837:80 *2820:A2 45.7577 
14 *837:80 *2808:A2 40.3193 
15 *837:76 *2832:A2 28.5593 
16 *837:23 *837:123 42.6162 
17 *837:123 *3381:A 29.5049 
*END

*D_NET *838 0.00297887
*CONN
*I *2830:A1 I *D sg13g2_a21oi_1
*I *3564:X O *D sg13g2_buf_1
*CAP
1 *2830:A1 0.000472351
2 *3564:X 0.000210252
3 *838:10 0.000682603
4 *838:10 *2834:A1 0.000207854
5 *838:10 *1032:18 0.000390281
6 gpio_out[0] *2830:A1 0
7 *2830:B1 *2830:A1 0
8 *79:12 *2830:A1 0.000401904
9 *413:16 *2830:A1 0
10 *700:36 *838:10 0.000207854
11 *700:53 *838:10 1.54008e-05
12 *760:14 *838:10 0.000390367
*RES
1 *3564:X *838:10 43.2342 
2 *838:10 *2830:A1 44.5526 
*END

*D_NET *839 0.0151519
*CONN
*I *2766:A2 I *D sg13g2_a21oi_1
*I *2738:A2 I *D sg13g2_a21oi_1
*I *2722:A2 I *D sg13g2_a21oi_1
*I *2719:B1 I *D sg13g2_a22oi_1
*I *2726:A2 I *D sg13g2_a21oi_1
*I *2734:A2 I *D sg13g2_a21oi_1
*I *2762:A2 I *D sg13g2_a21oi_1
*I *2774:A2 I *D sg13g2_a21oi_1
*I *3383:X O *D sg13g2_buf_1
*CAP
1 *2766:A2 0.00038618
2 *2738:A2 0.000217078
3 *2722:A2 0
4 *2719:B1 0
5 *2726:A2 0
6 *2734:A2 0
7 *2762:A2 4.95465e-05
8 *2774:A2 6.04922e-05
9 *3383:X 0.000324907
10 *839:87 0.000925636
11 *839:70 0.00116275
12 *839:59 0.00117546
13 *839:44 0.00114983
14 *839:29 0.00073328
15 *839:25 0.0011024
16 *839:14 0.000776616
17 *839:10 0.00068923
18 *839:8 0.000324907
19 *2762:A2 *2762:A1 4.23522e-05
20 *2762:A2 *3145:RESET_B 8.00842e-05
21 *2766:A2 *2766:A1 0.000208225
22 *839:25 *1172:49 0.00101051
23 *839:29 *1172:30 7.48178e-05
24 *839:29 *1172:49 0.00123903
25 *839:44 *3145:RESET_B 0.000194236
26 *839:59 *2720:B1 0
27 *839:59 *2736:B1 0.000436407
28 *839:59 *909:66 0.000369497
29 *839:70 *844:18 0
30 *839:70 *909:14 0
31 *839:70 *1169:22 0
32 *839:87 *2723:B1 3.8502e-05
33 *839:87 *2727:A2 8.00842e-05
34 *839:87 *860:18 1.54008e-05
35 *839:87 *1035:14 0
36 *839:87 *1181:55 7.34121e-05
37 *2719:A1 *839:70 8.0216e-05
38 *2729:B1 *839:70 0
39 *2734:A1 *839:44 0.000126354
40 *2734:A1 *839:59 1.54008e-05
41 *2738:A1 *2738:A2 1.54285e-05
42 *2738:B1 *2738:A2 0
43 *2766:B1 *2766:A2 0
44 *2766:B1 *839:14 0
45 *2768:A1 *839:8 0
46 *2774:B1 *2774:A2 0
47 *2774:B1 *839:14 1.54008e-05
48 *2777:A1 *839:14 0
49 *395:10 *839:70 4.77425e-05
50 *395:10 *839:87 3.23417e-05
51 *398:8 *839:87 0
52 *400:10 *839:70 4.76053e-05
53 *402:10 *839:59 4.77425e-05
54 *427:8 *839:29 0.000180885
55 *721:71 *839:44 0.000126358
56 *727:24 *839:87 0
57 *733:31 *2766:A2 0
58 *733:31 *839:14 0
59 *749:20 *839:87 0
60 *757:41 *839:29 7.49317e-05
61 *769:27 *839:8 0
62 *790:10 *839:59 4.77425e-05
63 *794:27 *2774:A2 0
64 *794:27 *839:14 0
65 *828:25 *839:14 6.43037e-05
66 *828:27 *839:25 0
67 *828:27 *839:29 0
68 *828:31 *839:29 0
69 *828:48 *839:44 0.000232389
70 *828:59 *839:59 0
71 *828:99 *839:87 0.000287256
72 *833:25 *2738:A2 0
73 *833:59 *839:29 7.48178e-05
74 *833:59 *839:44 0.000241979
75 *833:70 *839:59 0.00011254
76 *834:41 *839:8 0
77 *834:49 *2738:A2 0.000339569
*RES
1 *3383:X *839:8 42.3278 
2 *839:8 *839:10 20 
3 *839:10 *839:14 2.8634 
4 *839:14 *2774:A2 20.5356 
5 *839:14 *839:25 24.7998 
6 *839:25 *839:29 26.0358 
7 *839:29 *2762:A2 20.5356 
8 *839:29 *839:44 42.9252 
9 *839:44 *2734:A2 20 
10 *839:44 *839:59 9.0434 
11 *839:59 *2726:A2 20 
12 *839:59 *839:70 2.5029 
13 *839:70 *2719:B1 20 
14 *839:70 *839:87 48.4769 
15 *839:87 *2722:A2 20 
16 *839:25 *2738:A2 42.266 
17 *839:10 *2766:A2 23.5638 
*END

*D_NET *840 0.0195508
*CONN
*I *2754:A2 I *D sg13g2_a21oi_1
*I *2750:A2 I *D sg13g2_a21oi_1
*I *2771:B1 I *D sg13g2_a22oi_1
*I *3383:A I *D sg13g2_buf_1
*I *2742:A2 I *D sg13g2_a21oi_1
*I *2747:B1 I *D sg13g2_a22oi_1
*I *2730:A2 I *D sg13g2_a21oi_1
*I *3384:X O *D sg13g2_buf_1
*CAP
1 *2754:A2 0.000276046
2 *2750:A2 0
3 *2771:B1 0
4 *3383:A 0.000173597
5 *2742:A2 0.000127119
6 *2747:B1 0
7 *2730:A2 0.000360585
8 *3384:X 0
9 *840:88 0.000586681
10 *840:80 0.00084196
11 *840:47 0.000565845
12 *840:28 0.000960386
13 *840:26 0.00105138
14 *840:14 0.00149158
15 *840:10 0.000987348
16 *840:6 0.00058044
17 *2730:A2 *901:85 0.000543778
18 *2730:A2 *1171:10 0
19 *2742:A2 *3565:A 0
20 *2742:A2 *901:85 0.000139043
21 *840:14 *1173:40 0
22 *840:26 *3135:RESET_B 0.000112289
23 *840:26 *3135:D 4.76053e-05
24 *840:26 *3568:A 0.000304989
25 *840:26 *882:8 0.000110935
26 *840:26 *1065:24 0.000126358
27 *840:26 *1171:18 0
28 *840:28 *901:85 7.44765e-05
29 *840:47 *1061:18 0.000792961
30 *840:47 *1069:12 7.44237e-05
31 *840:80 *2772:B1 0
32 *2730:B1 *2730:A2 0
33 *2745:A2 *840:26 0.000333547
34 *2750:A1 *840:80 4.78359e-05
35 *2750:A1 *840:88 0.000178206
36 *2754:A1 *2754:A2 1.54008e-05
37 *2754:B1 *2754:A2 0.000287447
38 *2754:B1 *840:10 0
39 *3141:CLK *2754:A2 0.000208327
40 *3373:A *840:14 0.000181608
41 *392:41 *840:88 0
42 *393:37 *2754:A2 0.000341249
43 *455:20 *2754:A2 0
44 *460:12 *2730:A2 7.34121e-05
45 *460:12 *840:26 0.000258868
46 *460:12 *840:28 0.000106807
47 *700:20 *840:14 0.000341621
48 *700:69 *2754:A2 0
49 *700:69 *840:10 0.00112968
50 *700:69 *840:14 0.000339636
51 *720:41 *2730:A2 1.54008e-05
52 *720:54 *2730:A2 0.000736167
53 *723:54 *3383:A 0
54 *723:70 *2742:A2 1.54008e-05
55 *724:12 *840:47 0
56 *729:33 *840:80 0.000370166
57 *732:29 *840:88 0.000854696
58 *756:53 *840:47 7.30101e-05
59 *758:46 *2742:A2 0.000122403
60 *758:46 *3383:A 0
61 *758:46 *840:26 0
62 *758:56 *840:47 0
63 *769:27 *3383:A 0.000177003
64 *797:29 *840:88 0.000693686
65 *827:20 *840:88 0
66 *830:12 *840:10 0.000897136
67 *830:12 *840:14 0.00023464
68 *830:14 *840:14 0.00118762
69 *830:29 *840:26 0
*RES
1 *3384:X *840:6 40 
2 *840:6 *840:10 5.6135 
3 *840:10 *840:14 27.2718 
4 *840:14 *840:26 26.5822 
5 *840:26 *840:28 0.5974 
6 *840:28 *2730:A2 44.8101 
7 *840:28 *840:47 45.6444 
8 *840:47 *2747:B1 40 
9 *840:26 *2742:A2 41.5141 
10 *840:14 *3383:A 21.5518 
11 *840:10 *840:80 22.4823 
12 *840:80 *840:88 46.7877 
13 *840:88 *2771:B1 20 
14 *840:80 *2750:A2 20 
15 *840:6 *2754:A2 43.4814 
*END

*D_NET *841 0.0163942
*CONN
*I *2822:A2 I *D sg13g2_a21oi_1
*I *2782:A2 I *D sg13g2_a21oi_1
*I *2786:A2 I *D sg13g2_a21oi_1
*I *2814:A2 I *D sg13g2_a21oi_1
*I *2810:A2 I *D sg13g2_a21oi_1
*I *2802:A2 I *D sg13g2_a21oi_1
*I *2798:A2 I *D sg13g2_a21oi_1
*I *2794:A2 I *D sg13g2_a21oi_1
*I *3385:X O *D sg13g2_buf_1
*CAP
1 *2822:A2 0.000481203
2 *2782:A2 0.000283149
3 *2786:A2 0.000413688
4 *2814:A2 0.000169656
5 *2810:A2 0
6 *2802:A2 0
7 *2798:A2 0
8 *2794:A2 0.000202208
9 *3385:X 0.000312443
10 *841:102 0.000900243
11 *841:94 0.000659649
12 *841:71 0.00122058
13 *841:69 0.00195251
14 *841:58 0.000979981
15 *841:51 0.000229831
16 *841:39 0.000883512
17 *841:30 0.000667809
18 *841:26 0.000227722
19 *2782:A2 *3714:A 0.000466559
20 *2782:A2 *1177:31 1.54008e-05
21 *2786:A2 *2788:B1 0.000126583
22 *2786:A2 *3715:A 7.92691e-05
23 *2794:A2 *1180:60 8.00842e-05
24 *2794:A2 *1190:31 0.000144992
25 *2814:A2 *2814:A1 5.05102e-05
26 *2814:A2 *1187:51 5.06087e-05
27 *2814:A2 *1187:59 0.000234224
28 *2822:A2 *1189:30 0.00046614
29 *2822:A2 *1189:47 1.54008e-05
30 *841:26 *843:23 0
31 *841:26 *1190:31 4.7154e-05
32 *841:30 *843:127 0.000209297
33 *841:30 *1183:33 0.000209297
34 *841:30 *1183:50 1.54008e-05
35 *841:39 *3165:RESET_B 0.000273693
36 *841:39 *843:127 8.00842e-05
37 *841:39 *1183:50 0.000257395
38 *841:51 *905:48 0.000287256
39 *841:51 *1180:60 0.00011224
40 *841:51 *1184:31 1.54008e-05
41 *841:58 *2810:A1 8.03091e-05
42 *841:58 *843:127 0
43 *841:69 *843:127 0
44 *841:69 *1183:50 0
45 *841:69 *1190:31 0
46 *841:71 *905:119 0.000287342
47 *841:71 *1187:59 2.20966e-05
48 *841:94 *3714:A 0
49 *841:94 *907:100 0.000176572
50 *841:94 *937:10 7.92329e-05
51 *841:94 *1179:63 0.000660241
52 *841:102 *2788:B1 0.000182266
53 *841:102 *1179:53 0.000277389
54 *2813:A1 *841:69 0
55 *3157:D *2786:A2 1.54008e-05
56 *3157:CLK *2782:A2 0.000338322
57 *447:8 *2786:A2 0
58 *468:8 *841:71 0
59 *702:10 *2794:A2 0
60 *718:14 *2822:A2 0
61 *718:41 *2822:A2 0
62 *773:23 *2786:A2 0.000711887
63 *773:23 *841:102 0.000160978
64 *774:23 *841:26 0.000234224
65 *781:27 *2814:A2 0
66 *781:27 *841:69 0
67 *781:27 *841:71 0
68 *784:27 *841:69 0
69 *784:27 *841:71 0
70 *831:21 *841:51 0
71 *831:81 *841:71 0
72 *831:97 *841:51 0.000234224
73 *832:18 *2822:A2 0.000112558
*RES
1 *3385:X *2794:A2 42.3484 
2 *3385:X *841:26 41.4111 
3 *841:26 *841:30 21.4008 
4 *841:30 *2798:A2 20 
5 *841:30 *841:39 5.2118 
6 *841:39 *841:51 43.0076 
7 *841:51 *2802:A2 20 
8 *841:39 *841:58 0.9682 
9 *841:58 *2810:A2 20 
10 *841:58 *841:69 27.1276 
11 *841:69 *841:71 5.047 
12 *841:71 *2814:A2 41.8386 
13 *841:71 *841:94 44.7483 
14 *841:94 *841:102 42.8943 
15 *841:102 *2786:A2 44.635 
16 *841:102 *2782:A2 43.1312 
17 *841:69 *2822:A2 44.429 
*END

*D_NET *842 0.00774656
*CONN
*I *2842:A2 I *D sg13g2_a21oi_1
*I *2826:A2 I *D sg13g2_a21oi_1
*I *2838:A2 I *D sg13g2_a21oi_1
*I *2835:B1 I *D sg13g2_a22oi_1
*I *3386:X O *D sg13g2_buf_1
*CAP
1 *2842:A2 0
2 *2826:A2 0.000110867
3 *2838:A2 2.90123e-05
4 *2835:B1 0.000303669
5 *3386:X 0.000170214
6 *842:16 0.00127634
7 *842:12 0.00146873
8 *842:8 0.000584422
9 *2835:B1 *1175:64 7.33256e-05
10 *2835:B1 *1188:37 0
11 *2838:A2 *3714:A 4.77425e-05
12 *842:8 *843:127 0
13 *842:8 *1190:50 0.000193714
14 *842:12 *843:127 0
15 *842:12 *1190:50 0.000596783
16 *842:16 *1187:65 0.00119254
17 *842:16 *1188:37 0
18 *2824:A1 *2826:A2 0
19 *2824:A1 *842:16 0.000443366
20 *476:20 *842:16 0
21 *484:12 *2835:B1 0
22 *718:22 *2838:A2 1.54008e-05
23 *751:33 *2835:B1 0.000242061
24 *751:48 *2835:B1 3.11029e-05
25 *785:23 *2826:A2 0.000288087
26 *785:23 *2835:B1 0
27 *785:23 *842:16 0
28 *791:12 *842:16 0.000552831
29 *832:35 *2835:B1 0.000126354
*RES
1 *3386:X *842:8 21.751 
2 *842:8 *842:12 23.9964 
3 *842:12 *842:16 11.2991 
4 *842:16 *2835:B1 43.2728 
5 *842:16 *2838:A2 40.3193 
6 *842:12 *2826:A2 41.339 
7 *842:8 *2842:A2 20 
*END

*D_NET *843 0.0279395
*CONN
*I *3386:A I *D sg13g2_buf_1
*I *2831:B1 I *D sg13g2_a22oi_1
*I *2818:A2 I *D sg13g2_a21oi_1
*I *2807:B1 I *D sg13g2_a22oi_1
*I *2778:A2 I *D sg13g2_a21oi_1
*I *2758:A2 I *D sg13g2_a21oi_1
*I *2790:A2 I *D sg13g2_a21oi_1
*I *3385:A I *D sg13g2_buf_1
*I *3387:X O *D sg13g2_buf_1
*CAP
1 *3386:A 0
2 *2831:B1 0
3 *2818:A2 0
4 *2807:B1 0
5 *2778:A2 0
6 *2758:A2 0.000886623
7 *2790:A2 0
8 *3385:A 0
9 *3387:X 0
10 *843:127 0.00242015
11 *843:98 0.000595909
12 *843:81 0.00145849
13 *843:74 6.79596e-05
14 *843:68 0.00109441
15 *843:61 0.000324489
16 *843:55 0.000759656
17 *843:38 0.00147474
18 *843:27 0.000366442
19 *843:23 0.00193628
20 *843:12 0.00211474
21 *843:6 0.00264822
22 *2758:A2 *3143:RESET_B 0.000273677
23 *843:12 *1180:60 0.000112683
24 *843:12 *1190:31 0
25 *843:23 *1172:49 0
26 *843:23 *1180:60 0.000226446
27 *843:23 *1190:31 1.54008e-05
28 *843:27 *2790:A1 1.54008e-05
29 *843:38 *2790:A1 6.48152e-05
30 *843:55 *3446:A 7.93167e-05
31 *843:61 *907:33 0.000607108
32 *843:74 *854:30 0
33 *843:81 *3167:RESET_B 0
34 *843:81 *3173:RESET_B 0
35 *843:98 *933:10 0.000127542
36 *843:98 *1188:37 0
37 *843:127 *2812:B1 0
38 *843:127 *3177:D 0
39 *843:127 *3185:D 0
40 *843:127 *1183:31 0.000167206
41 *843:127 *1186:39 0.00059756
42 *843:127 *1190:31 0
43 *843:127 *1190:50 0
44 *2784:A1 *843:23 0
45 *2793:A2 *843:55 0.000337561
46 *2793:A2 *843:68 0.000305903
47 *2793:A2 *843:81 4.77425e-05
48 *2813:A1 *843:127 0.000241429
49 *2813:A2 *843:127 0
50 *2818:B1 *843:81 0
51 *2842:B1 *843:127 0.000218132
52 *264:10 *843:23 0
53 *265:8 *843:23 0.000393736
54 *271:10 *843:127 0.000241631
55 *275:10 *843:127 0
56 *276:8 *843:98 0.000287316
57 *389:14 *843:12 0
58 *389:14 *843:127 0
59 *389:20 *843:23 0
60 *392:18 *843:74 0.000234311
61 *393:18 *843:12 0
62 *443:18 *843:23 0
63 *446:12 *843:61 0
64 *448:10 *843:38 0.0007664
65 *449:8 *843:74 7.51285e-05
66 *455:24 *843:23 0
67 *476:20 *843:98 0
68 *479:10 *843:98 0
69 *480:10 *843:98 0.000390094
70 *488:24 *843:127 0
71 *719:37 *843:23 0
72 *721:77 *843:55 0.000466161
73 *721:77 *843:68 0.000290579
74 *721:77 *843:81 0.000354897
75 *722:59 *843:81 0
76 *725:66 *843:61 0.00108139
77 *726:46 *843:23 0.000128248
78 *743:54 *843:81 1.53556e-05
79 *743:54 *843:98 7.98669e-05
80 *753:18 *2758:A2 0
81 *753:28 *2758:A2 0
82 *754:47 *2758:A2 0.000822153
83 *754:47 *843:81 0
84 *772:25 *843:12 0
85 *772:25 *843:127 0
86 *773:8 *2758:A2 0
87 *773:23 *2758:A2 0.00039332
88 *773:23 *843:38 0.000956431
89 *774:23 *843:23 0
90 *831:43 *843:23 0.00012785
91 *831:56 *843:23 0.000660143
92 *837:43 *843:23 7.52149e-05
93 *837:43 *843:27 8.00842e-05
94 *837:43 *843:38 4.78524e-05
95 *837:69 *843:38 9.5917e-05
96 *841:26 *843:23 0
97 *841:30 *843:127 0.000209297
98 *841:39 *843:127 8.00842e-05
99 *841:58 *843:127 0
100 *841:69 *843:127 0
101 *842:8 *843:127 0
102 *842:12 *843:127 0
*RES
1 *3387:X *843:6 40 
2 *843:6 *843:12 22.3381 
3 *843:12 *3385:A 20 
4 *843:12 *843:23 38.2825 
5 *843:23 *843:27 20.5356 
6 *843:27 *2790:A2 20 
7 *843:27 *843:38 25.5208 
8 *843:38 *2758:A2 49.2082 
9 *843:38 *843:55 23.1312 
10 *843:55 *843:61 45.047 
11 *843:61 *2778:A2 20 
12 *843:55 *843:68 2.0497 
13 *843:68 *843:74 41.0918 
14 *843:74 *2807:B1 20 
15 *843:68 *843:81 7.6735 
16 *843:81 *2818:A2 20 
17 *843:81 *843:98 46.0075 
18 *843:98 *2831:B1 20 
19 *843:6 *843:127 43.4737 
20 *843:127 *3386:A 20 
*END

*D_NET *844 0.0107209
*CONN
*I *2746:A2 I *D sg13g2_a21oi_1
*I *2739:B1 I *D sg13g2_a22oi_1
*I *2731:B1 I *D sg13g2_a22oi_1
*I *2767:B1 I *D sg13g2_a22oi_1
*I *2723:B1 I *D sg13g2_a22oi_1
*I *2735:B1 I *D sg13g2_a22oi_1
*I *2718:A2 I *D sg13g2_a21oi_1
*I *2727:B1 I *D sg13g2_a22oi_1
*I *3388:X O *D sg13g2_buf_1
*CAP
1 *2746:A2 5.18976e-05
2 *2739:B1 0
3 *2731:B1 0
4 *2767:B1 0.000631744
5 *2723:B1 9.5454e-05
6 *2735:B1 0.000144303
7 *2718:A2 0.000203078
8 *2727:B1 0
9 *3388:X 0.000117752
10 *844:100 0.000265071
11 *844:85 0.000375405
12 *844:77 0.000439076
13 *844:31 0.000519022
14 *844:29 0.000513199
15 *844:18 0.00101559
16 *844:12 0.0015116
17 *844:10 0.00050496
18 *2718:A2 *3574:A 0.000176235
19 *2718:A2 *1063:20 0.000340656
20 *2718:A2 *1138:14 0
21 *2735:B1 *2735:A2 0
22 *2746:A2 *1076:16 6.46834e-05
23 *2767:B1 *2767:A2 0
24 *2767:B1 *850:31 4.77395e-05
25 *2767:B1 *1181:43 0
26 *844:10 *850:14 0
27 *844:10 *1171:10 0.000289113
28 *844:12 *850:14 0
29 *844:12 *1171:10 7.51285e-05
30 *844:18 *3562:A 0
31 *844:18 *893:16 0
32 *844:18 *909:14 4.74163e-05
33 *844:18 *1025:16 0
34 *844:18 *1049:18 0
35 *844:29 *1063:20 0.000318191
36 *844:29 *1138:14 0
37 *844:31 *1063:20 0.000368967
38 *844:31 *1138:14 0
39 *844:77 *3552:A 0
40 *844:77 *1076:16 0.000240396
41 *844:85 *1149:14 0.000178206
42 *844:100 *2770:A1 0
43 *844:100 *850:42 0.000176711
44 *844:100 *912:16 0.000112437
45 *844:100 *1076:16 6.16032e-06
46 *844:100 *1078:28 0.000335912
47 *2719:A1 *844:18 0
48 *2730:B1 *844:10 4.72458e-05
49 *2730:B1 *844:77 0
50 *2731:A1 *844:85 4.77425e-05
51 *2731:A1 *844:100 4.77425e-05
52 *2733:A1 *2767:B1 0.000112285
53 *2733:A2 *2767:B1 7.94443e-05
54 *2733:A2 *844:85 1.54008e-05
55 *2739:A1 *844:100 3.23417e-05
56 *398:8 *2723:B1 0.000144768
57 *399:14 *2718:A2 0.000287256
58 *399:14 *2735:B1 4.7154e-05
59 *401:12 *844:18 0.000175721
60 *407:8 *2735:B1 0.000177082
61 *428:10 *844:18 0
62 *716:10 *844:10 4.72458e-05
63 *731:33 *2767:B1 4.79124e-05
64 *752:29 *844:18 0.000143758
65 *752:29 *844:29 4.77425e-05
66 *755:33 *2767:B1 0
67 *755:35 *2767:B1 0
68 *755:35 *844:77 0
69 *757:51 *844:18 0
70 *757:51 *844:100 1.54118e-05
71 *833:91 *844:18 0
72 *839:70 *844:18 0
73 *839:87 *2723:B1 3.8502e-05
*RES
1 *3388:X *844:10 41.6583 
2 *844:10 *844:12 1.0918 
3 *844:12 *844:18 27.1544 
4 *844:18 *2727:B1 20 
5 *844:18 *844:29 22.5544 
6 *844:29 *844:31 1.8334 
7 *844:31 *2718:A2 42.7707 
8 *844:31 *2735:B1 41.4008 
9 *844:29 *2723:B1 40.9682 
10 *844:12 *2767:B1 45.7474 
11 *844:10 *844:77 22.4823 
12 *844:77 *844:85 41.1639 
13 *844:85 *2731:B1 20 
14 *844:85 *844:100 43.09 
15 *844:100 *2739:B1 20 
16 *844:77 *2746:A2 20.5356 
*END

*D_NET *845 0.00979501
*CONN
*I *2743:B1 I *D sg13g2_a22oi_1
*I *2775:B1 I *D sg13g2_a22oi_1
*I *3388:A I *D sg13g2_buf_1
*I *2770:A2 I *D sg13g2_a21oi_1
*I *2763:B1 I *D sg13g2_a22oi_1
*I *2806:A2 I *D sg13g2_a21oi_1
*I *3389:X O *D sg13g2_buf_1
*CAP
1 *2743:B1 8.26553e-05
2 *2775:B1 7.44638e-05
3 *3388:A 3.04198e-05
4 *2770:A2 9.43347e-05
5 *2763:B1 0
6 *2806:A2 5.80586e-05
7 *3389:X 2.85465e-05
8 *845:75 0.00056751
9 *845:39 0.000462688
10 *845:31 0.000726322
11 *845:25 0.000414047
12 *845:14 0.000389833
13 *845:12 0.000331739
14 *845:8 0.00065323
15 *2770:A2 *2770:A1 1.54008e-05
16 *2770:A2 *3552:A 0
17 *2775:B1 *901:85 0
18 *2775:B1 *1075:12 0
19 *845:8 *3565:A 4.71556e-05
20 *845:8 *1060:12 4.71556e-05
21 *845:25 *1032:18 0.000652857
22 *845:31 *3552:A 0
23 *845:39 *2746:A1 0
24 *845:39 *935:12 0
25 *845:39 *1149:14 0.000178206
26 *413:16 *2743:B1 8.00842e-05
27 *415:8 *845:39 0
28 *428:10 *845:39 6.40177e-05
29 *433:10 *845:12 0.00054275
30 *724:12 *845:75 0
31 *727:24 *845:75 0.000495057
32 *730:26 *845:39 0.000112048
33 *749:20 *845:75 0.000497534
34 *760:14 *845:31 0
35 *798:14 *845:75 0.000454073
36 *798:22 *845:75 0.000144563
37 *804:12 *845:25 0.000545878
38 *815:8 *845:14 0
39 *826:14 *845:12 0.00054275
40 *826:14 *845:25 0
41 *826:14 *845:39 0.00107738
42 *829:20 *845:25 0
43 *829:20 *845:31 0
44 *829:35 *2770:A2 7.9706e-05
45 *829:35 *3388:A 4.77425e-05
46 *829:35 *845:31 0.000143666
47 *833:124 *845:75 0.000113136
*RES
1 *3389:X *845:8 40.3193 
2 *845:8 *845:12 22.575 
3 *845:12 *845:14 0.9682 
4 *845:14 *2806:A2 20.5356 
5 *845:14 *845:25 23.5638 
6 *845:25 *845:31 21.5656 
7 *845:31 *845:39 45.7989 
8 *845:39 *2763:B1 20 
9 *845:31 *2770:A2 20.9682 
10 *845:25 *3388:A 40.3193 
11 *845:12 *2775:B1 20.1975 
12 *845:8 *845:75 46.3242 
13 *845:75 *2743:B1 40.7519 
*END

*D_NET *846 0.00891394
*CONN
*I *2795:B1 I *D sg13g2_a22oi_1
*I *2819:B1 I *D sg13g2_a22oi_1
*I *2799:B1 I *D sg13g2_a22oi_1
*I *2803:B1 I *D sg13g2_a22oi_1
*I *2811:B1 I *D sg13g2_a22oi_1
*I *2815:B1 I *D sg13g2_a22oi_1
*I *2791:B1 I *D sg13g2_a22oi_1
*I *2787:B1 I *D sg13g2_a22oi_1
*I *3390:X O *D sg13g2_buf_1
*CAP
1 *2795:B1 3.12218e-05
2 *2819:B1 0.000409811
3 *2799:B1 0
4 *2803:B1 0.000179366
5 *2811:B1 0
6 *2815:B1 0
7 *2791:B1 0
8 *2787:B1 0
9 *3390:X 0
10 *846:76 0.000366984
11 *846:72 0.000597428
12 *846:70 0.000618762
13 *846:55 0.000781623
14 *846:42 0.000303717
15 *846:24 0.000506379
16 *846:14 0.000710764
17 *846:12 0.000682889
18 *846:4 0.000368869
19 *2803:B1 *852:24 0.000180624
20 *2803:B1 *852:26 0
21 *846:14 *854:30 0.000143563
22 *846:24 *2781:A2 0
23 *846:24 *3153:RESET_B 0
24 *846:24 *852:83 0
25 *846:24 *852:93 0
26 *846:42 *852:10 0
27 *846:42 *852:73 0.000127744
28 *846:76 *852:24 0.000179542
29 *3653:A *846:12 0
30 *3653:A *846:42 0
31 *3653:A *846:55 0
32 *3653:A *846:70 0
33 *391:12 *846:55 0.000127744
34 *452:10 *846:70 0.000456133
35 *458:18 *846:24 0.000657214
36 *460:20 *846:55 0.000127823
37 *464:8 *846:55 6.33024e-05
38 *467:12 *846:42 7.55794e-05
39 *478:18 *846:70 0.000272218
40 *727:24 *2803:B1 0
41 *727:24 *846:76 0
42 *737:48 *2819:B1 0
43 *737:48 *846:14 0.000337055
44 *737:48 *846:24 4.76247e-05
45 *737:48 *846:42 0.000272281
46 *737:48 *846:76 0
47 *742:31 *846:76 0
48 *744:47 *846:12 8.00842e-05
49 *744:47 *846:24 0
50 *744:47 *846:42 0
51 *744:47 *846:55 0.000207598
52 *770:20 *846:24 0
53 *782:16 *846:55 0
54 *815:20 *2819:B1 0
55 *815:20 *846:76 0
*RES
1 *3390:X *846:4 20 
2 *846:4 *846:12 2.2969 
3 *846:12 *846:14 2.266 
4 *846:14 *846:24 45.4384 
5 *846:24 *2787:B1 20 
6 *846:14 *2791:B1 20 
7 *846:12 *846:42 43.1724 
8 *846:42 *2815:B1 20 
9 *846:4 *846:55 42.2145 
10 *846:55 *2811:B1 20 
11 *846:55 *846:70 6.4169 
12 *846:70 *846:72 20 
13 *846:72 *846:76 1.9055 
14 *846:76 *2803:B1 41.5862 
15 *846:76 *2799:B1 40 
16 *846:72 *2819:B1 43.8831 
17 *846:70 *2795:B1 20.3193 
*END

*D_NET *847 0.00361842
*CONN
*I *2839:B1 I *D sg13g2_a22oi_1
*I *2823:B1 I *D sg13g2_a22oi_1
*I *2827:B1 I *D sg13g2_a22oi_1
*I *2843:B1 I *D sg13g2_a22oi_1
*I *3391:X O *D sg13g2_buf_1
*CAP
1 *2839:B1 7.07775e-05
2 *2823:B1 0
3 *2827:B1 0
4 *2843:B1 0.000183309
5 *3391:X 0
6 *847:35 0.000264161
7 *847:21 0.000519395
8 *847:15 0.000588526
9 *847:4 0.000445824
10 *2843:B1 *848:127 0
11 *2843:B1 *853:10 0
12 *847:21 *871:14 0.000232135
13 *2819:A1 *847:21 0
14 *473:14 *847:35 0
15 *485:10 *847:15 0
16 *746:39 *847:15 0
17 *747:52 *847:21 4.77425e-05
18 *747:52 *847:35 8.00842e-05
19 *747:67 *847:21 0.000192147
20 *748:37 *847:35 2.17231e-05
21 *748:52 *847:35 0.000303527
22 *750:34 *2839:B1 4.77425e-05
23 *750:42 *847:21 0.000285167
24 *753:28 *2839:B1 8.02105e-05
25 *753:41 *2839:B1 3.23472e-05
26 *754:47 *2843:B1 4.77425e-05
27 *754:62 *2843:B1 6.46834e-05
28 *815:20 *847:35 0.000111177
*RES
1 *3391:X *847:4 20 
2 *847:4 *2843:B1 21.6171 
3 *847:4 *847:15 22.3278 
4 *847:15 *847:21 23.2033 
5 *847:21 *847:35 43.0179 
6 *847:35 *2827:B1 20 
7 *847:21 *2823:B1 20 
8 *847:15 *2839:B1 40.7519 
*END

*D_NET *848 0.0151632
*CONN
*I *3391:A I *D sg13g2_buf_1
*I *2783:B1 I *D sg13g2_a22oi_1
*I *2759:B1 I *D sg13g2_a22oi_1
*I *2755:B1 I *D sg13g2_a22oi_1
*I *2834:A2 I *D sg13g2_a21oi_1
*I *2751:B1 I *D sg13g2_a22oi_1
*I *2830:A2 I *D sg13g2_a21oi_1
*I *2779:B1 I *D sg13g2_a22oi_1
*I *3392:X O *D sg13g2_buf_1
*CAP
1 *3391:A 0
2 *2783:B1 0.000103938
3 *2759:B1 8.62073e-05
4 *2755:B1 9.91224e-05
5 *2834:A2 0.000104349
6 *2751:B1 0.00018929
7 *2830:A2 0
8 *2779:B1 0.000431581
9 *3392:X 2.63132e-05
10 *848:127 0.00131817
11 *848:66 0.000381204
12 *848:55 0.000276504
13 *848:47 0.000474457
14 *848:41 0.000292748
15 *848:39 0.000218586
16 *848:37 0.000400872
17 *848:27 0.00208897
18 *848:8 0.000980903
19 *2755:B1 *2759:A2 0
20 *2779:B1 *1174:26 0
21 *2783:B1 *2783:B2 0
22 *2834:A2 *2834:A1 1.54008e-05
23 *848:8 *1174:26 4.76053e-05
24 *848:47 *1032:8 6.34632e-05
25 *848:55 *1032:8 4.76432e-05
26 *848:127 *2843:B2 0
27 *848:127 *882:24 1.53846e-05
28 *2773:A2 *848:55 1.54008e-05
29 *2783:A1 *2783:B1 0.000144233
30 *2783:A1 *848:37 0.00038916
31 *2783:A1 *848:127 0.0001806
32 *2834:B1 *848:55 1.54008e-05
33 *2843:B1 *848:127 0
34 *3394:A *848:8 4.76053e-05
35 *3394:A *848:27 2.17891e-05
36 *90:16 *2834:A2 2.42172e-05
37 *90:16 *848:55 0.000179079
38 *273:8 *848:127 0.00049972
39 *392:30 *2779:B1 4.78356e-05
40 *392:41 *2779:B1 0.00012923
41 *422:10 *2755:B1 0.000111749
42 *422:10 *848:55 0
43 *425:8 *2759:B1 0.000111749
44 *425:14 *848:127 0
45 *440:10 *2779:B1 4.78521e-05
46 *443:10 *848:37 0.00011296
47 *455:10 *848:27 0
48 *460:20 *2779:B1 0
49 *473:14 *848:127 0
50 *476:14 *848:127 0.000180682
51 *478:18 *848:37 0
52 *478:18 *848:55 0.000542793
53 *478:18 *848:127 0
54 *729:33 *2759:B1 0.000144233
55 *734:35 *848:37 0
56 *735:78 *848:127 0.00010454
57 *736:43 *848:27 0.000831281
58 *743:54 *848:127 0
59 *749:20 *848:37 0.000124547
60 *749:20 *848:39 0.000232111
61 *749:20 *848:41 0.000334022
62 *749:20 *848:47 0.000176083
63 *753:28 *848:127 0
64 *754:62 *848:127 0
65 *756:53 *2834:A2 4.77425e-05
66 *756:53 *848:55 0
67 *756:53 *848:66 0.000127802
68 *762:37 *848:37 0.000126202
69 *770:49 *2779:B1 0
70 *797:29 *2779:B1 0
71 *804:20 *848:127 0.000126302
72 *815:20 *848:37 0.000104241
73 *815:20 *848:39 0.000210551
74 *815:20 *848:41 0.000313935
75 *815:20 *848:47 0.000176313
76 *815:20 *848:66 0.000282152
77 *815:20 *848:127 0.00123638
78 *826:20 *2759:B1 0
79 *826:20 *848:55 0
*RES
1 *3392:X *848:8 40.3193 
2 *848:8 *2779:B1 43.5432 
3 *848:8 *848:27 45.8607 
4 *848:27 *848:37 43.1827 
5 *848:37 *848:39 1.0918 
6 *848:39 *848:41 1.5862 
7 *848:41 *848:47 21.3802 
8 *848:47 *848:55 43.2301 
9 *848:55 *2830:A2 20 
10 *848:47 *848:66 41.339 
11 *848:66 *2751:B1 21.4008 
12 *848:66 *2834:A2 21.1021 
13 *848:41 *2755:B1 40.9682 
14 *848:39 *2759:B1 40.9682 
15 *848:37 *2783:B1 40.9682 
16 *848:27 *848:127 35.5027 
17 *848:127 *3391:A 20 
*END

*D_NET *849 0.00351573
*CONN
*I *2834:A1 I *D sg13g2_a21oi_1
*I *3565:X O *D sg13g2_buf_1
*CAP
1 *2834:A1 0.00102013
2 *3565:X 0.000450518
3 *849:8 0.00147064
4 *2834:A1 *1055:18 4.77425e-05
5 gpio_out[0] *2834:A1 0
6 *2834:A2 *2834:A1 1.54008e-05
7 *2834:B1 *2834:A1 0
8 *79:12 *2834:A1 0
9 *97:10 *2834:A1 8.00842e-05
10 *419:16 *849:8 0
11 *481:16 *2834:A1 4.78521e-05
12 *700:36 *2834:A1 0
13 *700:53 *2834:A1 0.000175513
14 *723:62 *849:8 0
15 *731:46 *849:8 0
16 *759:49 *2834:A1 0
17 *759:71 *2834:A1 0
18 *827:12 *849:8 0
19 *827:20 *849:8 0
20 *838:10 *2834:A1 0.000207854
*RES
1 *3565:X *849:8 44.5526 
2 *849:8 *2834:A1 49.2288 
*END

*D_NET *850 0.00967967
*CONN
*I *2739:A2 I *D sg13g2_a22oi_1
*I *2763:A2 I *D sg13g2_a22oi_1
*I *2727:A2 I *D sg13g2_a22oi_1
*I *2719:A2 I *D sg13g2_a22oi_1
*I *2735:A2 I *D sg13g2_a22oi_1
*I *2723:A2 I *D sg13g2_a22oi_1
*I *2731:A2 I *D sg13g2_a22oi_1
*I *2767:A2 I *D sg13g2_a22oi_1
*I *3393:X O *D sg13g2_buf_1
*CAP
1 *2739:A2 9.72294e-05
2 *2763:A2 0
3 *2727:A2 4.76391e-05
4 *2719:A2 9.06954e-05
5 *2735:A2 0.000214253
6 *2723:A2 0
7 *2731:A2 0
8 *2767:A2 0.000537458
9 *3393:X 0.000515276
10 *850:76 0.000401491
11 *850:72 0.00049365
12 *850:62 0.000491088
13 *850:56 0.000227733
14 *850:54 0.000202243
15 *850:42 0.000482382
16 *850:31 0.000572586
17 *850:16 0.000927134
18 *850:14 0.000515276
19 *2719:A2 *1169:22 4.77425e-05
20 *2727:A2 *860:18 4.77425e-05
21 *2735:A2 *1022:10 0.000177071
22 *2767:A2 *3129:RESET_B 0.000272762
23 *2767:A2 *1181:43 0.000144251
24 *850:14 *901:66 0
25 *850:14 *1058:22 8.00842e-05
26 *850:31 *2731:B2 0.000175513
27 *850:31 *3556:A 0.000304425
28 *850:31 *1181:43 0
29 *850:42 *2770:A1 0.000335155
30 *850:42 *3556:A 9.7025e-05
31 *850:42 *1078:28 0
32 *850:54 *935:12 0.000176711
33 *850:54 *946:14 0
34 *850:54 *1025:16 7.91975e-05
35 *850:54 *1078:14 0
36 *850:54 *1078:28 0.000356283
37 *850:54 *1138:14 0
38 *850:62 *934:18 3.15716e-05
39 *850:62 *935:12 0.000390023
40 *850:72 *934:18 0.000178401
41 *850:72 *935:12 0
42 *2723:B2 *850:76 8.00842e-05
43 *2724:A2 *850:76 0
44 *2729:A2 *2719:A2 7.46939e-05
45 *2733:A2 *850:31 0
46 *2735:B1 *2735:A2 0
47 *2767:B1 *2767:A2 0
48 *2767:B1 *850:31 4.77395e-05
49 *403:8 *850:14 0
50 *405:8 *850:14 0
51 *407:8 *2735:A2 0
52 *730:41 *2739:A2 0
53 *778:45 *850:76 6.39133e-05
54 *833:112 *850:14 0.000446352
55 *839:87 *2727:A2 8.00842e-05
56 *844:10 *850:14 0
57 *844:12 *850:14 0
58 *844:100 *850:42 0.000176711
*RES
1 *3393:X *850:14 45.4796 
2 *850:14 *850:16 20 
3 *850:16 *2767:A2 24.8822 
4 *850:16 *850:31 3.914 
5 *850:31 *2731:A2 20 
6 *850:31 *850:42 22.3381 
7 *850:42 *850:54 42.5441 
8 *850:54 *850:56 20 
9 *850:56 *850:62 22.369 
10 *850:62 *850:72 22.266 
11 *850:72 *850:76 1.9982 
12 *850:76 *2723:A2 20 
13 *850:76 *2735:A2 22.1836 
14 *850:72 *2719:A2 20.9682 
15 *850:62 *2727:A2 40.5356 
16 *850:56 *2763:A2 20 
17 *850:42 *2739:A2 40.7519 
*END

*D_NET *851 0.0113474
*CONN
*I *2771:A2 I *D sg13g2_a22oi_1
*I *2759:A2 I *D sg13g2_a22oi_1
*I *2755:A2 I *D sg13g2_a22oi_1
*I *2751:A2 I *D sg13g2_a22oi_1
*I *2743:A2 I *D sg13g2_a22oi_1
*I *2747:A2 I *D sg13g2_a22oi_1
*I *2775:A2 I *D sg13g2_a22oi_1
*I *3393:A I *D sg13g2_buf_1
*I *3394:X O *D sg13g2_buf_1
*CAP
1 *2771:A2 0
2 *2759:A2 4.90282e-05
3 *2755:A2 0
4 *2751:A2 2.98375e-05
5 *2743:A2 0
6 *2747:A2 0
7 *2775:A2 0
8 *3393:A 0
9 *3394:X 0.000410675
10 *851:79 6.51084e-05
11 *851:66 0.000596139
12 *851:58 0.00112599
13 *851:48 0.000936779
14 *851:42 0.000708343
15 *851:38 0.000499052
16 *851:30 0.000439899
17 *851:24 0.00031624
18 *851:20 0.000904142
19 *851:8 0.00125459
20 *2751:A2 *946:20 1.54008e-05
21 *851:8 *1174:26 4.77425e-05
22 *851:20 *2783:B2 0.000336166
23 *851:20 *1174:32 7.48466e-05
24 *851:30 *1032:8 8.0216e-05
25 *851:42 *1039:16 0
26 *851:48 *3565:A 8.00842e-05
27 *851:48 *3567:A 0
28 *851:48 *1039:16 0.000393683
29 *851:48 *1069:12 0
30 *851:58 *3565:A 4.77425e-05
31 *851:58 *1071:18 0
32 *851:66 *2744:B1 0
33 *851:66 *901:66 0
34 *851:66 *1071:18 0
35 *851:79 *1075:12 4.77425e-05
36 gpio_out[0] *2751:A2 4.77425e-05
37 *2743:A1 *851:38 0
38 *2743:A1 *851:42 0
39 *2751:A1 *851:38 0.000229428
40 *2755:B1 *2759:A2 0
41 *3394:A *851:8 0
42 *3666:A *851:38 0
43 *97:34 *2759:A2 0
44 *392:41 *851:20 0
45 *416:10 *851:79 0.000124547
46 *417:10 *851:79 0.000124547
47 *419:8 *851:38 7.30101e-05
48 *434:14 *851:8 0
49 *437:14 *851:66 0.000536221
50 *727:24 *851:24 0.000103073
51 *727:24 *851:30 0.000334041
52 *727:24 *851:38 0
53 *727:24 *851:42 0
54 *727:24 *851:48 0
55 *732:35 *851:20 7.30101e-05
56 *732:41 *851:20 0
57 *756:53 *851:58 0.000646391
58 *758:60 *851:42 0
59 *760:26 *851:8 0.000144861
60 *762:31 *851:20 0
61 *762:50 *851:20 0
62 *770:49 *851:20 0.00012778
63 *798:10 *851:48 0
64 *804:12 *851:20 0
65 *815:14 *851:58 0
66 *826:14 *851:20 0.000275572
67 *826:20 *2759:A2 4.77425e-05
68 *833:112 *851:66 0
*RES
1 *3394:X *851:8 23.914 
2 *851:8 *851:20 48.5078 
3 *851:20 *851:24 20.5974 
4 *851:24 *851:30 22.1218 
5 *851:30 *851:38 22.5029 
6 *851:38 *851:42 1.9055 
7 *851:42 *851:48 24.5938 
8 *851:48 *851:58 44.7895 
9 *851:58 *851:66 45.5208 
10 *851:66 *3393:A 20 
11 *851:58 *851:79 40.9167 
12 *851:79 *2775:A2 20 
13 *851:48 *2747:A2 20 
14 *851:42 *2743:A2 40 
15 *851:38 *2751:A2 40.3193 
16 *851:30 *2755:A2 20 
17 *851:24 *2759:A2 40.4476 
18 *851:8 *2771:A2 20 
*END

*D_NET *852 0.00788728
*CONN
*I *2815:A2 I *D sg13g2_a22oi_1
*I *2791:A2 I *D sg13g2_a22oi_1
*I *2787:A2 I *D sg13g2_a22oi_1
*I *2811:A2 I *D sg13g2_a22oi_1
*I *2795:A2 I *D sg13g2_a22oi_1
*I *2799:A2 I *D sg13g2_a22oi_1
*I *2803:A2 I *D sg13g2_a22oi_1
*I *2783:A2 I *D sg13g2_a22oi_1
*I *3395:X O *D sg13g2_buf_1
*CAP
1 *2815:A2 0
2 *2791:A2 0
3 *2787:A2 0
4 *2811:A2 0
5 *2795:A2 0
6 *2799:A2 3.73996e-05
7 *2803:A2 6.71983e-05
8 *2783:A2 9.9333e-05
9 *3395:X 0.00016916
10 *852:93 0.000466172
11 *852:83 0.000968607
12 *852:73 0.000642519
13 *852:26 0.000339346
14 *852:24 0.00034703
15 *852:18 0.000927429
16 *852:14 0.00101386
17 *852:10 0.000532491
18 *2783:A2 *871:14 0
19 *2803:A2 *2783:B2 0
20 *852:26 *871:14 0
21 *852:83 *3153:RESET_B 4.77425e-05
22 gpio_out[12] *2783:A2 0
23 *2783:A1 *2783:A2 0
24 *2783:A1 *2803:A2 0
25 *2803:B1 *852:24 0.000180624
26 *2803:B1 *852:26 0
27 *3639:A *2783:A2 0
28 *3650:A *852:18 1.54008e-05
29 *99:14 *2803:A2 0
30 *391:12 *852:14 0
31 *440:10 *852:93 0.000181387
32 *449:8 *852:83 0.000180331
33 *452:10 *852:14 0
34 *452:10 *852:18 0
35 *458:18 *852:83 0
36 *458:18 *852:93 0
37 *464:10 *852:14 0
38 *464:10 *852:73 0
39 *716:16 *852:83 1.54008e-05
40 *727:24 *2783:A2 0
41 *727:24 *852:18 8.00842e-05
42 *727:24 *852:26 0
43 *737:48 *852:83 0.000561594
44 *741:32 *2803:A2 0
45 *741:32 *852:18 0
46 *741:32 *852:93 0.000242089
47 *742:31 *2783:A2 0
48 *742:31 *852:24 0
49 *742:31 *852:26 0
50 *744:47 *852:10 0
51 *744:47 *852:93 0
52 *760:26 *2803:A2 1.54556e-05
53 *770:6 *852:18 0
54 *770:20 *852:93 8.02031e-05
55 *782:16 *852:18 0
56 *793:12 *852:83 0.00036914
57 *804:12 *852:14 0
58 *804:12 *852:73 0
59 *827:20 *852:83 0
60 *827:20 *852:93 0
61 *846:24 *852:83 0
62 *846:24 *852:93 0
63 *846:42 *852:10 0
64 *846:42 *852:73 0.000127744
65 *846:76 *852:24 0.000179542
*RES
1 *3395:X *852:10 41.5038 
2 *852:10 *852:14 21.8334 
3 *852:14 *852:18 6.7568 
4 *852:18 *852:24 21.9055 
5 *852:24 *852:26 1.5862 
6 *852:26 *2783:A2 40.9317 
7 *852:26 *2803:A2 40.7467 
8 *852:24 *2799:A2 40.3193 
9 *852:18 *2795:A2 20 
10 *852:14 *2811:A2 20 
11 *852:10 *852:73 21.339 
12 *852:73 *852:83 45.4384 
13 *852:83 *852:93 45.0058 
14 *852:93 *2787:A2 20 
15 *852:83 *2791:A2 20 
16 *852:73 *2815:A2 20 
*END

*D_NET *853 0.00602592
*CONN
*I *2843:A2 I *D sg13g2_a22oi_1
*I *2839:A2 I *D sg13g2_a22oi_1
*I *2827:A2 I *D sg13g2_a22oi_1
*I *2823:A2 I *D sg13g2_a22oi_1
*I *2819:A2 I *D sg13g2_a22oi_1
*I *3396:X O *D sg13g2_buf_1
*CAP
1 *2843:A2 0
2 *2839:A2 0.000237797
3 *2827:A2 0
4 *2823:A2 0
5 *2819:A2 4.99891e-05
6 *3396:X 0.000205092
7 *853:42 0.000393396
8 *853:32 0.000631192
9 *853:14 0.000203749
10 *853:12 0.000300754
11 *853:10 0.000352086
12 *2839:A2 *871:14 0.00011229
13 *853:10 *1070:14 0.000284793
14 *853:12 *1070:14 0.000125347
15 *853:42 *1056:14 0
16 *2843:B1 *853:10 0
17 *3654:A *853:42 0
18 *425:14 *853:42 0.000338455
19 *470:10 *853:42 0.000566298
20 *473:14 *853:10 0.000262174
21 *473:14 *853:12 0.000422514
22 *473:14 *853:14 0.000284138
23 *481:24 *853:42 0.000371345
24 *743:54 *853:10 0.000208983
25 *746:39 *853:14 0
26 *747:67 *2839:A2 0
27 *750:34 *2839:A2 7.99601e-05
28 *750:34 *853:42 0.000371345
29 *754:47 *853:10 1.54008e-05
30 *754:62 *853:10 8.00842e-05
31 *754:62 *853:12 0
32 *815:26 *2819:A2 7.49652e-05
33 *815:26 *853:14 5.37768e-05
*RES
1 *3396:X *853:10 42.7398 
2 *853:10 *853:12 2.0806 
3 *853:12 *853:14 1.8334 
4 *853:14 *2819:A2 40.5974 
5 *853:14 *2823:A2 40 
6 *853:12 *853:32 20 
7 *853:32 *853:42 45.3766 
8 *853:42 *2827:A2 20 
9 *853:32 *2839:A2 22.2866 
10 *853:10 *2843:A2 40 
*END

*D_NET *854 0.015511
*CONN
*I *2835:A2 I *D sg13g2_a22oi_1
*I *3396:A I *D sg13g2_buf_1
*I *2831:A2 I *D sg13g2_a22oi_1
*I *2807:A2 I *D sg13g2_a22oi_1
*I *3395:A I *D sg13g2_buf_1
*I *3397:X O *D sg13g2_buf_1
*CAP
1 *2835:A2 0
2 *3396:A 0
3 *2831:A2 0
4 *2807:A2 0.000106576
5 *3395:A 0
6 *3397:X 0.000465333
7 *854:65 0.000894898
8 *854:30 0.000966697
9 *854:24 0.00220459
10 *854:14 0.00240854
11 *854:10 0.000847655
12 *2807:A2 *1185:28 3.15716e-05
13 *854:10 *906:8 0.000532586
14 *854:10 *1188:37 0.000690661
15 *854:10 *1192:42 0.000712295
16 *854:14 *1188:37 0.000977865
17 *854:14 *1191:30 0
18 *854:14 *1192:42 7.48466e-05
19 *854:24 *1174:68 0.000200304
20 *854:24 *1185:34 0
21 *854:30 *882:24 0.00124299
22 *854:65 *2831:B2 4.77863e-05
23 *854:65 *1174:68 0.000176098
24 *2808:A1 *854:24 0.000660336
25 *2831:A1 *854:24 0
26 *2832:A1 *854:65 0.000235394
27 *2836:A1 *854:10 0.000176498
28 *3181:CLK *854:10 0
29 *3397:A *854:10 0
30 *3633:A *854:65 0
31 *391:12 *854:24 0
32 *391:12 *854:30 0
33 *392:18 *854:30 0
34 *449:8 *854:30 0
35 *461:10 *2807:A2 0
36 *461:10 *854:30 0
37 *476:20 *854:65 0.000870153
38 *488:10 *854:65 0
39 *488:24 *854:65 2.21831e-05
40 *703:40 *854:65 0
41 *722:73 *854:65 0.000209544
42 *726:46 *854:24 0
43 *743:54 *2807:A2 0
44 *743:54 *854:65 0.000435846
45 *744:47 *854:30 0
46 *781:8 *854:24 4.75229e-05
47 *827:20 *854:30 0
48 *832:54 *2807:A2 0.00012871
49 *843:74 *854:30 0
50 *846:14 *854:30 0.000143563
*RES
1 *3397:X *854:10 46.8804 
2 *854:10 *854:14 24.5526 
3 *854:14 *854:24 31.0725 
4 *854:24 *854:30 30.4648 
5 *854:30 *3395:A 20 
6 *854:24 *2807:A2 41.1794 
7 *854:14 *2831:A2 20 
8 *854:14 *854:65 49.8159 
9 *854:65 *3396:A 20 
10 *854:10 *2835:A2 40 
*END

*D_NET *855 0.016879
*CONN
*I *2968:C I *D sg13g2_nand4_1
*I *2927:C I *D sg13g2_nand4_1
*I *2923:C I *D sg13g2_nand4_1
*I *2939:C I *D sg13g2_nand4_1
*I *2935:C I *D sg13g2_nand4_1
*I *3053:B I *D sg13g2_nor3_1
*I *2972:C I *D sg13g2_nand4_1
*I *2960:C I *D sg13g2_nand4_1
*I *3398:X O *D sg13g2_buf_1
*CAP
1 *2968:C 0.000596038
2 *2927:C 0.000872535
3 *2923:C 0.000957281
4 *2939:C 0
5 *2935:C 0.000132284
6 *3053:B 3.25478e-05
7 *2972:C 0.000293223
8 *2960:C 0.000217896
9 *3398:X 0.000322973
10 *855:82 0.00321268
11 *855:62 0.000932094
12 *855:49 0.000832358
13 *855:47 0.00210093
14 *855:41 0.00190803
15 *855:22 0.00099222
16 *2923:C *2923:B 4.79014e-05
17 *2923:C *3420:A 0.000112399
18 *2923:C *879:26 0.000111728
19 *2923:C *885:76 0
20 *2927:C *879:26 0
21 *2935:C *879:43 7.51285e-05
22 *2935:C *879:51 0
23 *2935:C *899:60 0
24 *2960:C *2960:D 0.000112289
25 *2968:C *2968:D 0.000112289
26 *2968:C *856:67 0
27 *2968:C *892:23 0
28 *2968:C *892:34 0
29 *2972:C *865:40 0.000482179
30 *2972:C *880:70 1.54008e-05
31 *3053:B *3053:A 0
32 *855:22 *856:67 0
33 *855:41 *856:67 0
34 *855:41 *865:40 0.000159096
35 *855:41 *892:23 0
36 *855:62 *879:41 0.000446767
37 *855:62 *879:43 0.000212127
38 *855:62 *899:54 0
39 *855:62 *899:60 0
40 *2928:A2 *2927:C 4.77425e-05
41 *2945:A *2927:C 0
42 *2969:A2 *2968:C 0
43 *2973:A2 *2972:C 0
44 *3057:A *2923:C 0
45 *3057:B *2923:C 0
46 *3099:B1 *2968:C 0
47 *3235:CLK *2923:C 0
48 *3235:CLK *2927:C 0
49 *3365:A *855:82 0
50 *3541:A *2972:C 1.51e-05
51 *304:10 *2927:C 0.00024222
52 *304:10 *855:82 0
53 *360:49 *2935:C 0.00012816
54 *386:34 *855:47 0.000246843
55 *546:20 *3053:B 0
56 *546:20 *855:62 0
57 *546:127 *2923:C 0
58 *576:16 *2960:C 0
59 *576:16 *2972:C 0
60 *576:16 *855:22 0
61 *646:10 *855:82 0
62 *671:122 *2960:C 0
63 *671:137 *2972:C 0.000337022
64 *671:137 *855:22 0
65 *671:137 *855:41 0.00012816
66 *697:59 *2923:C 0
67 *697:75 *2923:C 0
68 *697:125 *2927:C 0
69 *720:41 *2968:C 0
70 *722:39 *3053:B 0
71 *722:39 *855:62 0
72 *723:54 *2923:C 0
73 *723:54 *2927:C 0
74 *790:18 *2935:C 0
75 *806:49 *2927:C 0
76 *819:16 *855:82 0.000443366
77 *819:58 *2927:C 0
*RES
1 *3398:X *2960:C 41.9982 
2 *3398:X *855:22 40.7519 
3 *855:22 *2972:C 43.7904 
4 *855:22 *855:41 5.5414 
5 *855:41 *855:47 48.9713 
6 *855:47 *855:49 20 
7 *855:49 *3053:B 20.309 
8 *855:49 *855:62 28.5799 
9 *855:62 *2935:C 41.5862 
10 *855:62 *2939:C 40 
11 *855:47 *855:82 33.4518 
12 *855:82 *2923:C 28.7309 
13 *855:82 *2927:C 27.8407 
14 *855:41 *2968:C 45.2118 
*END

*D_NET *856 0.0299681
*CONN
*I *2980:C I *D sg13g2_nand4_1
*I *2976:C I *D sg13g2_nand4_1
*I *2964:C I *D sg13g2_nand4_1
*I *2984:C I *D sg13g2_nand4_1
*I *2947:C I *D sg13g2_nand4_1
*I *3398:A I *D sg13g2_buf_1
*I *2956:C I *D sg13g2_nand4_1
*I *3086:B I *D sg13g2_nor3_1
*I *3399:X O *D sg13g2_buf_1
*CAP
1 *2980:C 0.000497267
2 *2976:C 8.86358e-05
3 *2964:C 2.88345e-05
4 *2984:C 0
5 *2947:C 0
6 *3398:A 0
7 *2956:C 0.00010219
8 *3086:B 0
9 *3399:X 2.71864e-05
10 *856:137 0.00113337
11 *856:118 0.00120197
12 *856:94 0.00159715
13 *856:79 0.00127642
14 *856:67 0.00403264
15 *856:56 0.00133756
16 *856:46 0.00113825
17 *856:31 0.0015262
18 *856:22 8.30107e-05
19 *856:14 0.00111293
20 *856:10 0.000829868
21 *856:8 0.000739797
22 *2956:C *3088:D 0.000176176
23 *2956:C *862:61 0.000144289
24 *2956:C *862:76 4.79124e-05
25 *2964:C *862:16 4.79124e-05
26 *2964:C *862:25 1.54556e-05
27 *2964:C *881:59 4.78356e-05
28 *2976:C *2976:D 1.54008e-05
29 *2976:C *862:104 8.00842e-05
30 *2980:C *2980:B 4.78356e-05
31 *2980:C *881:98 1.54556e-05
32 *2980:C *881:115 4.78356e-05
33 *856:8 *3408:A 1.54556e-05
34 *856:8 *861:16 5.19598e-05
35 *856:10 *3096:D 0
36 *856:10 *873:14 0.000125569
37 *856:10 *881:29 0
38 *856:10 *881:59 0
39 *856:14 *862:46 0.00110285
40 *856:14 *884:33 0.00113392
41 *856:22 *3086:A 0
42 *856:31 *862:46 0.000327398
43 *856:31 *884:33 0.000277878
44 *856:46 *3089:B1 0.000440991
45 *856:46 *884:75 0.000435359
46 *856:46 *891:22 0.00037105
47 *856:46 *891:37 5.30319e-05
48 *856:56 *866:76 1.55212e-05
49 *856:67 *3091:B1 0
50 *856:67 *865:40 0.000285453
51 *856:67 *892:34 0
52 *856:67 *1181:8 0
53 *856:79 *3101:B1 0
54 *856:79 *879:37 1.54008e-05
55 *856:79 *892:51 0
56 *856:94 *2985:B1 1.51e-05
57 *856:94 *3255:RESET_B 0
58 *856:94 *866:93 0
59 *856:94 *885:64 0
60 *856:94 *889:58 0
61 *856:94 *947:10 0.000145124
62 *856:94 *1164:29 1.54556e-05
63 *856:94 *1164:42 6.47875e-05
64 *856:118 *862:100 7.30101e-05
65 *856:118 *866:18 0
66 *856:118 *873:14 0.00016193
67 *856:118 *873:26 7.34842e-05
68 *856:118 *881:29 0
69 *856:118 *881:78 0.000244504
70 *856:118 *889:35 0
71 *856:137 *861:26 0
72 *856:137 *862:100 0.000127305
73 *856:137 *873:26 0.0011322
74 *2948:A2 *856:79 0
75 *2968:C *856:67 0
76 *3086:C *856:22 1.54285e-05
77 *3255:CLK *856:94 0.000403789
78 *3309:CLK *856:22 0
79 *3315:CLK *2980:C 0
80 *3341:A *856:94 0
81 *351:14 *856:31 0
82 *357:26 *2980:C 4.6793e-05
83 *357:28 *856:79 0.000727639
84 *360:30 *856:46 0
85 *576:16 *856:56 0
86 *576:16 *856:67 0
87 *595:10 *856:94 0
88 *671:14 *856:10 0
89 *671:14 *856:118 0
90 *671:118 *856:46 0
91 *671:122 *856:46 0.000822258
92 *671:137 *856:56 0
93 *671:137 *856:67 0
94 *675:8 *856:67 0.000287256
95 *687:10 *856:118 2.16263e-05
96 *717:16 *856:31 0
97 *720:8 *856:67 0.000554181
98 *720:8 *856:94 0.000847946
99 *720:41 *856:79 0
100 *722:10 *2980:C 0
101 *723:32 *856:94 0
102 *759:39 *856:94 0
103 *805:59 *856:94 0.000241132
104 *808:16 *2980:C 0.000176848
105 *808:27 *856:79 0.000533673
106 *808:59 *856:79 0.000614577
107 *817:50 *856:46 0
108 *817:69 *856:46 0.000530789
109 *817:75 *856:67 0
110 *855:22 *856:67 0
111 *855:41 *856:67 0
*RES
1 *3399:X *856:8 40.3193 
2 *856:8 *856:10 1.8334 
3 *856:10 *856:14 27.4572 
4 *856:14 *856:22 40.6695 
5 *856:22 *3086:B 20 
6 *856:14 *856:31 24.8616 
7 *856:31 *2956:C 41.1845 
8 *856:31 *856:46 30.8665 
9 *856:46 *856:56 41.9467 
10 *856:56 *3398:A 20 
11 *856:56 *856:67 32.2261 
12 *856:67 *856:79 33.9874 
13 *856:79 *2947:C 20 
14 *856:67 *856:94 38.1486 
15 *856:94 *2984:C 20 
16 *856:10 *2964:C 40.3193 
17 *856:8 *856:118 44.9749 
18 *856:118 *2976:C 40.8858 
19 *856:118 *856:137 47.9928 
20 *856:137 *2980:C 44.2848 
*END

*D_NET *857 0.0131813
*CONN
*I *2918:C I *D sg13g2_nand4_1
*I *2906:C I *D sg13g2_nand4_1
*I *2914:C I *D sg13g2_nand4_1
*I *2910:C I *D sg13g2_nand4_1
*I *2898:C I *D sg13g2_nand4_1
*I *2902:C I *D sg13g2_nand4_1
*I *2894:C I *D sg13g2_nand4_1
*I *2890:C I *D sg13g2_nand4_1
*I *3400:X O *D sg13g2_buf_1
*CAP
1 *2918:C 0.000536344
2 *2906:C 0.000774899
3 *2914:C 0.000208338
4 *2910:C 0
5 *2898:C 0
6 *2902:C 0.000114055
7 *2894:C 2.60565e-05
8 *2890:C 3.57588e-05
9 *3400:X 0
10 *857:84 0.00162874
11 *857:66 0.000257013
12 *857:62 0.000931022
13 *857:51 0.00140185
14 *857:25 0.000200556
15 *857:14 0.00032972
16 *857:4 0.00107052
17 *2894:C *867:8 4.77425e-05
18 *2894:C *876:54 4.77425e-05
19 *2902:C *2902:D 4.77425e-05
20 *2902:C *876:54 0.000286947
21 *2906:C *2906:B 3.24568e-05
22 *2906:C *3275:D 0.000242138
23 *2906:C *868:38 1.54556e-05
24 *2906:C *894:57 0
25 *2906:C *1178:31 0
26 *2906:C *1179:12 0
27 *2914:C *2910:B 4.78028e-05
28 *2914:C *2910:D 0
29 *2914:C *877:50 1.54556e-05
30 *2914:C *877:52 0.000209763
31 *2918:C *2918:B 0.000143709
32 *2918:C *2918:D 1.54008e-05
33 *2918:C *1178:25 0
34 *857:14 *3589:A 0.000111568
35 *857:14 *3590:A 0
36 *857:14 *861:38 0.000130055
37 *857:14 *867:8 0
38 *857:14 *894:81 0
39 *857:14 *1101:12 0.000111568
40 *857:25 *873:32 7.61961e-05
41 *857:25 *876:54 7.62389e-05
42 *857:51 *3589:A 0.000322045
43 *857:51 *861:53 0.00041753
44 *857:51 *861:74 8.00472e-05
45 *857:51 *873:51 0
46 *857:51 *1101:12 0.00027267
47 *857:62 *2915:B1 0.000274452
48 *857:62 *861:74 0
49 *857:62 *873:51 0
50 *857:62 *873:55 0
51 *857:62 *894:38 0
52 *857:66 *2910:B 8.02105e-05
53 *857:66 *877:52 0
54 *857:66 *877:56 0
55 *2898:A *857:51 0
56 *2898:A *857:62 0
57 *2910:A *2918:C 0.000660556
58 *2910:A *857:84 0.000926962
59 *2915:A2 *2914:C 0
60 *2918:A *2918:C 0
61 *3021:A2 *2906:C 0
62 *3042:A *2918:C 0.000212215
63 *3277:CLK *2918:C 0
64 *3277:CLK *857:84 0
65 *325:8 *857:62 0
66 *364:6 *2918:C 0
67 *368:6 *2906:C 0
68 *379:22 *2918:C 2.21754e-05
69 *526:10 *857:14 0.000183395
70 *532:12 *2902:C 0.000318339
71 *532:12 *857:25 0.000237794
72 *809:55 *857:51 0
73 *811:49 *2914:C 0
74 *821:42 *2906:C 0
*RES
1 *3400:X *857:4 20 
2 *857:4 *857:14 42.5647 
3 *857:14 *2890:C 20.3193 
4 *857:14 *857:25 21.0918 
5 *857:25 *2894:C 40.3193 
6 *857:25 *2902:C 41.9055 
7 *857:4 *857:51 8.7756 
8 *857:51 *2898:C 20 
9 *857:51 *857:62 25.8916 
10 *857:62 *857:66 20.5356 
11 *857:66 *2910:C 20 
12 *857:66 *2914:C 22.2866 
13 *857:62 *857:84 4.7998 
14 *857:84 *2906:C 47.9104 
15 *857:84 *2918:C 46.6744 
*END

*D_NET *858 0.0136712
*CONN
*I *2877:C I *D sg13g2_nand4_1
*I *2885:C I *D sg13g2_nand4_1
*I *2861:C I *D sg13g2_nand4_1
*I *2873:C I *D sg13g2_nand4_1
*I *2857:C I *D sg13g2_nand4_1
*I *2987:B I *D sg13g2_nor3_1
*I *2865:C I *D sg13g2_nand4_1
*I *2869:C I *D sg13g2_nand4_1
*I *3401:X O *D sg13g2_buf_1
*CAP
1 *2877:C 0
2 *2885:C 5.93215e-05
3 *2861:C 0
4 *2873:C 0
5 *2857:C 0
6 *2987:B 0
7 *2865:C 4.77866e-05
8 *2869:C 0.000275646
9 *3401:X 0.000469885
10 *858:112 0.000163523
11 *858:97 0.000602796
12 *858:81 0.000338978
13 *858:75 0.00132104
14 *858:67 0.00174399
15 *858:56 0.000758618
16 *858:41 0.000716919
17 *858:8 0.000453037
18 *2865:C *869:8 4.78195e-05
19 *2865:C *870:23 0
20 *2865:C *874:31 1.54008e-05
21 *2869:C *869:29 4.77425e-05
22 *858:8 *874:16 0
23 *858:41 *2987:A 0
24 *858:41 *859:33 0.000436445
25 *858:56 *2987:A 0
26 *858:56 *1178:31 0
27 *858:56 *1179:32 0
28 *858:67 *3427:A 8.00842e-05
29 *858:67 *887:8 0.000111919
30 *858:67 *888:35 0.000340704
31 *858:67 *896:25 0.000234224
32 *858:67 *1178:31 0
33 *858:67 *1179:32 0
34 *858:75 *2861:D 2.19738e-05
35 *858:75 *2882:B1 0
36 *858:75 *2988:B1 0
37 *858:75 *3257:RESET_B 0
38 *858:75 *1187:43 0
39 *858:97 *875:52 0.000177241
40 *858:97 *888:35 0.000604442
41 *858:112 *2877:B 4.77425e-05
42 *858:112 *869:31 0.00028243
43 *858:112 *869:33 7.50805e-05
44 *858:112 *887:42 0
45 *2855:C *858:56 0
46 *2865:A *2869:C 0.000339409
47 *2866:A1 *858:41 0.000209637
48 *2882:A1 *858:75 0.000660844
49 *2882:A2 *858:75 0
50 *2885:A *858:97 0
51 *2885:A *858:112 0.000229431
52 *2886:A2 *858:97 0
53 *2987:C *858:41 1.54556e-05
54 *2987:C *858:56 0.000112716
55 *374:26 *858:112 0
56 *378:30 *858:75 7.35388e-05
57 *379:22 *858:41 0
58 *498:10 *858:56 0
59 *504:8 *858:8 0
60 *520:16 *858:67 0
61 *596:8 *858:56 7.9556e-05
62 *596:18 *858:56 0.000181192
63 *596:33 *858:56 7.51285e-05
64 *599:10 *858:75 0.000498922
65 *711:10 *858:97 0.000445347
66 *790:18 *858:81 0.000880935
67 *812:71 *858:97 0
68 *813:51 *858:81 0
69 *814:20 *858:56 0.000394248
*RES
1 *3401:X *858:8 41.339 
2 *858:8 *2869:C 43.1518 
3 *858:8 *2865:C 40.5356 
4 *3401:X *858:41 24.0479 
5 *858:41 *2987:B 20 
6 *858:41 *858:56 44.2024 
7 *858:56 *2857:C 20 
8 *858:56 *858:67 24.3157 
9 *858:67 *858:75 29.6723 
10 *858:75 *858:81 44.0582 
11 *858:81 *2873:C 20 
12 *858:75 *2861:C 20 
13 *858:67 *858:97 24.8719 
14 *858:97 *2885:C 20.5356 
15 *858:97 *858:112 42.1218 
16 *858:112 *2877:C 20 
*END

*D_NET *859 0.0141165
*CONN
*I *2951:C I *D sg13g2_nand4_1
*I *2881:C I *D sg13g2_nand4_1
*I *3401:A I *D sg13g2_buf_1
*I *2943:C I *D sg13g2_nand4_1
*I *3402:X O *D sg13g2_buf_1
*CAP
1 *2951:C 0.00044543
2 *2881:C 0.000241683
3 *3401:A 0
4 *2943:C 0.000157121
5 *3402:X 0.000473448
6 *859:33 0.00121249
7 *859:19 0.00387986
8 *859:6 0.00261082
9 *2881:C *870:45 7.9768e-05
10 *2881:C *870:56 3.24351e-05
11 *2881:C *875:52 0.000112203
12 *2881:C *875:59 1.54556e-05
13 *2881:C *898:84 0
14 *2943:C *864:38 4.79124e-05
15 *2943:C *864:49 0.000144942
16 *2943:C *878:40 1.54556e-05
17 *2943:C *878:49 0
18 *2951:C *2951:B 8.00842e-05
19 *2951:C *864:49 0.000759596
20 *2951:C *878:49 0.000597713
21 *2951:C *878:66 0.000226567
22 *859:6 *864:49 0
23 *859:6 *878:49 4.74263e-05
24 *859:19 *861:78 0
25 *859:19 *872:23 0
26 *859:19 *888:18 0
27 *859:19 *889:64 0.000177891
28 *859:19 *898:84 0
29 *859:33 *2989:D 8.00842e-05
30 *859:33 *874:31 0.000501359
31 *859:33 *874:40 0
32 *859:33 *875:52 0
33 *859:33 *896:47 0
34 *2866:A1 *859:33 0
35 *2987:C *859:33 0.000112716
36 *3346:A *859:33 8.00842e-05
37 *290:10 *859:19 0
38 *379:22 *859:33 0
39 *514:8 *2881:C 0
40 *516:8 *2881:C 0.000497881
41 *516:8 *859:19 0.000337915
42 *596:18 *859:19 0.000340906
43 *697:194 *859:19 0
44 *697:230 *859:19 0
45 *697:248 *859:19 0
46 *711:25 *859:33 0.000370837
47 *812:37 *859:33 0
48 *812:71 *859:33 0
49 *858:41 *859:33 0.000436445
*RES
1 *3402:X *859:6 20.3193 
2 *859:6 *2943:C 21.5347 
3 *859:6 *859:19 41.6094 
4 *859:19 *859:33 32.4218 
5 *859:33 *3401:A 20 
6 *859:19 *2881:C 43.0797 
7 *3402:X *2951:C 45.5105 
*END

*D_NET *860 0.00435612
*CONN
*I *2727:B2 I *D sg13g2_a22oi_1
*I *3566:X O *D sg13g2_buf_1
*CAP
1 *2727:B2 0
2 *3566:X 7.83625e-05
3 *860:18 0.00148728
4 *860:8 0.00156564
5 *860:8 *934:10 0.000143413
6 *860:8 *1067:16 0.000143608
7 *860:18 *3562:A 0
8 *860:18 *1030:10 0
9 *860:18 *1035:14 0
10 *860:18 *1059:10 0
11 *2725:A2 *860:18 0
12 *2727:A2 *860:18 4.77425e-05
13 *3448:A *860:18 0
14 *397:14 *860:18 0.00011247
15 *398:8 *860:18 0
16 *778:10 *860:18 4.77866e-05
17 *828:99 *860:18 0.000714419
18 *839:87 *860:18 1.54008e-05
*RES
1 *3566:X *860:8 40.9682 
2 *860:8 *860:18 35.0895 
3 *860:18 *2727:B2 20 
*END

*D_NET *861 0.0331249
*CONN
*I *3399:A I *D sg13g2_buf_1
*I *2931:C I *D sg13g2_nand4_1
*I *3402:A I *D sg13g2_buf_1
*I *3020:B I *D sg13g2_nor3_1
*I *3400:A I *D sg13g2_buf_1
*I *3403:X O *D sg13g2_buf_1
*CAP
1 *3399:A 0
2 *2931:C 0
3 *3402:A 0
4 *3020:B 0
5 *3400:A 0
6 *3403:X 0.000460916
7 *861:99 0.000306121
8 *861:91 0.000948339
9 *861:78 0.00169123
10 *861:74 0.00390727
11 *861:61 0.000407381
12 *861:53 0.00377459
13 *861:38 0.00148947
14 *861:32 0.00104989
15 *861:26 0.00238554
16 *861:16 0.00277708
17 *861:16 *3408:A 0
18 *861:16 *873:14 7.68393e-05
19 *861:16 *881:59 0.000370979
20 *861:26 *862:16 0.0001273
21 *861:26 *873:26 0.0001122
22 *861:26 *884:116 0
23 *861:26 *889:14 0
24 *861:26 *1164:22 0
25 *861:38 *2903:B1 7.57681e-05
26 *861:38 *3590:A 7.59438e-05
27 *861:38 *873:32 0
28 *861:38 *894:81 0.000161447
29 *861:38 *1068:8 7.30101e-05
30 *861:38 *1101:12 0.00010806
31 *861:38 *1104:10 0.000390675
32 *861:53 *2888:A 0
33 *861:53 *3590:A 0.000341888
34 *861:53 *873:51 0
35 *861:53 *886:26 0
36 *861:53 *1101:12 0.000229067
37 *861:61 *2708:A 0.000288205
38 *861:74 *2888:A 0
39 *861:74 *2915:B1 0
40 *861:74 *3221:RESET_B 0
41 *861:74 *3434:A 0.00108319
42 *861:74 *883:86 0
43 *861:74 *894:12 0
44 *861:74 *895:6 4.7803e-05
45 *861:78 *3075:B 0
46 *861:78 *872:23 0
47 *861:78 *1165:49 0
48 *861:91 *864:49 0.00063006
49 *861:99 *864:74 5.00526e-05
50 *861:99 *864:93 3.23417e-05
51 *2868:A1 *861:74 8.02102e-05
52 *2868:B1 *861:74 0.00037191
53 *2871:A *861:74 0
54 *2898:A *861:61 0
55 *2898:A *861:74 0.000469379
56 *2911:A1 *861:74 0
57 *2911:A2 *861:74 0
58 *3060:A1 *861:99 0.000266962
59 *3211:CLK *861:26 0.000215703
60 *3403:A *861:16 0
61 *3403:A *861:26 1.53931e-05
62 *290:10 *861:78 0
63 *291:8 *861:26 0.00137045
64 *291:8 *861:38 0
65 *356:8 *861:38 0
66 *358:33 *861:91 0.000371849
67 *361:18 *861:78 0
68 *369:10 *861:61 0
69 *496:37 *861:74 0
70 *522:10 *861:26 7.35528e-05
71 *526:10 *861:38 0
72 *539:12 *861:74 0
73 *621:10 *861:61 1.54008e-05
74 *690:8 *861:26 0.000827642
75 *705:23 *861:26 0.000886308
76 *708:90 *861:38 0
77 *710:36 *861:74 0.00059676
78 *710:40 *861:74 3.238e-05
79 *722:10 *861:26 0
80 *725:29 *861:91 0
81 *739:16 *861:38 0.000286322
82 *739:26 *861:38 0.000184397
83 *748:23 *861:74 0.00111401
84 *796:18 *861:99 0.000663635
85 *803:37 *861:26 0.00044762
86 *806:87 *861:99 0.000396673
87 *809:38 *861:38 0.000286048
88 *809:55 *861:53 0
89 *856:8 *861:16 5.19598e-05
90 *856:137 *861:26 0
91 *857:14 *861:38 0.000130055
92 *857:51 *861:53 0.00041753
93 *857:51 *861:74 8.00472e-05
94 *857:62 *861:74 0
95 *859:19 *861:78 0
*RES
1 *3403:X *861:16 24.8307 
2 *861:16 *861:26 46.1826 
3 *861:26 *861:32 40.7519 
4 *861:32 *861:38 30.2202 
5 *861:38 *3400:A 20 
6 *861:38 *861:53 45.374 
7 *861:53 *861:61 43.8522 
8 *861:61 *3020:B 20 
9 *861:53 *861:74 48.9825 
10 *861:74 *861:78 29.4966 
11 *861:78 *3402:A 20 
12 *861:78 *861:91 47.3439 
13 *861:91 *861:99 44.4856 
14 *861:99 *2931:C 20 
15 *861:16 *3399:A 20 
*END

*D_NET *862 0.0151909
*CONN
*I *2976:B I *D sg13g2_nand4_1
*I *3108:B I *D sg13g2_nand4_1
*I *3100:B I *D sg13g2_nand4_1
*I *3092:B I *D sg13g2_nand4_1
*I *2956:B I *D sg13g2_nand4_1
*I *3088:B I *D sg13g2_nand4_1
*I *3096:B I *D sg13g2_nand4_1
*I *2964:B I *D sg13g2_nand4_1
*I *3404:X O *D sg13g2_buf_1
*CAP
1 *2976:B 0
2 *3108:B 0
3 *3100:B 0.000425878
4 *3092:B 0
5 *2956:B 0
6 *3088:B 4.85638e-05
7 *3096:B 0.000184862
8 *2964:B 0
9 *3404:X 0
10 *862:110 0.000284546
11 *862:104 0.000389074
12 *862:100 0.000336294
13 *862:76 0.00114011
14 *862:61 0.00108568
15 *862:48 0.000420015
16 *862:46 0.000960111
17 *862:25 0.00117107
18 *862:16 0.000515978
19 *862:6 0.000721648
20 *3088:B *3088:C 4.77534e-05
21 *3096:B *890:30 7.35528e-05
22 *3100:B *884:89 0.00140641
23 *862:16 *3096:D 0
24 *862:16 *3425:A 0
25 *862:16 *884:29 0
26 *862:16 *884:101 0
27 *862:16 *889:14 0.000287738
28 *862:25 *881:59 0
29 *862:61 *3088:D 0.000166831
30 *862:76 *891:12 0
31 *862:76 *891:22 8.0194e-05
32 *862:100 *884:116 0.000498331
33 *862:100 *1012:32 0.00018387
34 *862:104 *2976:D 0
35 *862:110 *873:26 0
36 *862:110 *1088:8 0.000234727
37 *2956:C *862:61 0.000144289
38 *2956:C *862:76 4.79124e-05
39 *2956:A *3088:B 8.01064e-05
40 *2956:A *862:61 0.00035629
41 *2964:C *862:16 4.79124e-05
42 *2964:C *862:25 1.54556e-05
43 *2964:A *862:16 4.77425e-05
44 *2964:A *862:25 3.23417e-05
45 *2976:C *862:104 8.00842e-05
46 *2976:A *862:110 0.000715421
47 *2977:A2 *862:104 1.54008e-05
48 *3305:CLK *862:46 2.14736e-05
49 *350:10 *862:110 7.57164e-05
50 *351:14 *862:46 0
51 *353:12 *862:16 0.000145023
52 *353:22 *3096:B 0.000228641
53 *354:32 *862:76 0.000287256
54 *355:20 *862:16 0
55 *571:61 *862:76 0
56 *572:10 *862:76 0
57 *573:12 *862:76 0
58 *579:10 *3096:B 1.57249e-05
59 *698:40 *862:46 7.30101e-05
60 *803:80 *862:61 0
61 *803:80 *862:76 0
62 *803:95 *862:76 0
63 *817:61 *862:76 0
64 *817:69 *862:76 0.00033998
65 *856:14 *862:46 0.00110285
66 *856:31 *862:46 0.000327398
67 *856:118 *862:100 7.30101e-05
68 *856:137 *862:100 0.000127305
69 *861:26 *862:16 0.0001273
*RES
1 *3404:X *862:6 40 
2 *862:6 *862:16 24.6762 
3 *862:16 *2964:B 20 
4 *862:16 *862:25 20.3193 
5 *862:25 *3096:B 42.0085 
6 *862:25 *862:46 49.7541 
7 *862:46 *862:48 20 
8 *862:48 *3088:B 20.5356 
9 *862:48 *862:61 4.017 
10 *862:61 *2956:B 20 
11 *862:61 *862:76 27.7662 
12 *862:76 *3092:B 40 
13 *862:76 *3100:B 46.7774 
14 *862:6 *862:100 43.296 
15 *862:100 *862:104 20.9682 
16 *862:104 *862:110 43.811 
17 *862:110 *3108:B 20 
18 *862:104 *2976:B 20 
*END

*D_NET *863 0.00610494
*CONN
*I *2984:B I *D sg13g2_nand4_1
*I *3116:B I *D sg13g2_nand4_1
*I *2980:B I *D sg13g2_nand4_1
*I *3112:B I *D sg13g2_nand4_1
*I *3405:X O *D sg13g2_buf_1
*CAP
1 *2984:B 0
2 *3116:B 0
3 *2980:B 6.15837e-05
4 *3112:B 0.000396577
5 *3405:X 0
6 *863:40 0.000135128
7 *863:34 0.0012203
8 *863:12 0.000865439
9 *863:4 0.00149245
10 *2980:B *881:98 0
11 *3112:B *881:98 0
12 *3112:B *884:126 2.16504e-05
13 *3112:B *1164:22 0.000112227
14 *863:12 *3405:A 0
15 *863:12 *881:115 0
16 *863:12 *885:33 0.000145091
17 *863:34 *3189:RESET_B 0
18 *863:34 *3405:A 0.000143374
19 *863:34 *885:33 0
20 *863:34 *1164:22 0
21 *863:34 *1164:29 0
22 *863:40 *883:70 0
23 *863:40 *885:41 0
24 *863:40 *1164:42 0
25 *2980:C *2980:B 4.78356e-05
26 *2980:A *2980:B 0.000112689
27 *2980:A *3112:B 0.000144025
28 *3116:A *863:40 0.000234726
29 *348:10 *863:40 7.52149e-05
30 *349:12 *3112:B 4.76345e-05
31 *690:8 *863:12 0.000449569
32 *723:12 *863:12 0.000399422
*RES
1 *3405:X *863:4 20 
2 *863:4 *863:12 44.7792 
3 *863:12 *3112:B 23.8625 
4 *863:12 *2980:B 20.7519 
5 *863:4 *863:34 9.3215 
6 *863:34 *863:40 41.5862 
7 *863:40 *3116:B 20 
8 *863:34 *2984:B 20 
*END

*D_NET *864 0.0166452
*CONN
*I *2951:B I *D sg13g2_nand4_1
*I *3059:B I *D sg13g2_nand4_1
*I *2927:B I *D sg13g2_nand4_1
*I *2931:B I *D sg13g2_nand4_1
*I *2947:B I *D sg13g2_nand4_1
*I *2943:B I *D sg13g2_nand4_1
*I *3055:B I *D sg13g2_nand4_1
*I *2923:B I *D sg13g2_nand4_1
*I *3406:X O *D sg13g2_buf_1
*CAP
1 *2951:B 6.70308e-05
2 *3059:B 6.37736e-05
3 *2927:B 0
4 *2931:B 0
5 *2947:B 5.52967e-05
6 *2943:B 0
7 *3055:B 0
8 *2923:B 6.23636e-05
9 *3406:X 0.000116448
10 *864:93 0.000159471
11 *864:74 0.00022092
12 *864:63 0.00118288
13 *864:57 0.00129851
14 *864:53 0.00027866
15 *864:49 0.000829839
16 *864:38 0.00116275
17 *864:36 0.001138
18 *864:23 0.000920965
19 *864:8 0.00046713
20 *2947:B *879:37 0
21 *3059:B *885:159 8.00842e-05
22 *864:8 *889:58 0
23 *864:23 *2923:D 0
24 *864:23 *885:84 4.77537e-05
25 *864:23 *889:58 0
26 *864:36 *3420:A 0
27 *864:36 *885:76 7.9706e-05
28 *864:36 *885:84 0.000112178
29 *864:36 *892:64 0.000235055
30 *864:36 *898:54 0
31 *864:38 *878:40 0
32 *864:38 *889:64 0
33 *864:38 *1165:22 7.97045e-05
34 *864:49 *878:49 0
35 *864:93 *2927:D 6.18629e-05
36 *2923:C *2923:B 4.79014e-05
37 *2931:A *864:63 0.000435193
38 *2931:A *864:74 0.000112426
39 *2931:A *864:93 4.77425e-05
40 *2943:C *864:38 4.79124e-05
41 *2943:C *864:49 0.000144942
42 *2951:C *2951:B 8.00842e-05
43 *2951:C *864:49 0.000759596
44 *2951:A *2951:B 1.54008e-05
45 *3056:A2 *864:36 0
46 *3057:B *864:36 8.00842e-05
47 *3079:A *2947:B 3.22045e-05
48 *3289:CLK *864:38 0.000274643
49 *357:28 *2947:B 4.77425e-05
50 *358:20 *864:38 0.000889632
51 *358:20 *864:49 3.24568e-05
52 *358:33 *864:49 0.000177399
53 *362:32 *3059:B 0.000112426
54 *362:44 *864:93 0.000228573
55 *363:16 *2923:B 0.000112689
56 *363:22 *864:23 0
57 *697:11 *864:57 0
58 *697:75 *2923:B 0
59 *697:75 *864:36 0
60 *725:29 *864:49 0
61 *766:32 *864:63 0.00214537
62 *778:22 *864:63 0
63 *790:18 *864:53 0.000341913
64 *790:18 *864:57 0.000344954
65 *794:33 *864:93 0.00028279
66 *806:8 *864:36 8.02105e-05
67 *806:34 *864:36 0
68 *806:49 *864:63 0
69 *820:104 *864:63 0.000338082
70 *859:6 *864:49 0
71 *861:91 *864:49 0.00063006
72 *861:99 *864:74 5.00526e-05
73 *861:99 *864:93 3.23417e-05
*RES
1 *3406:X *864:8 41.0918 
2 *864:8 *2923:B 40.7519 
3 *864:8 *864:23 22.8325 
4 *864:23 *3055:B 20 
5 *864:23 *864:36 45.8607 
6 *864:36 *864:38 5.9431 
7 *864:38 *2943:B 20 
8 *864:38 *864:49 7.6941 
9 *864:49 *864:53 21.5862 
10 *864:53 *864:57 21.5862 
11 *864:57 *864:63 32.9059 
12 *864:63 *2947:B 40.5356 
13 *864:57 *864:74 0.7519 
14 *864:74 *2931:B 20 
15 *864:74 *864:93 42.4308 
16 *864:93 *2927:B 20 
17 *864:53 *3059:B 40.7519 
18 *864:49 *2951:B 20.7519 
*END

*D_NET *865 0.0134339
*CONN
*I *2968:B I *D sg13g2_nand4_1
*I *2960:B I *D sg13g2_nand4_1
*I *2935:B I *D sg13g2_nand4_1
*I *2939:B I *D sg13g2_nand4_1
*I *3067:B I *D sg13g2_nand4_1
*I *3071:B I *D sg13g2_nand4_1
*I *2972:B I *D sg13g2_nand4_1
*I *3104:B I *D sg13g2_nand4_1
*I *3407:X O *D sg13g2_buf_1
*CAP
1 *2968:B 0.000802339
2 *2960:B 0
3 *2935:B 4.93e-05
4 *2939:B 0.000184927
5 *3067:B 0
6 *3071:B 0
7 *2972:B 0
8 *3104:B 0
9 *3407:X 9.42853e-05
10 *865:90 0.00097865
11 *865:60 0.000132482
12 *865:54 0.000614566
13 *865:48 0.000667011
14 *865:46 0.00143791
15 *865:40 0.00177238
16 *865:22 9.28741e-05
17 *865:16 0.000753277
18 *865:10 0.000547227
19 *2935:B *885:111 0
20 *2939:B *879:43 0
21 *2939:B *879:51 0.000235347
22 *2968:B *2968:D 0
23 *2968:B *880:64 0
24 *2968:B *884:89 0
25 *865:10 *3431:A 0
26 *865:10 *866:76 8.01938e-05
27 *865:16 *3104:C 0
28 *865:16 *3431:A 0
29 *865:16 *866:76 0
30 *865:16 *880:70 0
31 *865:22 *3104:C 0
32 *865:22 *880:76 0.00023464
33 *865:40 *3431:A 0
34 *865:40 *880:76 0
35 *865:46 *3432:A 0.000209637
36 *865:46 *885:111 0
37 *865:54 *3071:C 3.23417e-05
38 *865:54 *879:51 0.000129114
39 *865:54 *885:111 8.00842e-05
40 *865:54 *909:78 0
41 *865:60 *899:64 0
42 *865:90 *880:64 0
43 *2939:A *2939:B 4.74163e-05
44 *2972:C *865:40 0.000482179
45 *2973:A2 *865:40 8.02272e-05
46 *3071:A *2939:B 0
47 *3104:A *865:22 0.000285952
48 *342:8 *2968:B 0.000287757
49 *360:30 *2935:B 4.72458e-05
50 *360:30 *865:46 0.0013566
51 *360:49 *2935:B 3.23417e-05
52 *360:49 *865:54 0.000306673
53 *576:16 *865:10 0
54 *576:16 *865:46 0
55 *671:137 *865:22 0
56 *671:137 *865:46 7.88655e-05
57 *681:8 *2968:B 0
58 *683:8 *2968:B 0.000234311
59 *685:10 *865:40 7.48178e-05
60 *756:10 *865:46 0.000209087
61 *757:27 *2939:B 0
62 *778:22 *2939:B 0
63 *778:22 *865:54 0
64 *803:95 *865:16 0
65 *803:95 *865:90 0
66 *807:74 *865:60 0.000337248
67 *818:46 *865:46 0
68 *855:41 *865:40 0.000159096
69 *856:67 *865:40 0.000285453
*RES
1 *3407:X *865:10 41.1021 
2 *865:10 *865:16 22.2454 
3 *865:16 *865:22 41.5862 
4 *865:22 *3104:B 20 
5 *865:16 *2972:B 20 
6 *865:16 *865:40 44.4702 
7 *865:40 *865:46 14.6466 
8 *865:46 *865:48 20 
9 *865:48 *865:54 24.9646 
10 *865:54 *865:60 41.5862 
11 *865:60 *3071:B 20 
12 *865:54 *3067:B 20 
13 *865:48 *2939:B 42.1218 
14 *865:46 *2935:B 20.5356 
15 *865:10 *865:90 1.339 
16 *865:90 *2960:B 40 
17 *865:90 *2968:B 48.0134 
*END

*D_NET *866 0.0217997
*CONN
*I *3079:B I *D sg13g2_nand4_1
*I *3406:A I *D sg13g2_buf_1
*I *3407:A I *D sg13g2_buf_1
*I *3405:A I *D sg13g2_buf_1
*I *3404:A I *D sg13g2_buf_1
*I *3408:X O *D sg13g2_buf_1
*CAP
1 *3079:B 0
2 *3406:A 0
3 *3407:A 0
4 *3405:A 0.000149235
5 *3404:A 0.000177918
6 *3408:X 0.00010609
7 *866:102 0.00108581
8 *866:93 0.000500499
9 *866:87 0.00195155
10 *866:76 0.00122143
11 *866:66 0.00345341
12 *866:43 0.00120532
13 *866:35 0.00355897
14 *866:18 0.000399079
15 *866:8 0.0009634
16 *3404:A *1012:32 0.000279394
17 *3405:A *1164:22 0.000240668
18 *866:18 *1012:32 4.77425e-05
19 *866:66 *3100:D 0.00111607
20 *866:76 *3104:C 0.00044099
21 *866:76 *880:70 0
22 *866:76 *889:58 0.000984099
23 *866:87 *889:58 0.000481001
24 *866:93 *892:51 0
25 *2968:A *866:66 0
26 *2982:A *866:66 0
27 *2982:B *866:66 0
28 *3099:A1 *866:66 0.000208878
29 *3311:D *866:66 0.000143932
30 *3317:CLK *866:43 0
31 *3364:A *866:35 0.000562351
32 *345:14 *866:43 0.000345425
33 *352:16 *866:43 0
34 *354:24 *866:18 0.000241979
35 *357:16 *866:43 0
36 *360:20 *3404:A 0.000279758
37 *360:20 *866:18 0
38 *548:10 *866:93 7.55443e-05
39 *576:16 *866:76 0.00020816
40 *671:14 *866:18 0.000130055
41 *671:33 *866:43 0
42 *671:33 *866:66 0
43 *671:47 *866:66 0
44 *682:10 *866:66 0
45 *698:6 *866:66 1.54008e-05
46 *698:12 *866:43 0.000241716
47 *698:12 *866:66 0.000744757
48 *720:8 *866:87 0
49 *724:12 *866:87 0
50 *724:12 *866:102 0
51 *803:12 *866:66 0
52 *805:8 *866:43 0
53 *808:16 *866:43 0
54 *808:27 *866:66 0
55 *816:18 *866:43 0
56 *817:75 *866:76 0
57 *856:56 *866:76 1.55212e-05
58 *856:94 *866:93 0
59 *856:118 *866:18 0
60 *863:12 *3405:A 0
61 *863:34 *3405:A 0.000143374
62 *865:10 *866:76 8.01938e-05
63 *865:16 *866:76 0
*RES
1 *3408:X *866:8 41.0918 
2 *866:8 *866:18 42.5338 
3 *866:18 *3404:A 42.2866 
4 *866:8 *866:35 27.0246 
5 *866:35 *866:43 49.0743 
6 *866:43 *3405:A 21.6171 
7 *866:35 *866:66 37.7773 
8 *866:66 *866:76 32.0613 
9 *866:76 *3407:A 20 
10 *866:66 *866:87 24.8101 
11 *866:87 *866:93 45.5414 
12 *866:93 *3406:A 20 
13 *866:87 *866:102 33.5136 
14 *866:102 *3079:B 40 
*END

*D_NET *867 0.00955546
*CONN
*I *2910:B I *D sg13g2_nand4_1
*I *2898:B I *D sg13g2_nand4_1
*I *3030:B I *D sg13g2_nand4_1
*I *3026:B I *D sg13g2_nand4_1
*I *2894:B I *D sg13g2_nand4_1
*I *2902:B I *D sg13g2_nand4_1
*I *3022:B I *D sg13g2_nand4_1
*I *2890:B I *D sg13g2_nand4_1
*I *3409:X O *D sg13g2_buf_1
*CAP
1 *2910:B 0.000353098
2 *2898:B 0
3 *3030:B 0
4 *3026:B 0
5 *2894:B 0
6 *2902:B 0
7 *3022:B 0
8 *2890:B 6.01495e-05
9 *3409:X 0
10 *867:86 0.000233056
11 *867:80 0.000906721
12 *867:69 0.00093386
13 *867:58 0.000191281
14 *867:35 0.000194844
15 *867:23 0.000266896
16 *867:10 0.000132201
17 *867:8 0.000224667
18 *867:6 0.000484173
19 *867:4 0.000681519
20 *2910:B *877:56 0
21 *867:6 *873:51 0
22 *867:6 *1123:10 8.00842e-05
23 *867:8 *3590:A 0
24 *867:8 *873:51 0
25 *867:35 *3022:C 0
26 *867:35 *3593:A 0
27 *867:58 *3026:C 4.77425e-05
28 *867:58 *876:33 0.000107631
29 *867:58 *876:39 0.000127305
30 *867:58 *1123:10 7.62389e-05
31 *867:69 *2708:A 0
32 *867:69 *868:30 0
33 *867:69 *873:51 0
34 *867:69 *1023:32 0.00023003
35 *867:69 *1123:10 0.000143171
36 *867:80 *3030:D 0
37 *867:80 *873:51 0
38 *867:86 *877:71 0.000181608
39 *867:86 *1091:8 0.000181192
40 *2890:A *2890:B 0.000342864
41 *2890:A *867:23 0.00031562
42 *2890:A *867:35 0.000342145
43 *2894:C *867:8 4.77425e-05
44 *2910:A *2910:B 8.0216e-05
45 *2914:C *2910:B 4.78028e-05
46 *3023:A2 *867:35 0
47 *3031:A1 *867:86 0
48 *3032:A *867:80 0
49 *3032:B *2910:B 0.000209835
50 *3510:A *2910:B 0.000306964
51 *3510:A *867:80 4.77425e-05
52 *365:16 *867:80 0
53 *368:16 *867:35 4.77425e-05
54 *370:26 *867:8 0.000304879
55 *370:26 *867:58 0.00047234
56 *523:10 *867:8 0
57 *526:10 *867:8 4.73346e-05
58 *532:12 *2890:B 0.000342449
59 *532:12 *867:23 0.000337717
60 *621:10 *867:69 0
61 *621:10 *867:80 0
62 *628:8 *867:86 0
63 *629:14 *867:80 0
64 *708:82 *867:58 0
65 *809:20 *867:35 0.000344389
66 *811:49 *2910:B 0
67 *857:14 *867:8 0
68 *857:66 *2910:B 8.02105e-05
*RES
1 *3409:X *867:4 20 
2 *867:4 *867:6 0.7519 
3 *867:6 *867:8 2.266 
4 *867:8 *867:10 20 
5 *867:10 *2890:B 41.5862 
6 *867:10 *867:23 21.5862 
7 *867:23 *867:35 42.781 
8 *867:35 *3022:B 20 
9 *867:23 *2902:B 20 
10 *867:8 *2894:B 20 
11 *867:6 *867:58 42.6162 
12 *867:58 *3026:B 20 
13 *867:4 *867:69 5.7783 
14 *867:69 *3030:B 20 
15 *867:69 *867:80 3.1518 
16 *867:80 *867:86 42.8222 
17 *867:86 *2898:B 20 
18 *867:80 *2910:B 23.9964 
*END

*D_NET *868 0.0153688
*CONN
*I *2906:B I *D sg13g2_nand4_1
*I *3038:B I *D sg13g2_nand4_1
*I *3034:B I *D sg13g2_nand4_1
*I *2918:B I *D sg13g2_nand4_1
*I *2914:B I *D sg13g2_nand4_1
*I *3046:B I *D sg13g2_nand4_1
*I *3042:B I *D sg13g2_nand4_1
*I *3409:A I *D sg13g2_buf_1
*I *3410:X O *D sg13g2_buf_1
*CAP
1 *2906:B 2.51344e-05
2 *3038:B 3.80597e-05
3 *3034:B 0
4 *2918:B 0.000103819
5 *2914:B 0
6 *3046:B 6.24197e-05
7 *3042:B 0
8 *3409:A 8.48823e-05
9 *3410:X 0.00116738
10 *868:114 0.00048995
11 *868:100 0.000651419
12 *868:82 0.000248841
13 *868:67 0.000829709
14 *868:63 0.000767345
15 *868:52 0.00117146
16 *868:44 0.00178302
17 *868:38 0.000951527
18 *868:30 0.00126511
19 *868:10 0.000280318
20 *2918:B *877:44 0
21 *3038:B *2700:A 4.7803e-05
22 *3038:B *886:88 4.78685e-05
23 *3409:A *1023:32 0.000139675
24 *868:10 *3590:A 7.99873e-05
25 *868:10 *894:81 0
26 *868:10 *1127:10 0
27 *868:30 *873:51 0
28 *868:30 *889:79 0
29 *868:30 *894:75 0
30 *868:30 *1134:8 0
31 *868:52 *2701:A 4.78521e-05
32 *868:52 *3605:A 0
33 *868:52 *877:33 8.00842e-05
34 *868:63 *873:55 0
35 *868:63 *1166:62 0.00034053
36 *868:67 *873:55 0
37 *868:67 *1166:62 0.00141207
38 *868:82 *3046:D 0
39 *868:82 *873:70 0
40 *868:82 *877:50 0
41 *868:100 *877:33 0.000129043
42 *868:114 *2700:A 0.000143729
43 *868:114 *2701:A 0
44 *868:114 *3607:A 0
45 *868:114 *1164:10 0.000287788
46 *2906:C *2906:B 3.24568e-05
47 *2906:C *868:38 1.54556e-05
48 *2906:A *868:44 0
49 *2918:C *2918:B 0.000143709
50 *2918:A *2918:B 0
51 *3021:A2 *2906:B 0
52 *3021:A2 *868:38 0
53 *3024:B *868:38 1.54008e-05
54 *3034:A *868:114 4.78521e-05
55 *3035:A1 *868:114 0
56 *3036:A *868:114 0
57 *3036:B *868:114 0
58 *3038:A *868:100 0
59 *3042:A *868:52 8.00842e-05
60 *3042:A *868:63 3.23417e-05
61 *364:12 *868:63 0.000232389
62 *365:8 *868:44 0.000396603
63 *365:16 *3046:B 4.77425e-05
64 *365:29 *3046:B 4.77201e-05
65 *365:29 *868:82 0.000385144
66 *368:6 *868:38 0
67 *368:33 *868:114 0
68 *370:26 *3409:A 0.000111568
69 *377:10 *3038:B 0
70 *378:12 *868:52 0
71 *492:22 *868:100 0
72 *493:30 *868:114 8.02927e-05
73 *493:39 *868:114 0.00011244
74 *493:41 *868:30 0
75 *493:41 *868:114 0.000231852
76 *526:10 *868:10 7.62389e-05
77 *635:8 *868:100 7.60282e-05
78 *641:8 *868:67 0.000447182
79 *811:20 *868:114 7.94445e-05
80 *821:42 *868:82 0
81 *867:69 *868:30 0
*RES
1 *3410:X *868:10 41.6274 
2 *868:10 *3409:A 40.9399 
3 *3410:X *868:30 47.4366 
4 *868:30 *868:38 22.7192 
5 *868:38 *868:44 25.6135 
6 *868:44 *868:52 28.7756 
7 *868:52 *3042:B 20 
8 *868:52 *868:63 22.1218 
9 *868:63 *868:67 27.0246 
10 *868:67 *3046:B 20.5356 
11 *868:67 *868:82 42.8016 
12 *868:82 *2914:B 20 
13 *868:63 *2918:B 40.9682 
14 *868:44 *868:100 21.339 
15 *868:100 *868:114 45.459 
16 *868:114 *3034:B 20 
17 *868:100 *3038:B 20.5356 
18 *868:38 *2906:B 20.3193 
*END

*D_NET *869 0.00849589
*CONN
*I *2865:B I *D sg13g2_nand4_1
*I *3001:B I *D sg13g2_nand4_1
*I *2997:B I *D sg13g2_nand4_1
*I *3009:B I *D sg13g2_nand4_1
*I *2885:B I *D sg13g2_nand4_1
*I *2989:B I *D sg13g2_nand4_1
*I *2857:B I *D sg13g2_nand4_1
*I *2869:B I *D sg13g2_nand4_1
*I *3411:X O *D sg13g2_buf_1
*CAP
1 *2865:B 0
2 *3001:B 0.000145978
3 *2997:B 0
4 *3009:B 0.000142506
5 *2885:B 0
6 *2989:B 0
7 *2857:B 0.000102238
8 *2869:B 0
9 *3411:X 0.00018629
10 *869:67 0.00025284
11 *869:33 0.000278933
12 *869:31 0.000281432
13 *869:29 0.000963854
14 *869:14 0.000716612
15 *869:12 0.000213471
16 *869:8 0.000292899
17 *2857:B *2857:D 0.000287256
18 *3001:B *3001:D 0.000106151
19 *3001:B *874:12 0.000128662
20 *3001:B *887:108 0
21 *3001:B *1167:16 0
22 *3009:B *875:19 0.000128247
23 *3009:B *875:25 0.000182023
24 *869:8 *3411:A 0
25 *869:8 *870:23 0
26 *869:12 *874:12 0.000103389
27 *869:12 *874:16 0.000340392
28 *869:29 *3412:A 0
29 *869:29 *875:25 4.81157e-05
30 *869:31 *2877:D 0.00020735
31 *869:31 *875:25 0
32 *869:33 *2857:D 0.000264849
33 *869:33 *2877:D 0.000128199
34 *869:33 *874:51 0.000337718
35 *869:33 *887:42 0.000444932
36 *869:67 *874:12 0.000500824
37 *2865:C *869:8 4.78195e-05
38 *2865:A *869:12 0.000390749
39 *2865:A *869:67 0.000159096
40 *2869:C *869:29 4.77425e-05
41 *2869:A *3001:B 0
42 *2885:A *3009:B 0
43 *2997:A *869:67 0.000287343
44 *374:26 *869:29 8.00954e-05
45 *379:28 *2857:B 0.000340374
46 *814:20 *2857:B 0
47 *825:53 *869:29 0
48 *858:112 *869:31 0.00028243
49 *858:112 *869:33 7.50805e-05
*RES
1 *3411:X *869:8 21.7819 
2 *869:8 *869:12 22.0806 
3 *869:12 *869:14 20 
4 *869:14 *2869:B 20 
5 *869:14 *869:29 27.2986 
6 *869:29 *869:31 1.5862 
7 *869:31 *869:33 3.3166 
8 *869:33 *2857:B 41.8334 
9 *869:33 *2989:B 40 
10 *869:31 *2885:B 40 
11 *869:29 *3009:B 41.5862 
12 *869:12 *869:67 2.3278 
13 *869:67 *2997:B 40 
14 *869:67 *3001:B 41.5862 
15 *869:8 *2865:B 20 
*END

*D_NET *870 0.0148863
*CONN
*I *3017:B I *D sg13g2_nand4_1
*I *2877:B I *D sg13g2_nand4_1
*I *2873:B I *D sg13g2_nand4_1
*I *3005:B I *D sg13g2_nand4_1
*I *2861:B I *D sg13g2_nand4_1
*I *2993:B I *D sg13g2_nand4_1
*I *2881:B I *D sg13g2_nand4_1
*I *3411:A I *D sg13g2_buf_1
*I *3412:X O *D sg13g2_buf_1
*CAP
1 *3017:B 0.000278284
2 *2877:B 0.000112199
3 *2873:B 0.000104972
4 *3005:B 0.000240168
5 *2861:B 0
6 *2993:B 0
7 *2881:B 0
8 *3411:A 4.84276e-05
9 *3412:X 2.72727e-05
10 *870:79 0.00022388
11 *870:64 0.00041072
12 *870:58 0.000427008
13 *870:56 0.000813552
14 *870:45 0.000806777
15 *870:39 0.000497985
16 *870:29 0.000799803
17 *870:23 0.00141221
18 *870:6 0.000921815
19 *3005:B *2993:C 0.000432596
20 *3005:B *3005:C 0.000242857
21 *3005:B *1192:26 0
22 *3017:B *887:87 4.78524e-05
23 *3017:B *887:93 0.000176564
24 *870:6 *3412:A 0
25 *870:23 *2870:B1 0
26 *870:23 *3412:A 0
27 *870:23 *874:31 0
28 *870:29 *875:52 0.000208321
29 *870:39 *872:29 0.000343705
30 *870:39 *888:35 0.000177894
31 *870:39 *1177:23 0.000343813
32 *870:45 *875:52 0
33 *870:56 *875:59 0
34 *870:64 *2993:C 0.000399373
35 *870:79 *1187:43 0
36 *2865:C *870:23 0
37 *2870:A2 *870:23 0.000144942
38 *2879:B *870:64 0
39 *2881:C *870:45 7.9768e-05
40 *2881:C *870:56 3.24351e-05
41 *2882:A1 *870:79 0
42 *3005:A *3005:B 0.000112558
43 *3338:A *870:39 0
44 *373:22 *3017:B 0.000176564
45 *373:30 *870:45 4.77299e-05
46 *374:26 *2877:B 4.78359e-05
47 *375:14 *3005:B 5.38157e-05
48 *375:24 *3005:B 0.000238973
49 *377:10 *870:6 0
50 *378:30 *870:79 4.78688e-05
51 *378:36 *870:79 0.000452949
52 *510:10 *870:64 0.000288747
53 *513:10 *2877:B 0
54 *513:10 *870:39 0
55 *596:33 *3017:B 0.000799287
56 *596:33 *870:23 0.000396252
57 *697:254 *870:45 0
58 *697:254 *870:56 0
59 *697:278 *2873:B 0
60 *697:278 *870:56 0
61 *697:278 *870:79 0
62 *711:10 *870:39 0.000177894
63 *790:18 *3005:B 0
64 *790:18 *870:64 0
65 *812:37 *870:23 0.000468456
66 *813:53 *870:79 0.000215263
67 *813:55 *870:79 0.000345425
68 *814:20 *3017:B 0.000819485
69 *814:20 *870:23 0.0003943
70 *858:112 *2877:B 4.77425e-05
71 *869:8 *3411:A 0
72 *869:8 *870:23 0
*RES
1 *3412:X *870:6 20.3193 
2 *870:6 *3411:A 20.5974 
3 *870:6 *870:23 29.5584 
4 *870:23 *870:29 22.6471 
5 *870:29 *870:39 44.7277 
6 *870:39 *870:45 40.9682 
7 *870:45 *2881:B 20 
8 *870:45 *870:56 6.4272 
9 *870:56 *870:58 20 
10 *870:58 *870:64 22.5544 
11 *870:64 *2993:B 20 
12 *870:64 *870:79 43.6462 
13 *870:79 *2861:B 20 
14 *870:58 *3005:B 43.5432 
15 *870:56 *2873:B 20.9682 
16 *870:29 *2877:B 21.1021 
17 *870:23 *3017:B 45.2118 
*END

*D_NET *871 0.00821029
*CONN
*I *2839:B2 I *D sg13g2_a22oi_1
*I *3567:X O *D sg13g2_buf_1
*CAP
1 *2839:B2 0
2 *3567:X 0.000276375
3 *871:14 0.00179772
4 *871:8 0.00207409
5 *871:8 *923:24 0
6 *871:8 *1060:12 0.000401959
7 *2783:A2 *871:14 0
8 *2819:A1 *871:14 0
9 *2839:A2 *871:14 0.00011229
10 *3655:A *871:14 0
11 *3666:A *871:14 0
12 *3668:A *871:14 0
13 *99:14 *871:14 0
14 *733:52 *871:14 0.00225393
15 *737:48 *871:14 0
16 *739:51 *871:14 0
17 *742:31 *871:14 0.000981838
18 *743:54 *871:14 0
19 *746:39 *871:14 0
20 *747:67 *871:14 0
21 *750:34 *871:14 7.99485e-05
22 *750:42 *871:14 0
23 *755:53 *871:14 0
24 *758:60 *871:14 0
25 *847:21 *871:14 0.000232135
26 *852:26 *871:14 0
*RES
1 *3567:X *871:8 42.6986 
2 *871:8 *871:14 40.3528 
3 *871:14 *2839:B2 20 
*END

*D_NET *872 0.0131146
*CONN
*I *3083:B I *D sg13g2_nand4_1
*I *3063:B I *D sg13g2_nand4_1
*I *3013:B I *D sg13g2_nand4_1
*I *3412:A I *D sg13g2_buf_1
*I *3075:B I *D sg13g2_nand4_1
*I *3413:X O *D sg13g2_buf_1
*CAP
1 *3083:B 0
2 *3063:B 0
3 *3013:B 0.000618551
4 *3412:A 0.0008959
5 *3075:B 0.000168916
6 *3413:X 4.05189e-05
7 *872:76 0.000412772
8 *872:61 0.000519356
9 *872:29 0.00163471
10 *872:23 0.00355922
11 *872:10 0.00255975
12 *872:6 0.000336079
13 *3013:B *3005:D 0
14 *3013:B *3013:C 4.78359e-05
15 *3013:B *3436:A 0
16 *3013:B *1187:8 0
17 *3075:B *888:8 4.77425e-05
18 *3075:B *888:18 0.000111995
19 *3412:A *2870:B1 0.000167201
20 *3412:A *875:52 4.77425e-05
21 *872:6 *878:59 0
22 *872:23 *3064:B1 0
23 *872:23 *1011:8 0.000712427
24 *872:23 *1187:8 0
25 *872:29 *887:42 0
26 *872:29 *1177:23 0
27 *872:76 *3063:C 8.00842e-05
28 *872:76 *3083:C 0.000522678
29 *2870:A2 *3412:A 1.54008e-05
30 *3076:A2 *872:6 0
31 *3076:A2 *872:10 7.93152e-05
32 *3076:A2 *872:61 0
33 *3076:A2 *872:76 0
34 *3:26 *872:76 0
35 *290:10 *872:23 0
36 *315:12 *872:23 0
37 *361:18 *3075:B 0
38 *361:18 *872:23 0
39 *361:35 *872:10 0
40 *361:35 *872:61 1.54008e-05
41 *377:10 *3412:A 0
42 *378:16 *872:29 0
43 *514:14 *872:29 0
44 *517:10 *872:23 0
45 *616:10 *3013:B 0.00017729
46 *654:10 *872:10 0
47 *654:10 *872:23 0
48 *697:230 *872:23 0
49 *697:248 *3013:B 0
50 *697:248 *872:23 0
51 *711:31 *872:23 0
52 *744:35 *872:10 0
53 *744:35 *872:61 0
54 *744:35 *872:76 0
55 *778:26 *3013:B 0
56 *778:26 *872:23 0
57 *812:37 *3412:A 0
58 *823:43 *3013:B 0
59 *859:19 *872:23 0
60 *861:78 *3075:B 0
61 *861:78 *872:23 0
62 *869:29 *3412:A 0
63 *870:6 *3412:A 0
64 *870:23 *3412:A 0
65 *870:39 *872:29 0.000343705
*RES
1 *3413:X *872:6 20.3502 
2 *872:6 *872:10 21.9529 
3 *872:10 *3075:B 41.8128 
4 *872:10 *872:23 20.8678 
5 *872:23 *872:29 47.4572 
6 *872:29 *3412:A 48.6738 
7 *872:23 *3013:B 45.8916 
8 *872:6 *872:61 1.1639 
9 *872:61 *3063:B 20 
10 *872:61 *872:76 44.1406 
11 *872:76 *3083:B 20 
*END

*D_NET *873 0.038104
*CONN
*I *3408:A I *D sg13g2_buf_1
*I *3413:A I *D sg13g2_buf_1
*I *3050:B I *D sg13g2_nand4_1
*I *3410:A I *D sg13g2_buf_1
*I *3414:X O *D sg13g2_buf_1
*CAP
1 *3408:A 0.000445149
2 *3413:A 0
3 *3050:B 0
4 *3410:A 0
5 *3414:X 0.000122299
6 *873:88 0.000706813
7 *873:78 0.002834
8 *873:70 0.00251562
9 *873:55 0.000981445
10 *873:51 0.00262751
11 *873:36 0.00125763
12 *873:32 0.00133122
13 *873:26 0.00336003
14 *873:16 0.00247395
15 *873:14 0.000122299
16 *3408:A *881:59 0
17 *3408:A *883:39 0
18 *873:14 *881:29 0.000287167
19 *873:26 *2707:A 0.000144831
20 *873:26 *3112:D 0.000181116
21 *873:26 *881:16 0.000723349
22 *873:26 *884:126 0
23 *873:26 *885:33 0
24 *873:26 *890:46 0
25 *873:26 *1012:18 8.01776e-05
26 *873:26 *1012:32 0.000183828
27 *873:26 *1023:18 0
28 *873:26 *1088:8 0.000555983
29 *873:26 *1163:16 0.000778236
30 *873:32 *1101:12 0.000441082
31 *873:32 *1163:16 0
32 *873:51 *2915:B1 0
33 *873:51 *3030:D 0.000339524
34 *873:51 *3590:A 0.000343193
35 *873:51 *877:52 0
36 *873:51 *877:56 0.000582819
37 *873:55 *3046:C 0.000128247
38 *873:55 *886:63 0.0017231
39 *873:55 *886:88 0.000181192
40 *873:55 *1166:51 0
41 *873:70 *2915:B1 0
42 *873:70 *877:50 0.000288087
43 *873:70 *877:52 0
44 *873:78 *3047:B1 0
45 *873:78 *3047:A2 0
46 *873:78 *898:73 0
47 *873:78 *898:84 0
48 *873:88 *888:8 7.93156e-05
49 *873:88 *888:53 0.00011226
50 *2884:B1 *873:78 0
51 *2910:A *873:55 0
52 *2915:A1 *873:78 0
53 *3047:A1 *873:78 8.03091e-05
54 *3048:A *873:78 0
55 *3076:A2 *873:88 0.000176174
56 *3403:A *873:14 8.48894e-05
57 *3403:A *873:26 0
58 *350:10 *873:26 0
59 *358:8 *873:32 0
60 *360:20 *3408:A 8.01447e-05
61 *360:20 *873:26 4.77425e-05
62 *364:12 *873:55 0.000604395
63 *520:16 *873:78 0
64 *523:10 *873:32 0.000808658
65 *526:10 *873:32 0
66 *538:8 *873:55 0.000500214
67 *538:8 *873:70 0
68 *544:14 *873:70 0
69 *641:8 *873:55 0.000553748
70 *691:8 *873:26 0
71 *692:10 *873:26 0.000827136
72 *697:11 *873:88 0
73 *697:202 *873:78 0
74 *708:90 *873:32 0
75 *717:12 *3408:A 0.000209856
76 *743:14 *873:78 0.000404372
77 *743:29 *873:78 0.00147996
78 *754:8 *873:78 0.000339261
79 *766:32 *873:88 0.000232054
80 *766:36 *873:88 0.00182033
81 *778:22 *873:88 0.00187514
82 *811:49 *873:78 0.000274299
83 *856:8 *3408:A 1.54556e-05
84 *856:10 *873:14 0.000125569
85 *856:118 *873:14 0.00016193
86 *856:118 *873:26 7.34842e-05
87 *856:137 *873:26 0.0011322
88 *857:25 *873:32 7.61961e-05
89 *857:51 *873:51 0
90 *857:62 *873:51 0
91 *857:62 *873:55 0
92 *861:16 *3408:A 0
93 *861:16 *873:14 7.68393e-05
94 *861:26 *873:26 0.0001122
95 *861:38 *873:32 0
96 *861:53 *873:51 0
97 *862:110 *873:26 0
98 *867:6 *873:51 0
99 *867:8 *873:51 0
100 *867:69 *873:51 0
101 *867:80 *873:51 0
102 *868:30 *873:51 0
103 *868:63 *873:55 0
104 *868:67 *873:55 0
105 *868:82 *873:70 0
*RES
1 *3414:X *873:14 42.0858 
2 *873:14 *873:16 20 
3 *873:16 *873:26 45.5028 
4 *873:26 *873:32 33.3385 
5 *873:32 *873:36 40 
6 *873:36 *3410:A 20 
7 *873:36 *873:51 12.6433 
8 *873:51 *873:55 33.4518 
9 *873:55 *3050:B 40 
10 *873:51 *873:70 44.1612 
11 *873:70 *873:78 42.6497 
12 *873:78 *873:88 32.0613 
13 *873:88 *3413:A 20 
14 *873:16 *3408:A 24.4805 
*END

*D_NET *874 0.00710822
*CONN
*I *2997:D I *D sg13g2_nand4_1
*I *3001:D I *D sg13g2_nand4_1
*I *2869:D I *D sg13g2_nand4_1
*I *2877:D I *D sg13g2_nand4_1
*I *2885:D I *D sg13g2_nand4_1
*I *2857:D I *D sg13g2_nand4_1
*I *2705:A I *D sg13g2_inv_1
*I *2865:D I *D sg13g2_nand4_1
*I *3415:X O *D sg13g2_buf_1
*CAP
1 *2997:D 0
2 *3001:D 2.29018e-05
3 *2869:D 0
4 *2877:D 0.000153506
5 *2885:D 0
6 *2857:D 0.000196676
7 *2705:A 0
8 *2865:D 0
9 *3415:X 0.000160389
10 *874:51 0.00029663
11 *874:40 0.00062488
12 *874:31 0.000739352
13 *874:16 0.000629523
14 *874:12 0.00040039
15 *874:10 0.00024804
16 *874:8 0.000160389
17 *2857:D *2989:D 0
18 *2877:D *2989:D 0
19 *2877:D *875:25 0
20 *3001:D *887:108 0.00012816
21 *874:8 *3415:A 0.000208983
22 *874:8 *887:108 1.54008e-05
23 *874:12 *2998:B1 0
24 *874:12 *887:108 7.51285e-05
25 *874:16 *896:62 0
26 *874:31 *2866:B1 0
27 *874:31 *896:47 0
28 *874:40 *896:47 0
29 *874:51 *2989:D 0
30 *2857:B *2857:D 0.000287256
31 *2865:C *874:31 1.54008e-05
32 *2866:A1 *874:31 0
33 *3001:B *3001:D 0.000106151
34 *3001:B *874:12 0.000128662
35 *374:18 *874:8 0
36 *504:8 *874:16 0
37 *504:8 *874:31 0.000126325
38 *507:8 *874:12 0
39 *507:8 *874:16 0
40 *814:20 *2857:D 0
41 *858:8 *874:16 0
42 *859:33 *874:31 0.000501359
43 *859:33 *874:40 0
44 *869:12 *874:12 0.000103389
45 *869:12 *874:16 0.000340392
46 *869:31 *2877:D 0.00020735
47 *869:33 *2857:D 0.000264849
48 *869:33 *2877:D 0.000128199
49 *869:33 *874:51 0.000337718
50 *869:67 *874:12 0.000500824
51 *870:23 *874:31 0
*RES
1 *3415:X *874:8 21.751 
2 *874:8 *874:10 20 
3 *874:10 *874:12 3.3166 
4 *874:12 *874:16 22.0806 
5 *874:16 *2865:D 20 
6 *874:16 *874:31 44.6968 
7 *874:31 *2705:A 20 
8 *874:31 *874:40 22.266 
9 *874:40 *2857:D 42.575 
10 *874:40 *874:51 1.5862 
11 *874:51 *2885:D 40 
12 *874:51 *2877:D 41.5862 
13 *874:12 *2869:D 40 
14 *874:10 *3001:D 40.5974 
15 *874:8 *2997:D 20 
*END

*D_NET *875 0.0113121
*CONN
*I *3017:D I *D sg13g2_nand4_1
*I *3009:D I *D sg13g2_nand4_1
*I *2993:D I *D sg13g2_nand4_1
*I *2873:D I *D sg13g2_nand4_1
*I *2861:D I *D sg13g2_nand4_1
*I *2881:D I *D sg13g2_nand4_1
*I *2989:D I *D sg13g2_nand4_1
*I *3415:A I *D sg13g2_buf_1
*I *3416:X O *D sg13g2_buf_1
*CAP
1 *3017:D 0
2 *3009:D 0
3 *2993:D 0.000104205
4 *2873:D 0.00016526
5 *2861:D 0.000486801
6 *2881:D 0
7 *2989:D 0.000504677
8 *3415:A 0.000354605
9 *3416:X 2.77263e-05
10 *875:61 0.000652061
11 *875:59 0.000660187
12 *875:52 0.00126082
13 *875:25 0.001469
14 *875:19 0.000364224
15 *875:15 0.000503206
16 *875:6 0.000780803
17 *2861:D *2993:C 7.62452e-05
18 *2873:D *2993:C 0.000129579
19 *2989:D *2989:C 1.54008e-05
20 *2993:D *2993:C 0.000124522
21 *3415:A *887:93 0
22 *3415:A *1167:16 8.00998e-05
23 *875:15 *887:93 0.000370309
24 *875:15 *1167:16 8.01938e-05
25 *875:15 *1167:29 0.000194275
26 *875:15 *1167:31 0.000435113
27 *875:52 *2878:B1 0.000338548
28 *875:59 *2988:B1 0
29 *875:59 *1187:43 0
30 *2857:D *2989:D 0
31 *2877:D *2989:D 0
32 *2877:D *875:25 0
33 *2879:B *2993:D 0
34 *2879:B *875:59 0
35 *2881:C *875:52 0.000112203
36 *2881:C *875:59 1.54556e-05
37 *2882:A1 *2861:D 0.000177076
38 *2885:A *875:52 4.72443e-05
39 *3009:B *875:19 0.000128247
40 *3009:B *875:25 0.000182023
41 *3412:A *875:52 4.77425e-05
42 *315:12 *875:52 0.000102251
43 *315:12 *875:59 0.000161019
44 *373:22 *3415:A 0
45 *374:18 *3415:A 0
46 *374:18 *875:15 0
47 *374:26 *875:25 2.20966e-05
48 *379:22 *2989:D 0
49 *604:10 *3415:A 0
50 *604:10 *875:15 0
51 *697:278 *2993:D 0
52 *766:36 *2861:D 0
53 *766:36 *2873:D 0
54 *812:71 *875:52 0
55 *814:20 *2989:D 0
56 *814:20 *875:25 0
57 *825:59 *875:19 0.000318935
58 *825:59 *875:25 7.52158e-05
59 *858:75 *2861:D 2.19738e-05
60 *858:97 *875:52 0.000177241
61 *859:33 *2989:D 8.00842e-05
62 *859:33 *875:52 0
63 *869:29 *875:25 4.81157e-05
64 *869:31 *875:25 0
65 *870:29 *875:52 0.000208321
66 *870:45 *875:52 0
67 *870:56 *875:59 0
68 *874:8 *3415:A 0.000208983
69 *874:51 *2989:D 0
*RES
1 *3416:X *875:6 20.3502 
2 *875:6 *3415:A 23.5638 
3 *875:6 *875:15 4.6453 
4 *875:15 *875:19 21.5862 
5 *875:19 *875:25 2.7192 
6 *875:25 *2989:D 43.8522 
7 *875:25 *875:52 27.7662 
8 *875:52 *2881:D 20 
9 *875:52 *875:59 5.0779 
10 *875:59 *875:61 20 
11 *875:61 *2861:D 44.7483 
12 *875:61 *2873:D 41.7819 
13 *875:59 *2993:D 21.4626 
14 *875:19 *3009:D 40 
15 *875:15 *3017:D 20 
*END

*D_NET *876 0.012458
*CONN
*I *3034:D I *D sg13g2_nand4_1
*I *2708:A I *D sg13g2_inv_1
*I *2906:D I *D sg13g2_nand4_1
*I *3026:D I *D sg13g2_nand4_1
*I *2894:D I *D sg13g2_nand4_1
*I *2890:D I *D sg13g2_nand4_1
*I *2902:D I *D sg13g2_nand4_1
*I *3022:D I *D sg13g2_nand4_1
*I *3417:X O *D sg13g2_buf_1
*CAP
1 *3034:D 0.000264649
2 *2708:A 0.000519008
3 *2906:D 0
4 *3026:D 0
5 *2894:D 0
6 *2890:D 4.72978e-05
7 *2902:D 4.63762e-05
8 *3022:D 0.000297645
9 *3417:X 0
10 *876:79 0.00101341
11 *876:54 0.000206471
12 *876:39 0.000385331
13 *876:33 0.000495526
14 *876:12 0.000666038
15 *876:10 0.000985361
16 *876:6 0.000702959
17 *2708:A *3030:D 0
18 *2890:D *3590:A 0
19 *2902:D *1023:32 8.00842e-05
20 *3022:D *3022:C 2.56966e-05
21 *3022:D *3593:A 0.000112695
22 *3022:D *3594:A 0
23 *3022:D *886:10 0.000130055
24 *3022:D *886:12 0.000130055
25 *3022:D *886:121 0.000286947
26 *3022:D *894:81 0.00044875
27 *3034:D *3607:A 8.01776e-05
28 *3034:D *877:8 0.000130055
29 *3034:D *886:121 8.01776e-05
30 *3034:D *1150:12 0.000179384
31 *876:10 *1145:8 0.000183828
32 *876:33 *894:81 0.000286947
33 *876:39 *3593:A 0.000240383
34 *876:39 *1023:32 0.000258881
35 *876:54 *886:18 0
36 *876:54 *1127:10 0.00023721
37 *2894:C *876:54 4.77425e-05
38 *2902:C *2902:D 4.77425e-05
39 *2902:C *876:54 0.000286947
40 *3020:C *2708:A 0.00034087
41 *365:8 *2708:A 0
42 *368:33 *3034:D 0
43 *368:33 *876:10 0.00129446
44 *368:33 *876:12 7.62464e-05
45 *370:26 *876:33 3.64377e-05
46 *626:10 *2708:A 0.000340982
47 *627:8 *2708:A 0.000342573
48 *708:82 *876:10 0
49 *708:82 *876:33 0.000395949
50 *708:82 *876:39 0.000127305
51 *809:10 *876:12 0
52 *809:10 *876:33 0
53 *857:25 *876:54 7.62389e-05
54 *861:61 *2708:A 0.000288205
55 *867:58 *876:33 0.000107631
56 *867:58 *876:39 0.000127305
57 *867:69 *2708:A 0
*RES
1 *3417:X *876:6 40 
2 *876:6 *876:10 6.3551 
3 *876:10 *876:12 0.5974 
4 *876:12 *3022:D 44.0479 
5 *876:12 *876:33 4.2745 
6 *876:33 *876:39 22.4308 
7 *876:39 *2902:D 20.5356 
8 *876:39 *876:54 42.1218 
9 *876:54 *2890:D 20.5974 
10 *876:54 *2894:D 20 
11 *876:33 *3026:D 40 
12 *876:10 *876:79 44.6453 
13 *876:79 *2906:D 40 
14 *876:79 *2708:A 46.283 
15 *876:6 *3034:D 42.6162 
*END

*D_NET *877 0.0112596
*CONN
*I *3038:D I *D sg13g2_nand4_1
*I *2918:D I *D sg13g2_nand4_1
*I *2914:D I *D sg13g2_nand4_1
*I *2910:D I *D sg13g2_nand4_1
*I *2898:D I *D sg13g2_nand4_1
*I *3030:D I *D sg13g2_nand4_1
*I *3042:D I *D sg13g2_nand4_1
*I *3417:A I *D sg13g2_buf_1
*I *3418:X O *D sg13g2_buf_1
*CAP
1 *3038:D 0
2 *2918:D 4.02807e-05
3 *2914:D 0
4 *2910:D 2.62321e-05
5 *2898:D 0
6 *3030:D 0.000246207
7 *3042:D 0
8 *3417:A 0
9 *3418:X 2.48952e-05
10 *877:71 5.48097e-05
11 *877:56 0.000701797
12 *877:52 0.000600121
13 *877:50 0.00109753
14 *877:44 0.00147804
15 *877:33 0.00145241
16 *877:27 0.00093908
17 *877:25 0.000394419
18 *877:12 0.000437142
19 *877:8 6.7618e-05
20 *877:12 *1093:12 8.0194e-05
21 *877:12 *1124:16 8.0194e-05
22 *877:25 *3605:A 0
23 *877:25 *3607:A 0
24 *877:25 *1093:12 9.71788e-05
25 *877:25 *1124:16 0.000176368
26 *877:25 *1150:12 0
27 *877:33 *886:88 0.00056642
28 *877:44 *895:42 0
29 *877:44 *1166:62 0
30 *877:50 *2915:B1 0
31 *877:50 *1166:62 0
32 *2708:A *3030:D 0
33 *2910:B *877:56 0
34 *2914:C *2910:D 0
35 *2914:C *877:50 1.54556e-05
36 *2914:C *877:52 0.000209763
37 *2918:B *877:44 0
38 *2918:C *2918:D 1.54008e-05
39 *2918:A *877:44 0
40 *3032:A *3030:D 0.000242154
41 *3032:A *877:56 0.000274359
42 *3034:D *877:8 0.000130055
43 *3038:A *877:33 0
44 *3044:A *877:44 0
45 *3044:B *877:44 0
46 *368:33 *877:8 0.000130055
47 *379:22 *2918:D 8.0216e-05
48 *544:14 *877:44 0
49 *544:14 *877:50 0
50 *697:206 *877:50 0
51 *697:218 *877:44 0
52 *697:218 *877:50 0
53 *811:49 *877:50 0
54 *857:66 *877:52 0
55 *857:66 *877:56 0
56 *867:80 *3030:D 0
57 *867:86 *877:71 0.000181608
58 *868:52 *877:33 8.00842e-05
59 *868:82 *877:50 0
60 *868:100 *877:33 0.000129043
61 *873:51 *3030:D 0.000339524
62 *873:51 *877:52 0
63 *873:51 *877:56 0.000582819
64 *873:70 *877:50 0.000288087
65 *873:70 *877:52 0
*RES
1 *3418:X *877:8 40.5974 
2 *877:8 *877:12 20.5356 
3 *877:12 *3417:A 20 
4 *877:12 *877:25 44.3157 
5 *877:25 *877:27 20 
6 *877:27 *877:33 28.4872 
7 *877:33 *3042:D 20 
8 *877:33 *877:44 24.841 
9 *877:44 *877:50 29.1058 
10 *877:50 *877:52 1.8334 
11 *877:52 *877:56 4.841 
12 *877:56 *3030:D 23.1106 
13 *877:56 *877:71 40.8446 
14 *877:71 *2898:D 20 
15 *877:52 *2910:D 20.3502 
16 *877:50 *2914:D 20 
17 *877:44 *2918:D 40.5356 
18 *877:27 *3038:D 40 
*END

*D_NET *878 0.011776
*CONN
*I *2951:D I *D sg13g2_nand4_1
*I *3059:D I *D sg13g2_nand4_1
*I *2931:D I *D sg13g2_nand4_1
*I *2927:D I *D sg13g2_nand4_1
*I *3063:D I *D sg13g2_nand4_1
*I *2943:D I *D sg13g2_nand4_1
*I *3055:D I *D sg13g2_nand4_1
*I *2923:D I *D sg13g2_nand4_1
*I *3419:X O *D sg13g2_buf_1
*CAP
1 *2951:D 0
2 *3059:D 0
3 *2931:D 0
4 *2927:D 0.000100305
5 *3063:D 0
6 *2943:D 0
7 *3055:D 0
8 *2923:D 0.00025252
9 *3419:X 4.67972e-05
10 *878:72 0.000169898
11 *878:70 0.000220249
12 *878:66 0.000306794
13 *878:59 0.000341024
14 *878:49 0.00113378
15 *878:40 0.000799141
16 *878:34 0.00100895
17 *878:10 0.000356064
18 *878:8 0.000996771
19 *878:34 *898:54 0.000242149
20 *878:40 *889:64 0
21 *878:49 *889:64 0.000144935
22 *878:49 *1165:49 0.00040317
23 *878:59 *888:53 0.000177963
24 *878:59 *1165:57 0.000501331
25 *878:66 *1165:49 4.77425e-05
26 *2943:C *878:40 1.54556e-05
27 *2943:C *878:49 0
28 *2951:C *878:49 0.000597713
29 *2951:C *878:66 0.000226567
30 *2951:A *878:70 0.000181273
31 *3076:A2 *878:59 0.000112426
32 *3:26 *878:59 0
33 *358:20 *878:34 0.00111643
34 *362:32 *878:8 0
35 *362:32 *878:34 0
36 *362:44 *2927:D 0.000125021
37 *362:44 *878:70 0.000183827
38 *362:44 *878:72 0.000340396
39 *363:22 *2923:D 0
40 *651:8 *878:70 0
41 *697:11 *878:59 0
42 *725:10 *878:40 0
43 *725:29 *878:34 0.000242236
44 *736:35 *878:49 0
45 *736:35 *878:66 0
46 *790:18 *2927:D 0.000340991
47 *790:18 *878:70 0.000534753
48 *790:18 *878:72 0.000319811
49 *820:66 *878:8 8.02105e-05
50 *859:6 *878:49 4.74263e-05
51 *864:23 *2923:D 0
52 *864:38 *878:40 0
53 *864:49 *878:49 0
54 *864:93 *2927:D 6.18629e-05
55 *872:6 *878:59 0
*RES
1 *3419:X *878:8 40.5356 
2 *878:8 *878:10 1.0918 
3 *878:10 *2923:D 42.0806 
4 *878:10 *3055:D 40 
5 *878:8 *878:34 49.2906 
6 *878:34 *878:40 21.6274 
7 *878:40 *2943:D 20 
8 *878:40 *878:49 6.7259 
9 *878:49 *878:59 43.9243 
10 *878:59 *3063:D 20 
11 *878:49 *878:66 1.6171 
12 *878:66 *878:70 22.575 
13 *878:70 *878:72 1.5862 
14 *878:72 *2927:D 41.5862 
15 *878:72 *2931:D 40 
16 *878:70 *3059:D 40 
17 *878:66 *2951:D 20 
*END

*D_NET *879 0.0140103
*CONN
*I *3079:D I *D sg13g2_nand4_1
*I *2709:A I *D sg13g2_inv_1
*I *2939:D I *D sg13g2_nand4_1
*I *2935:D I *D sg13g2_nand4_1
*I *3071:D I *D sg13g2_nand4_1
*I *3067:D I *D sg13g2_nand4_1
*I *2947:D I *D sg13g2_nand4_1
*I *3419:A I *D sg13g2_buf_1
*I *3420:X O *D sg13g2_buf_1
*CAP
1 *3079:D 2.82001e-05
2 *2709:A 0.000709482
3 *2939:D 3.72112e-05
4 *2935:D 0
5 *3071:D 0
6 *3067:D 6.56952e-05
7 *2947:D 0
8 *3419:A 0.000128305
9 *3420:X 0.00132848
10 *879:55 0.000356996
11 *879:51 0.000463859
12 *879:43 0.000306456
13 *879:41 0.00142224
14 *879:37 0.00082826
15 *879:30 0.000715111
16 *879:26 0.00162911
17 *879:8 0.000358793
18 *2709:A *1181:31 0
19 *3067:D *885:111 0
20 *3079:D *3079:C 1.54008e-05
21 *879:8 *898:37 0.000500717
22 *879:8 *898:54 0.000106064
23 *879:26 *3235:RESET_B 0
24 *879:41 *899:54 0
25 *879:51 *885:111 0
26 *879:55 *3071:C 1.54008e-05
27 *879:55 *885:111 0
28 *2923:C *879:26 0.000111728
29 *2927:C *879:26 0
30 *2934:A1 *879:41 0
31 *2935:C *879:43 7.51285e-05
32 *2935:C *879:51 0
33 *2939:B *879:43 0
34 *2939:B *879:51 0.000235347
35 *2947:B *879:37 0
36 *2948:A2 *879:37 0
37 *3056:A2 *3419:A 0.00024216
38 *3071:A *2939:D 0
39 *3071:A *879:51 0
40 *3071:A *879:55 0
41 *3079:A *879:37 0
42 *3080:A1 *879:37 0
43 *304:10 *879:30 0
44 *360:49 *879:51 0.000180885
45 *363:22 *879:8 0
46 *566:8 *879:30 0
47 *567:8 *879:41 0.000288173
48 *697:59 *879:8 0
49 *697:59 *879:26 0
50 *723:54 *879:26 0
51 *757:27 *2709:A 0.00114955
52 *766:22 *2709:A 0
53 *766:32 *879:41 0
54 *778:22 *879:30 0.00166594
55 *778:22 *879:41 0
56 *790:18 *879:41 0
57 *818:86 *879:41 0
58 *820:66 *3419:A 0.00024216
59 *855:62 *879:41 0.000446767
60 *855:62 *879:43 0.000212127
61 *856:79 *879:37 1.54008e-05
62 *865:54 *879:51 0.000129114
*RES
1 *3420:X *879:8 42.8222 
2 *879:8 *3419:A 41.6171 
3 *3420:X *879:26 49.4039 
4 *879:26 *879:30 27.7662 
5 *879:30 *2947:D 20 
6 *879:30 *879:37 1.6171 
7 *879:37 *879:41 27.2718 
8 *879:41 *879:43 1.339 
9 *879:43 *879:51 22.4411 
10 *879:51 *879:55 2.6162 
11 *879:55 *3067:D 20.5974 
12 *879:55 *3071:D 20 
13 *879:51 *2935:D 20 
14 *879:43 *2939:D 40.3193 
15 *879:41 *2709:A 47.6735 
16 *879:37 *3079:D 20.3193 
*END

*D_NET *880 0.0114372
*CONN
*I *2968:D I *D sg13g2_nand4_1
*I *2960:D I *D sg13g2_nand4_1
*I *2972:D I *D sg13g2_nand4_1
*I *3104:D I *D sg13g2_nand4_1
*I *3092:D I *D sg13g2_nand4_1
*I *2956:D I *D sg13g2_nand4_1
*I *3088:D I *D sg13g2_nand4_1
*I *2710:A I *D sg13g2_inv_1
*I *3421:X O *D sg13g2_buf_1
*CAP
1 *2968:D 0.000554214
2 *2960:D 6.16156e-05
3 *2972:D 0
4 *3104:D 0
5 *3092:D 0
6 *2956:D 0
7 *3088:D 0.00048779
8 *2710:A 0.000492895
9 *3421:X 3.03095e-05
10 *880:76 0.000135158
11 *880:70 0.000418728
12 *880:64 0.000648831
13 *880:62 0.00120302
14 *880:49 0.000933884
15 *880:23 0.000656844
16 *880:19 0.000900826
17 *880:6 0.000666254
18 *2710:A *2954:A 8.00842e-05
19 *2710:A *883:39 0.000134892
20 *2710:A *883:54 0.000112519
21 *2710:A *884:75 0.000145157
22 *2968:D *3104:C 0.000447598
23 *2968:D *889:58 0
24 *3088:D *3088:C 1.54008e-05
25 *3088:D *1169:8 0.00012079
26 *880:6 *884:75 0
27 *880:19 *884:75 0
28 *880:23 *3089:B1 0
29 *880:23 *891:22 0
30 *880:49 *884:83 0.000339398
31 *880:49 *891:37 0
32 *880:64 *3104:C 0.000709044
33 *880:70 *3104:C 0.00022762
34 *880:76 *3104:C 0
35 *2954:C *2710:A 0
36 *2956:C *3088:D 0.000176176
37 *2960:C *2960:D 0.000112289
38 *2968:B *2968:D 0
39 *2968:B *880:64 0
40 *2968:C *2968:D 0.000112289
41 *2969:A2 *2968:D 0.000112289
42 *2972:C *880:70 1.54008e-05
43 *3086:C *2710:A 0
44 *3093:A2 *880:62 0
45 *3094:B *880:62 4.76053e-05
46 *342:8 *2968:D 0.000181694
47 *354:24 *880:49 0
48 *360:30 *880:62 0
49 *571:61 *2710:A 0
50 *571:61 *3088:D 0
51 *576:16 *2960:D 0.000112289
52 *576:16 *880:70 0
53 *671:93 *3088:D 0.000241979
54 *671:101 *2710:A 0.000112684
55 *671:118 *2710:A 8.02379e-05
56 *671:118 *880:19 0.000207966
57 *685:10 *880:76 0
58 *757:27 *880:49 0
59 *757:27 *880:62 0
60 *817:50 *2710:A 0
61 *817:61 *880:19 0
62 *862:61 *3088:D 0.000166831
63 *865:16 *880:70 0
64 *865:22 *880:76 0.00023464
65 *865:40 *880:76 0
66 *865:90 *880:64 0
67 *866:76 *880:70 0
*RES
1 *3421:X *880:6 20.3502 
2 *880:6 *2710:A 24.7792 
3 *880:6 *880:19 21.4008 
4 *880:19 *880:23 21.339 
5 *880:23 *3088:D 25.15 
6 *880:23 *2956:D 20 
7 *880:19 *880:49 26.3242 
8 *880:49 *3092:D 20 
9 *880:49 *880:62 23.1489 
10 *880:62 *880:64 3.3166 
11 *880:64 *880:70 22.2763 
12 *880:70 *880:76 41.5862 
13 *880:76 *3104:D 20 
14 *880:70 *2972:D 20 
15 *880:64 *2960:D 40.7519 
16 *880:62 *2968:D 45.5517 
*END

*D_NET *881 0.0168196
*CONN
*I *3116:D I *D sg13g2_nand4_1
*I *2980:D I *D sg13g2_nand4_1
*I *3112:D I *D sg13g2_nand4_1
*I *2976:D I *D sg13g2_nand4_1
*I *3421:A I *D sg13g2_buf_1
*I *2964:D I *D sg13g2_nand4_1
*I *3096:D I *D sg13g2_nand4_1
*I *3108:D I *D sg13g2_nand4_1
*I *3422:X O *D sg13g2_buf_1
*CAP
1 *3116:D 0.000903837
2 *2980:D 0
3 *3112:D 3.79882e-05
4 *2976:D 3.04522e-05
5 *3421:A 0
6 *2964:D 0
7 *3096:D 0.000289327
8 *3108:D 0
9 *3422:X 2.77263e-05
10 *881:115 0.00118944
11 *881:98 0.000468342
12 *881:78 0.000227347
13 *881:67 0.000778214
14 *881:59 0.00130633
15 *881:44 0.000552198
16 *881:29 0.000664121
17 *881:27 0.00118288
18 *881:16 0.000791009
19 *881:10 0.000267573
20 *881:6 0.000284305
21 *3096:D *3096:C 4.78359e-05
22 *3096:D *3424:A 0
23 *3096:D *884:29 0
24 *3096:D *889:14 2.14736e-05
25 *3112:D *884:126 0.000157618
26 *3116:D *3317:RESET_B 0
27 *3116:D *885:41 0.000112799
28 *3116:D *890:97 0
29 *3116:D *891:51 0.000242281
30 *881:10 *1164:22 8.01612e-05
31 *881:16 *884:126 0.00071625
32 *881:27 *884:116 0.000144568
33 *881:29 *889:14 0.000693233
34 *881:59 *883:39 0.00014474
35 *881:67 *883:39 0
36 *881:67 *884:75 0
37 *881:67 *890:67 0.000238309
38 *881:98 *1164:22 4.78343e-05
39 *2964:C *881:59 4.78356e-05
40 *2976:C *2976:D 1.54008e-05
41 *2980:B *881:98 0
42 *2980:C *881:98 1.54556e-05
43 *2980:C *881:115 4.78356e-05
44 *3095:A1 *881:59 0
45 *3098:B *3096:D 0
46 *3111:A2 *3116:D 0
47 *3112:B *881:98 0
48 *3117:A2 *3116:D 0
49 *3403:A *881:59 0.000435892
50 *3408:A *881:59 0
51 *344:10 *881:27 5.20154e-05
52 *344:10 *881:29 0.000125021
53 *345:14 *881:10 0
54 *345:14 *881:98 0
55 *352:16 *881:27 0
56 *353:22 *3096:D 0.000229792
57 *354:24 *2976:D 4.77863e-05
58 *355:20 *881:59 0.000217609
59 *360:20 *881:67 0.000370938
60 *671:14 *881:59 0
61 *687:10 *881:27 0.000505302
62 *687:10 *881:29 7.30101e-05
63 *803:58 *881:59 0
64 *805:8 *881:115 0.000502762
65 *805:40 *3116:D 0
66 *808:16 *881:98 0
67 *808:16 *881:115 0
68 *816:18 *881:115 7.97665e-05
69 *817:50 *881:67 0.000597834
70 *820:36 *3116:D 0
71 *856:10 *3096:D 0
72 *856:10 *881:29 0
73 *856:10 *881:59 0
74 *856:118 *881:29 0
75 *856:118 *881:78 0.000244504
76 *861:16 *881:59 0.000370979
77 *862:16 *3096:D 0
78 *862:25 *881:59 0
79 *862:104 *2976:D 0
80 *863:12 *881:115 0
81 *873:14 *881:29 0.000287167
82 *873:26 *3112:D 0.000181116
83 *873:26 *881:16 0.000723349
*RES
1 *3422:X *881:6 20.3502 
2 *881:6 *881:10 20.7519 
3 *881:10 *881:16 23.6668 
4 *881:16 *3108:D 20 
5 *881:16 *881:27 26.8495 
6 *881:27 *881:29 4.3054 
7 *881:29 *3096:D 42.8943 
8 *881:29 *881:44 20.3193 
9 *881:44 *2964:D 20 
10 *881:44 *881:59 45.8401 
11 *881:59 *881:67 48.1164 
12 *881:67 *3421:A 20 
13 *881:27 *881:78 42.266 
14 *881:78 *2976:D 40.3193 
15 *881:10 *3112:D 40.8446 
16 *881:6 *881:98 1.6171 
17 *881:98 *2980:D 20 
18 *881:98 *881:115 43.5329 
19 *881:115 *3116:D 28.9713 
*END

*D_NET *882 0.0115686
*CONN
*I *2843:B2 I *D sg13g2_a22oi_1
*I *3568:X O *D sg13g2_buf_1
*CAP
1 *2843:B2 0.000106173
2 *3568:X 6.83377e-05
3 *882:24 0.00268438
4 *882:8 0.00264655
5 *882:8 *3135:RESET_B 0.000110935
6 *882:24 *2744:B1 0.000497943
7 *2820:A2 *882:24 0
8 *2821:A1 *882:24 0.000174653
9 *2821:B1 *882:24 0.000596646
10 *460:20 *882:24 1.54008e-05
11 *716:16 *882:24 0
12 *753:28 *882:24 0
13 *754:47 *2843:B2 0
14 *754:47 *882:24 0
15 *793:12 *882:24 0.00329827
16 *840:26 *882:8 0.000110935
17 *848:127 *2843:B2 0
18 *848:127 *882:24 1.53846e-05
19 *854:30 *882:24 0.00124299
*RES
1 *3568:X *882:8 40.7519 
2 *882:8 *882:24 49.3035 
3 *882:24 *2843:B2 20.9682 
*END

*D_NET *883 0.0315215
*CONN
*I *2954:A I *D sg13g2_nor3_1
*I *3053:A I *D sg13g2_nor3_1
*I *2921:A I *D sg13g2_nor3_1
*I *2888:A I *D sg13g2_nor3_1
*I *2987:A I *D sg13g2_nor3_1
*I *2855:A I *D sg13g2_nor3_1
*I *3086:A I *D sg13g2_nor3_1
*I *2706:A I *D sg13g2_inv_1
*I *3423:X O *D sg13g2_buf_1
*CAP
1 *2954:A 5.5027e-05
2 *3053:A 0.000443789
3 *2921:A 0
4 *2888:A 0.000913428
5 *2987:A 0.000289286
6 *2855:A 0.000217592
7 *3086:A 0.000235611
8 *2706:A 0.00029001
9 *3423:X 6.78821e-05
10 *883:127 0.00220121
11 *883:90 0.00139543
12 *883:86 0.00236486
13 *883:74 0.00437363
14 *883:70 0.00267406
15 *883:62 0.00313703
16 *883:54 0.000814715
17 *883:39 0.00084022
18 *883:27 0.00112663
19 *883:8 0.000950147
20 *2706:A *3424:A 0
21 *2706:A *885:33 0
22 *2706:A *1023:12 0
23 *2706:A *1023:18 0.000126354
24 *2888:A *894:12 0
25 *3053:A *2921:B 0.000161005
26 *3053:A *3247:RESET_B 0.000295388
27 *3086:A *884:52 0
28 *883:70 *1164:42 0.00113488
29 *883:74 *891:75 0
30 *883:86 *3221:RESET_B 0
31 *883:86 *3433:A 0
32 *883:86 *891:110 0
33 *883:86 *894:12 0
34 *883:127 *2921:B 1.54008e-05
35 *2710:A *2954:A 8.00842e-05
36 *2710:A *883:39 0.000134892
37 *2710:A *883:54 0.000112519
38 *2855:C *2855:A 0
39 *2855:C *2987:A 0.000553661
40 *2864:A2 *2855:A 0
41 *2868:B1 *883:86 0
42 *2899:A2 *2888:A 0
43 *2913:A1 *883:86 7.97988e-05
44 *2954:C *883:54 0
45 *2968:A *883:127 0
46 *2969:A2 *883:127 0
47 *2970:B *883:127 0
48 *3053:B *3053:A 0
49 *3086:C *3086:A 0
50 *3095:A1 *3086:A 0
51 *3095:A1 *883:39 0
52 *3102:A *883:127 8.03089e-05
53 *3197:CLK *2855:A 0
54 *3199:CLK *883:86 0
55 *3221:D *883:86 0.000272432
56 *3247:D *3053:A 0
57 *3253:CLK *883:70 0.000288173
58 *3309:CLK *3086:A 0.000112826
59 *3309:CLK *883:39 0
60 *3408:A *883:39 0
61 *3:18 *883:70 0
62 *3:18 *883:74 0
63 *293:8 *883:74 0
64 *312:10 *883:62 0.000553246
65 *351:10 *883:8 0.000111027
66 *352:16 *883:127 0
67 *353:8 *2706:A 0.000447597
68 *353:12 *2706:A 4.74145e-05
69 *355:12 *883:8 0.000111027
70 *379:22 *2987:A 8.02431e-05
71 *508:10 *2987:A 0
72 *508:10 *883:90 0
73 *521:61 *883:74 0
74 *521:68 *883:86 0
75 *521:83 *883:86 0
76 *530:10 *883:74 0
77 *530:10 *883:86 0
78 *539:12 *883:86 0.000359113
79 *546:20 *3053:A 0.000601391
80 *546:20 *883:127 8.00842e-05
81 *571:16 *883:62 0
82 *571:37 *883:70 0
83 *596:8 *2987:A 1.54008e-05
84 *671:8 *883:39 0
85 *671:93 *3086:A 0.000124547
86 *695:14 *883:70 0
87 *697:91 *883:74 0
88 *698:38 *883:62 0
89 *698:38 *883:70 0.000607938
90 *698:40 *3086:A 0
91 *698:40 *883:62 0
92 *698:89 *883:74 0.00060572
93 *711:39 *883:90 0
94 *717:12 *883:39 0
95 *722:39 *3053:A 0
96 *722:39 *883:127 0.00107259
97 *724:8 *883:74 0
98 *741:14 *883:74 0
99 *747:8 *883:90 0
100 *747:28 *883:90 0
101 *748:8 *883:90 0.000500716
102 *757:8 *883:70 7.52158e-05
103 *758:10 *883:70 0
104 *809:55 *2888:A 0
105 *814:20 *883:90 0
106 *816:51 *883:74 0
107 *817:27 *883:62 0
108 *817:50 *883:39 0.000145173
109 *822:14 *2855:A 0
110 *856:22 *3086:A 0
111 *858:41 *2987:A 0
112 *858:56 *2987:A 0
113 *861:53 *2888:A 0
114 *861:74 *2888:A 0
115 *861:74 *883:86 0
116 *863:40 *883:70 0
117 *881:59 *883:39 0.00014474
118 *881:67 *883:39 0
*RES
1 *3423:X *883:8 40.7519 
2 *883:8 *2706:A 43.4299 
3 *883:8 *883:27 47.0246 
4 *883:27 *883:39 45.9122 
5 *883:39 *3086:A 42.3381 
6 *883:39 *883:54 20.7519 
7 *883:54 *883:62 47.2821 
8 *883:62 *883:70 49.6614 
9 *883:70 *883:74 37.6542 
10 *883:74 *883:86 35.5015 
11 *883:86 *883:90 29.4966 
12 *883:90 *2855:A 41.8334 
13 *883:90 *2987:A 43.8522 
14 *883:74 *2888:A 48.3327 
15 *883:62 *883:127 18.5709 
16 *883:127 *2921:A 20 
17 *883:127 *3053:A 25.5414 
18 *883:54 *2954:A 20.5356 
*END

*D_NET *884 0.0174742
*CONN
*I *3108:C I *D sg13g2_nand4_1
*I *3112:C I *D sg13g2_nand4_1
*I *2707:A I *D sg13g2_inv_1
*I *3092:C I *D sg13g2_nand4_1
*I *3100:C I *D sg13g2_nand4_1
*I *2954:B I *D sg13g2_nor3_1
*I *3088:C I *D sg13g2_nand4_1
*I *3096:C I *D sg13g2_nand4_1
*I *3424:X O *D sg13g2_buf_1
*CAP
1 *3108:C 0
2 *3112:C 0
3 *2707:A 9.09289e-05
4 *3092:C 0
5 *3100:C 0
6 *2954:B 0
7 *3088:C 9.18339e-05
8 *3096:C 0.000135124
9 *3424:X 0.000157947
10 *884:126 0.000500735
11 *884:116 0.0013957
12 *884:101 0.00118896
13 *884:89 0.000426598
14 *884:83 0.000752326
15 *884:75 0.00104218
16 *884:52 0.000801395
17 *884:35 0.000176778
18 *884:33 0.000851768
19 *884:29 0.00133025
20 *884:10 0.000568492
21 *3096:C *3424:A 0
22 *3096:C *890:36 0
23 *884:10 *3424:A 0
24 *884:101 *890:46 0
25 *884:116 *890:46 0
26 *884:126 *885:33 0
27 *2710:A *884:75 0.000145157
28 *2954:C *884:52 4.77425e-05
29 *2968:B *884:89 0
30 *3086:A *884:52 0
31 *3088:B *3088:C 4.77534e-05
32 *3088:D *3088:C 1.54008e-05
33 *3096:D *3096:C 4.78359e-05
34 *3096:D *884:29 0
35 *3097:A2 *3096:C 0
36 *3100:B *884:89 0.00140641
37 *3112:B *884:126 2.16504e-05
38 *3112:D *884:126 0.000157618
39 *3403:A *2707:A 4.75212e-05
40 *3:18 *884:75 0
41 *350:10 *884:126 7.52149e-05
42 *351:10 *884:29 0
43 *353:22 *3096:C 0
44 *354:24 *884:83 0
45 *355:12 *2707:A 0
46 *355:12 *884:101 0.000288317
47 *360:20 *884:75 0
48 *360:30 *884:75 0.000500688
49 *360:30 *884:83 0
50 *571:61 *884:75 0.000177164
51 *671:93 *884:75 0
52 *671:101 *884:75 0.000127853
53 *681:8 *884:89 0
54 *682:10 *884:89 0
55 *698:40 *3088:C 0.000124547
56 *698:40 *884:52 0.000124862
57 *717:16 *884:33 0.000836643
58 *803:58 *3096:C 0
59 *817:50 *884:75 8.02434e-05
60 *856:14 *884:33 0.00113392
61 *856:31 *884:33 0.000277878
62 *856:46 *884:75 0.000435359
63 *861:26 *884:116 0
64 *862:16 *884:29 0
65 *862:16 *884:101 0
66 *862:100 *884:116 0.000498331
67 *873:26 *2707:A 0.000144831
68 *873:26 *884:126 0
69 *880:6 *884:75 0
70 *880:19 *884:75 0
71 *880:49 *884:83 0.000339398
72 *881:16 *884:126 0.00071625
73 *881:27 *884:116 0.000144568
74 *881:67 *884:75 0
*RES
1 *3424:X *884:10 41.5965 
2 *884:10 *3096:C 41.8386 
3 *884:10 *884:29 1.9054 
4 *884:29 *884:33 29.4081 
5 *884:33 *884:35 20 
6 *884:35 *3088:C 40.9167 
7 *884:35 *884:52 20.9167 
8 *884:52 *2954:B 20 
9 *884:52 *884:75 48.0752 
10 *884:75 *884:83 43.3578 
11 *884:83 *884:89 46.7774 
12 *884:89 *3100:C 20 
13 *884:83 *3092:C 20 
14 *884:29 *884:101 2.0806 
15 *884:101 *2707:A 40.9682 
16 *884:101 *884:116 27.7456 
17 *884:116 *884:126 45.4538 
18 *884:126 *3112:C 20 
19 *884:116 *3108:C 20 
*END

*D_NET *885 0.0374814
*CONN
*I *3059:C I *D sg13g2_nand4_1
*I *3079:C I *D sg13g2_nand4_1
*I *2921:B I *D sg13g2_nor3_1
*I *3071:C I *D sg13g2_nand4_1
*I *3067:C I *D sg13g2_nand4_1
*I *3055:C I *D sg13g2_nand4_1
*I *3116:C I *D sg13g2_nand4_1
*I *3424:A I *D sg13g2_buf_1
*I *3425:X O *D sg13g2_buf_1
*CAP
1 *3059:C 0
2 *3079:C 0.000331147
3 *2921:B 0.000135718
4 *3071:C 0.000185703
5 *3067:C 0
6 *3055:C 0
7 *3116:C 0
8 *3424:A 0.000569657
9 *3425:X 3.84324e-05
10 *885:159 0.000972129
11 *885:142 0.00211104
12 *885:111 0.001896
13 *885:99 0.00266536
14 *885:91 0.00183805
15 *885:84 0.000178386
16 *885:76 0.000985949
17 *885:64 0.00225481
18 *885:58 0.00179985
19 *885:41 0.000741647
20 *885:33 0.00255923
21 *885:8 0.00298921
22 *2921:B *3247:RESET_B 0
23 *3424:A *890:36 0
24 *3424:A *890:46 0
25 *3424:A *1012:18 0
26 *885:33 *3189:RESET_B 0.00017733
27 *885:33 *890:97 0
28 *885:33 *1023:18 0.00339658
29 *885:33 *1088:8 0
30 *885:41 *891:51 0
31 *885:58 *3319:RESET_B 0
32 *885:58 *891:51 4.78524e-05
33 *885:58 *1164:42 0.000125963
34 *885:64 *3255:RESET_B 0.000135702
35 *885:76 *3420:A 0.000182121
36 *885:76 *892:64 0
37 *885:111 *909:78 0
38 *2706:A *3424:A 0
39 *2706:A *885:33 0
40 *2921:C *2921:B 0
41 *2923:C *885:76 0
42 *2925:A *885:64 0
43 *2935:B *885:111 0
44 *2948:A1 *3079:C 0
45 *2959:B1 *885:111 0
46 *2976:A *885:33 0.000722113
47 *2985:A2 *885:58 0
48 *3053:A *2921:B 0.000161005
49 *3056:A2 *885:84 0
50 *3057:B *885:76 4.68099e-05
51 *3059:B *885:159 8.00842e-05
52 *3067:D *885:111 0
53 *3079:D *3079:C 1.54008e-05
54 *3096:C *3424:A 0
55 *3096:D *3424:A 0
56 *3098:B *3424:A 0
57 *3113:A2 *885:33 0
58 *3116:A *885:41 0.000181279
59 *3116:D *885:41 0.000112799
60 *3117:A2 *885:41 0
61 *3118:B *885:58 0.000370807
62 *3189:CLK *885:33 0
63 *3247:D *2921:B 0.00011159
64 *3247:CLK *885:99 0
65 *3255:CLK *885:64 0
66 *3354:A *885:76 0
67 *299:10 *885:64 0
68 *299:10 *885:91 0
69 *299:10 *885:99 0
70 *299:10 *885:142 0
71 *310:8 *885:99 0
72 *350:10 *885:33 0.000160758
73 *359:20 *885:111 0
74 *360:49 *3071:C 0
75 *362:32 *885:159 0
76 *363:22 *885:84 0
77 *386:10 *885:111 0.000499952
78 *546:127 *885:76 0
79 *547:8 *885:76 0
80 *567:8 *3079:C 0.000284221
81 *571:95 *885:111 0.000177335
82 *571:110 *885:111 0.000565845
83 *581:8 *885:99 0.000288184
84 *595:10 *885:58 8.03091e-05
85 *595:10 *885:64 0
86 *680:10 *3424:A 0
87 *691:8 *885:33 0.000398157
88 *697:11 *885:159 0
89 *697:17 *885:142 0
90 *697:17 *885:159 0
91 *697:21 *885:99 0
92 *697:34 *885:99 0
93 *697:34 *885:111 0
94 *707:16 *885:99 0
95 *707:81 *885:76 0.000181192
96 *732:29 *885:159 0.000144999
97 *755:8 *885:99 0
98 *758:32 *885:58 0
99 *758:32 *885:64 0.00128824
100 *758:38 *885:64 0.00017718
101 *758:38 *885:91 0.000291085
102 *758:38 *885:142 0.00132569
103 *759:39 *885:142 0
104 *766:32 *3079:C 0
105 *766:32 *885:159 0
106 *790:18 *3079:C 0
107 *803:47 *3424:A 0.000181385
108 *803:47 *885:33 0.000711505
109 *805:40 *885:33 0.000598855
110 *805:59 *885:33 0.000145036
111 *805:59 *885:41 0
112 *805:59 *885:58 0
113 *806:8 *885:76 8.02105e-05
114 *818:10 *885:99 0
115 *818:14 *885:111 0
116 *818:20 *885:111 0.000111999
117 *818:46 *885:111 0.000582785
118 *819:35 *885:76 0
119 *819:58 *885:159 0.000558834
120 *856:94 *885:64 0
121 *863:12 *885:33 0.000145091
122 *863:34 *885:33 0
123 *863:40 *885:41 0
124 *864:23 *885:84 4.77537e-05
125 *864:36 *885:76 7.9706e-05
126 *864:36 *885:84 0.000112178
127 *865:46 *885:111 0
128 *865:54 *3071:C 3.23417e-05
129 *865:54 *885:111 8.00842e-05
130 *873:26 *885:33 0
131 *879:51 *885:111 0
132 *879:55 *3071:C 1.54008e-05
133 *879:55 *885:111 0
134 *883:127 *2921:B 1.54008e-05
135 *884:10 *3424:A 0
136 *884:126 *885:33 0
*RES
1 *3425:X *885:8 40.3193 
2 *885:8 *3424:A 45.9272 
3 *885:8 *885:33 49.355 
4 *885:33 *885:41 42.0909 
5 *885:41 *3116:C 20 
6 *885:41 *885:58 45.7268 
7 *885:58 *885:64 13.1325 
8 *885:64 *885:76 48.0443 
9 *885:76 *885:84 41.5656 
10 *885:84 *3055:C 20 
11 *885:64 *885:91 2.0497 
12 *885:91 *885:99 28.1885 
13 *885:99 *885:111 38.2207 
14 *885:111 *3067:C 20 
15 *885:111 *3071:C 22.163 
16 *885:99 *2921:B 41.5347 
17 *885:91 *885:142 28.9713 
18 *885:142 *3079:C 43.6359 
19 *885:142 *885:159 30.3103 
20 *885:159 *3059:C 20 
*END

*D_NET *886 0.019456
*CONN
*I *3034:C I *D sg13g2_nand4_1
*I *3022:C I *D sg13g2_nand4_1
*I *3026:C I *D sg13g2_nand4_1
*I *3038:C I *D sg13g2_nand4_1
*I *3042:C I *D sg13g2_nand4_1
*I *3046:C I *D sg13g2_nand4_1
*I *3030:C I *D sg13g2_nand4_1
*I *2888:B I *D sg13g2_nor3_1
*I *3426:X O *D sg13g2_buf_1
*CAP
1 *3034:C 0
2 *3022:C 0.000155661
3 *3026:C 0.0001448
4 *3038:C 0
5 *3042:C 0
6 *3046:C 2.43601e-05
7 *3030:C 0.000118382
8 *2888:B 0
9 *3426:X 4.7542e-05
10 *886:121 0.000878492
11 *886:88 0.00101606
12 *886:63 0.00135741
13 *886:52 0.00113912
14 *886:35 0.00106782
15 *886:26 0.000193001
16 *886:18 0.00089217
17 *886:12 0.000795809
18 *886:10 0.000322081
19 *886:8 0.00096459
20 *3022:C *3594:A 0.000144068
21 *886:8 *3594:A 7.92265e-05
22 *886:8 *3597:A 7.92265e-05
23 *886:18 *894:81 0
24 *886:18 *1130:14 0.000475054
25 *886:52 *3046:D 1.54008e-05
26 *886:52 *3277:RESET_B 0
27 *886:88 *2700:A 0
28 *886:88 *3050:C 0
29 *886:88 *1166:51 4.77425e-05
30 *2888:C *886:26 0.000453454
31 *2898:A *3030:C 0
32 *2910:A *3046:C 0.000128662
33 *2910:A *886:63 0.00111865
34 *3020:C *886:26 0.000321111
35 *3022:D *3022:C 2.56966e-05
36 *3022:D *886:10 0.000130055
37 *3022:D *886:12 0.000130055
38 *3022:D *886:121 0.000286947
39 *3034:A *886:121 0
40 *3034:D *886:121 8.01776e-05
41 *3038:B *886:88 4.78685e-05
42 *3042:A *886:63 0.000497964
43 *365:16 *886:52 0
44 *368:16 *886:121 0
45 *368:33 *886:121 0.00198339
46 *369:10 *3030:C 0
47 *369:10 *886:52 0
48 *371:10 *886:121 0
49 *535:12 *886:26 0.000828895
50 *621:10 *3030:C 2.14736e-05
51 *621:10 *886:52 0.000450639
52 *625:8 *886:52 0.000346273
53 *628:8 *3030:C 0
54 *809:55 *886:26 0
55 *821:42 *886:52 0
56 *861:53 *886:26 0
57 *867:35 *3022:C 0
58 *867:58 *3026:C 4.77425e-05
59 *873:55 *3046:C 0.000128247
60 *873:55 *886:63 0.0017231
61 *873:55 *886:88 0.000181192
62 *876:54 *886:18 0
63 *877:33 *886:88 0.00056642
*RES
1 *3426:X *886:8 40.5356 
2 *886:8 *886:10 0.5974 
3 *886:10 *886:12 1.339 
4 *886:12 *886:18 25.7062 
5 *886:18 *886:26 44.1303 
6 *886:26 *2888:B 20 
7 *886:18 *886:35 22.0497 
8 *886:35 *3030:C 40.8446 
9 *886:35 *886:52 48.24 
10 *886:52 *3046:C 40.5974 
11 *886:52 *886:63 8.0134 
12 *886:63 *3042:C 40 
13 *886:63 *886:88 30.094 
14 *886:88 *3038:C 20 
15 *886:12 *3026:C 41.1845 
16 *886:10 *3022:C 41.5656 
17 *886:8 *886:121 31.1755 
18 *886:121 *3034:C 20 
*END

*D_NET *887 0.0125971
*CONN
*I *3017:C I *D sg13g2_nand4_1
*I *2997:C I *D sg13g2_nand4_1
*I *3001:C I *D sg13g2_nand4_1
*I *3005:C I *D sg13g2_nand4_1
*I *2993:C I *D sg13g2_nand4_1
*I *3009:C I *D sg13g2_nand4_1
*I *2989:C I *D sg13g2_nand4_1
*I *2855:B I *D sg13g2_nor3_1
*I *3427:X O *D sg13g2_buf_1
*CAP
1 *3017:C 0
2 *2997:C 0
3 *3001:C 3.64002e-05
4 *3005:C 0.000141338
5 *2993:C 0.000290836
6 *3009:C 0.000192704
7 *2989:C 6.61096e-05
8 *2855:B 0.000199181
9 *3427:X 8.18458e-05
10 *887:108 0.000123597
11 *887:93 0.000724023
12 *887:87 0.00088316
13 *887:59 0.00144566
14 *887:44 0.00120619
15 *887:42 0.00104125
16 *887:23 0.000986037
17 *887:8 0.000478836
18 *3005:C *3005:D 0.000144417
19 *3009:C *1167:31 0
20 *887:8 *1178:31 0
21 *887:42 *896:47 0.00028427
22 *887:59 *3005:D 0
23 *887:59 *1167:31 0
24 *887:87 *1167:31 0
25 *887:93 *1167:16 0.000144441
26 *887:93 *1167:29 0.000209676
27 *2855:C *2855:B 1.54008e-05
28 *2861:D *2993:C 7.62452e-05
29 *2873:D *2993:C 0.000129579
30 *2879:B *2993:C 0
31 *2885:A *887:42 0
32 *2885:A *887:87 0
33 *2989:D *2989:C 1.54008e-05
34 *2990:A1 *887:23 0
35 *2990:A1 *887:42 0
36 *2993:D *2993:C 0.000124522
37 *3001:B *887:108 0
38 *3001:D *887:108 0.00012816
39 *3005:B *2993:C 0.000432596
40 *3005:B *3005:C 0.000242857
41 *3009:A *3009:C 0
42 *3017:B *887:87 4.78524e-05
43 *3017:B *887:93 0.000176564
44 *3369:A *2855:B 4.74145e-05
45 *3415:A *887:93 0
46 *373:22 *3001:C 1.54008e-05
47 *373:22 *887:87 0
48 *373:22 *887:93 0.000533036
49 *374:18 *887:108 0
50 *374:26 *3009:C 0
51 *378:16 *887:42 0
52 *379:28 *2855:B 7.55443e-05
53 *379:28 *887:23 0.000318191
54 *496:10 *2855:B 4.7813e-05
55 *513:10 *3009:C 0
56 *513:10 *887:59 0
57 *697:254 *887:59 0
58 *697:278 *887:59 0
59 *766:36 *2993:C 0
60 *766:36 *3005:C 0
61 *812:54 *887:42 7.35191e-05
62 *822:14 *2855:B 0
63 *824:25 *887:42 0
64 *824:25 *887:87 0
65 *858:67 *887:8 0.000111919
66 *858:112 *887:42 0
67 *869:33 *887:42 0.000444932
68 *870:64 *2993:C 0.000399373
69 *872:29 *887:42 0
70 *874:8 *887:108 1.54008e-05
71 *874:12 *887:108 7.51285e-05
72 *875:15 *887:93 0.000370309
*RES
1 *3427:X *887:8 40.7519 
2 *887:8 *2855:B 42.0909 
3 *887:8 *887:23 2.3999 
4 *887:23 *2989:C 40.5356 
5 *887:23 *887:42 46.8907 
6 *887:42 *887:44 20 
7 *887:44 *3009:C 21.6377 
8 *887:44 *887:59 29.8365 
9 *887:59 *2993:C 44.2848 
10 *887:59 *3005:C 41.8128 
11 *887:42 *887:87 22.5235 
12 *887:87 *887:93 6.3963 
13 *887:93 *3001:C 20.3193 
14 *887:93 *887:108 41.4111 
15 *887:108 *2997:C 20 
16 *887:87 *3017:C 20 
*END

*D_NET *888 0.0131382
*CONN
*I *3083:C I *D sg13g2_nand4_1
*I *3063:C I *D sg13g2_nand4_1
*I *3075:C I *D sg13g2_nand4_1
*I *3013:C I *D sg13g2_nand4_1
*I *3427:A I *D sg13g2_buf_1
*I *3428:X O *D sg13g2_buf_1
*CAP
1 *3083:C 0.000304591
2 *3063:C 8.59391e-05
3 *3075:C 0
4 *3013:C 0.000304204
5 *3427:A 6.41019e-05
6 *3428:X 2.81586e-05
7 *888:53 0.000639013
8 *888:35 0.00114297
9 *888:22 0.00108476
10 *888:18 0.00249579
11 *888:8 0.00246873
12 *888:6 0.000431476
13 *3013:C *3005:D 1.54556e-05
14 *3013:C *1167:31 0.00046724
15 *3083:C *1165:57 0.000596756
16 *3427:A *1178:31 0
17 *3427:A *1179:32 0.000112018
18 *888:18 *3075:D 4.77425e-05
19 *888:18 *898:84 0
20 *888:18 *1165:41 0.000144979
21 *888:22 *1178:31 0
22 *888:22 *1179:32 0.000305825
23 *888:35 *898:84 0
24 *2884:A2 *888:18 0
25 *3013:B *3013:C 4.78359e-05
26 *3075:B *888:8 4.77425e-05
27 *3075:B *888:18 0.000111995
28 *3076:A2 *3063:C 0
29 *3076:A2 *888:18 0
30 *3:26 *888:53 0
31 *373:22 *3013:C 0
32 *619:10 *3013:C 0
33 *711:10 *888:35 0
34 *711:64 *888:35 0
35 *741:22 *888:6 0
36 *741:22 *888:8 0
37 *741:22 *888:53 0
38 *741:32 *888:53 1.54282e-05
39 *744:35 *888:18 0
40 *822:22 *888:18 0
41 *822:36 *888:18 0
42 *858:67 *3427:A 8.00842e-05
43 *858:67 *888:35 0.000340704
44 *858:97 *888:35 0.000604442
45 *859:19 *888:18 0
46 *870:39 *888:35 0.000177894
47 *872:76 *3063:C 8.00842e-05
48 *872:76 *3083:C 0.000522678
49 *873:88 *888:8 7.93156e-05
50 *873:88 *888:53 0.00011226
51 *878:59 *888:53 0.000177963
*RES
1 *3428:X *888:6 20.3502 
2 *888:6 *888:8 1.4008 
3 *888:8 *888:18 40.7133 
4 *888:18 *888:22 22.0497 
5 *888:22 *3427:A 20.7519 
6 *888:22 *888:35 48.5078 
7 *888:35 *3013:C 23.1312 
8 *888:8 *3075:C 20 
9 *888:6 *888:53 22.3072 
10 *888:53 *3063:C 40.8858 
11 *888:53 *3083:C 44.12 
*END

*D_NET *889 0.0435347
*CONN
*I *3050:C I *D sg13g2_nand4_1
*I *3426:A I *D sg13g2_buf_1
*I *3428:A I *D sg13g2_buf_1
*I *3104:C I *D sg13g2_nand4_1
*I *3425:A I *D sg13g2_buf_1
*I *3429:X O *D sg13g2_buf_1
*CAP
1 *3050:C 0.000769865
2 *3426:A 0
3 *3428:A 0.000529702
4 *3104:C 0.000796011
5 *3425:A 0.000201313
6 *3429:X 0
7 *889:98 0.00190751
8 *889:87 0.000131489
9 *889:81 0.00126914
10 *889:79 0.00301313
11 *889:64 0.00164266
12 *889:58 0.00284982
13 *889:41 0.00253287
14 *889:39 0.0015982
15 *889:35 0.00504761
16 *889:14 0.00059048
17 *889:6 0.000825439
18 *3050:C *1166:43 0
19 *3050:C *1166:51 4.77425e-05
20 *3050:C *1166:62 1.54008e-05
21 *3104:C *3431:A 0
22 *889:35 *3315:RESET_B 0.000177373
23 *889:39 *3315:RESET_B 0.000177126
24 *889:58 *898:56 0
25 *889:64 *1165:22 0
26 *889:79 *1113:18 0
27 *889:79 *1128:26 0.000501576
28 *889:79 *1134:8 0.000290258
29 *889:79 *1162:12 0.00222411
30 *2906:A *889:98 0.000237803
31 *2968:D *3104:C 0.000447598
32 *2968:D *889:58 0
33 *3038:A *889:98 0.00115268
34 *3096:D *889:14 2.14736e-05
35 *3104:A *3104:C 0
36 *3107:A1 *889:39 0.000241979
37 *3289:CLK *889:64 0
38 *3317:CLK *889:79 0
39 *3414:A *3425:A 0
40 *298:16 *889:58 0
41 *353:12 *3425:A 0
42 *355:20 *3425:A 0.000175699
43 *359:14 *889:35 0.000177548
44 *359:14 *889:39 0
45 *359:20 *889:39 0.00248466
46 *377:10 *3050:C 0
47 *493:41 *889:79 0.00109468
48 *580:26 *3104:C 0
49 *621:20 *889:98 0
50 *625:8 *889:98 0
51 *627:8 *889:98 0.000128675
52 *671:14 *889:35 0
53 *682:10 *889:58 0
54 *687:10 *889:35 0
55 *720:8 *889:58 0
56 *722:39 *889:39 0
57 *736:35 *3428:A 0
58 *736:35 *889:64 0.00173111
59 *741:22 *3428:A 0.000758496
60 *764:21 *889:79 0
61 *803:37 *889:14 7.62389e-05
62 *803:95 *3104:C 0
63 *811:28 *3050:C 0.000112535
64 *811:39 *3050:C 0.000129499
65 *816:10 *889:79 0.0002899
66 *816:12 *889:79 0.000448022
67 *816:18 *889:79 0.00202246
68 *817:23 *889:39 0.000518233
69 *820:58 *889:58 0
70 *856:94 *889:58 0
71 *856:118 *889:35 0
72 *859:19 *889:64 0.000177891
73 *861:26 *889:14 0
74 *862:16 *3425:A 0
75 *862:16 *889:14 0.000287738
76 *864:8 *889:58 0
77 *864:23 *889:58 0
78 *864:38 *889:64 0
79 *865:16 *3104:C 0
80 *865:22 *3104:C 0
81 *866:76 *3104:C 0.00044099
82 *866:76 *889:58 0.000984099
83 *866:87 *889:58 0.000481001
84 *868:30 *889:79 0
85 *878:40 *889:64 0
86 *878:49 *889:64 0.000144935
87 *880:64 *3104:C 0.000709044
88 *880:70 *3104:C 0.00022762
89 *880:76 *3104:C 0
90 *881:29 *889:14 0.000693233
91 *886:88 *3050:C 0
*RES
1 *3429:X *889:6 40 
2 *889:6 *889:14 45.15 
3 *889:14 *3425:A 41.9673 
4 *889:6 *889:35 44.1097 
5 *889:35 *889:39 38.0559 
6 *889:39 *889:41 20 
7 *889:41 *3104:C 48.9816 
8 *889:41 *889:58 40.6927 
9 *889:58 *889:64 32.4115 
10 *889:64 *3428:A 45.0779 
11 *889:35 *889:79 35.9676 
12 *889:79 *889:81 20 
13 *889:81 *889:87 41.4008 
14 *889:87 *3426:A 20 
15 *889:81 *889:98 32.8132 
16 *889:98 *3050:C 47.2409 
*END

*D_NET *890 0.0170661
*CONN
*I *2957:B1 I *D sg13g2_o21ai_1
*I *3113:B1 I *D sg13g2_o21ai_1
*I *2851:A I *D sg13g2_and2_1
*I *2981:B1 I *D sg13g2_o21ai_1
*I *2977:B1 I *D sg13g2_o21ai_1
*I *2965:B1 I *D sg13g2_o21ai_1
*I *3097:B1 I *D sg13g2_o21ai_1
*I *3109:B1 I *D sg13g2_o21ai_1
*I *3430:X O *D sg13g2_buf_1
*CAP
1 *2957:B1 5.69077e-05
2 *3113:B1 0
3 *2851:A 0.000346061
4 *2981:B1 6.09894e-05
5 *2977:B1 0.000327991
6 *2965:B1 0
7 *3097:B1 0
8 *3109:B1 0
9 *3430:X 0.000138967
10 *890:97 0.00131724
11 *890:78 0.00149599
12 *890:67 0.00144324
13 *890:46 0.000500176
14 *890:36 0.000601931
15 *890:30 0.00060654
16 *890:20 0.00128033
17 *890:14 0.00138235
18 *890:8 0.00145412
19 *890:14 *3305:RESET_B 0
20 *890:30 *3309:RESET_B 0
21 *890:46 *1088:8 7.51285e-05
22 *2851:B *2851:A 0
23 *2957:A2 *2957:B1 1.54008e-05
24 *2965:A2 *890:30 0.000501556
25 *2965:A2 *890:67 1.54008e-05
26 *2977:A2 *2977:B1 1.54556e-05
27 *2978:B *2977:B1 0
28 *2980:A *2851:A 0
29 *3090:B *890:14 8.03692e-05
30 *3096:B *890:30 7.35528e-05
31 *3096:C *890:36 0
32 *3097:A2 *890:36 0.000176771
33 *3097:A2 *890:46 1.54008e-05
34 *3110:B *890:46 1.54008e-05
35 *3113:A2 *2851:A 0.000337715
36 *3113:A2 *890:97 1.54556e-05
37 *3116:D *890:97 0
38 *3189:D *2851:A 1.54008e-05
39 *3305:CLK *890:14 0
40 *3352:A *890:97 0.000130162
41 *3424:A *890:36 0
42 *3424:A *890:46 0
43 *307:14 *890:14 0.000145222
44 *339:10 *890:14 0.00024211
45 *349:12 *2851:A 0
46 *351:10 *890:46 0
47 *355:12 *890:46 0
48 *572:10 *890:8 0
49 *574:8 *890:14 0.000288502
50 *579:10 *890:30 2.14736e-05
51 *580:26 *2957:B1 0
52 *580:26 *890:14 0
53 *580:26 *890:67 1.54285e-05
54 *678:8 *890:20 0.00045472
55 *678:8 *890:67 0.000387417
56 *680:10 *890:36 3.23472e-05
57 *680:10 *890:46 1.54556e-05
58 *692:10 *2851:A 0.00027284
59 *717:12 *890:67 0
60 *803:25 *890:78 0.00147976
61 *803:25 *890:97 0.000107631
62 *803:27 *2977:B1 0
63 *803:47 *890:46 0.000868868
64 *803:95 *2957:B1 0
65 *803:95 *890:8 0
66 *816:18 *890:97 0
67 *873:26 *890:46 0
68 *881:67 *890:67 0.000238309
69 *884:101 *890:46 0
70 *884:116 *890:46 0
71 *885:33 *890:97 0
*RES
1 *3430:X *890:8 41.0918 
2 *890:8 *890:14 34.2964 
3 *890:14 *890:20 42.0806 
4 *890:20 *890:30 45.5311 
5 *890:30 *890:36 41.1845 
6 *890:36 *890:46 45.6856 
7 *890:46 *3109:B1 20 
8 *890:36 *3097:B1 20 
9 *890:20 *2965:B1 20 
10 *890:20 *890:67 26.8186 
11 *890:67 *2977:B1 42.6986 
12 *890:67 *890:78 7.2718 
13 *890:78 *2981:B1 40.5356 
14 *890:78 *890:97 29.1258 
15 *890:97 *2851:A 23.9964 
16 *890:97 *3113:B1 20 
17 *890:8 *2957:B1 40.5356 
*END

*D_NET *891 0.0193255
*CONN
*I *3430:A I *D sg13g2_buf_1
*I *2907:B1 I *D sg13g2_o21ai_1
*I *2891:B1 I *D sg13g2_o21ai_1
*I *2919:B1 I *D sg13g2_o21ai_1
*I *2985:B1 I *D sg13g2_o21ai_1
*I *3117:B1 I *D sg13g2_o21ai_1
*I *3089:B1 I *D sg13g2_o21ai_1
*I *3431:X O *D sg13g2_buf_1
*CAP
1 *3430:A 0
2 *2907:B1 0
3 *2891:B1 0.000702797
4 *2919:B1 5.524e-05
5 *2985:B1 0.000219681
6 *3117:B1 0
7 *3089:B1 0.000709431
8 *3431:X 0.000446283
9 *891:110 0.00174327
10 *891:91 0.000368559
11 *891:75 0.00257689
12 *891:60 0.00169902
13 *891:51 0.000558172
14 *891:37 0.00205401
15 *891:24 0.00194902
16 *891:22 0.000466578
17 *891:12 0.000912861
18 *2891:B1 *3620:A 0
19 *2891:B1 *1163:12 0.000143171
20 *2985:B1 *947:10 0.000145124
21 *891:12 *3431:A 0
22 *891:37 *930:12 0
23 *2891:A2 *2891:B1 1.53311e-05
24 *2897:B1 *891:75 0
25 *2897:B1 *891:91 0
26 *2897:B1 *891:110 0
27 *2901:A2 *2891:B1 0
28 *2909:A1 *891:91 0
29 *2917:A1 *891:91 0
30 *2955:B1 *891:12 0
31 *2956:A *891:12 0
32 *2985:A2 *2985:B1 1.54008e-05
33 *3089:A2 *3089:B1 1.54008e-05
34 *3116:D *891:51 0.000242281
35 *3118:B *891:51 0
36 *3319:D *891:51 0.000112133
37 *3:18 *891:37 0
38 *293:8 *891:75 0
39 *354:32 *891:12 0
40 *521:12 *2891:B1 0
41 *521:46 *2891:B1 0
42 *521:46 *891:110 0.000180744
43 *521:53 *891:110 0.000304983
44 *521:68 *891:91 0
45 *521:68 *891:110 0.000175928
46 *530:10 *891:75 0
47 *530:10 *891:110 0
48 *535:12 *2891:B1 0
49 *544:14 *2919:B1 7.989e-05
50 *571:61 *891:22 0.000126445
51 *571:74 *891:12 0
52 *572:10 *891:22 0
53 *573:12 *891:22 0
54 *580:26 *3089:B1 0
55 *580:26 *891:12 0
56 *595:10 *2985:B1 8.03091e-05
57 *671:118 *3089:B1 0.00012816
58 *671:118 *891:22 0.000339131
59 *672:8 *3089:B1 0
60 *693:10 *891:37 0
61 *697:91 *891:37 0
62 *724:8 *891:37 0
63 *724:8 *891:75 0
64 *737:10 *891:91 0
65 *737:25 *891:110 0
66 *741:22 *2919:B1 0
67 *758:10 *891:51 0.000177526
68 *758:32 *891:51 0.000392547
69 *803:80 *3089:B1 0
70 *803:80 *891:12 4.78192e-05
71 *803:80 *891:22 0
72 *803:95 *891:12 0.000435905
73 *805:59 *2985:B1 0.000144
74 *805:65 *891:37 0
75 *809:55 *2891:B1 0.000216981
76 *809:66 *891:110 4.75265e-05
77 *816:66 *891:91 0.00028875
78 *817:61 *891:12 0
79 *820:36 *891:51 0
80 *856:46 *3089:B1 0.000440991
81 *856:46 *891:22 0.00037105
82 *856:46 *891:37 5.30319e-05
83 *856:94 *2985:B1 1.51e-05
84 *862:76 *891:12 0
85 *862:76 *891:22 8.0194e-05
86 *880:23 *3089:B1 0
87 *880:23 *891:22 0
88 *880:49 *891:37 0
89 *883:74 *891:75 0
90 *883:86 *891:110 0
91 *885:41 *891:51 0
92 *885:58 *891:51 4.78524e-05
*RES
1 *3431:X *891:12 24.8616 
2 *891:12 *891:22 45.0985 
3 *891:22 *891:24 20 
4 *891:24 *3089:B1 47.1894 
5 *891:24 *891:37 13.2046 
6 *891:37 *891:51 46.2624 
7 *891:51 *3117:B1 40 
8 *891:37 *891:60 2.0806 
9 *891:60 *2985:B1 42.781 
10 *891:60 *891:75 11.9686 
11 *891:75 *891:91 43.708 
12 *891:91 *2919:B1 40.5356 
13 *891:75 *891:110 29.8056 
14 *891:110 *2891:B1 26.3048 
15 *891:110 *2907:B1 20 
16 *891:12 *3430:A 20 
*END

*D_NET *892 0.0151925
*CONN
*I *2961:B1 I *D sg13g2_o21ai_1
*I *2973:B1 I *D sg13g2_o21ai_1
*I *3105:B1 I *D sg13g2_o21ai_1
*I *2944:B1 I *D sg13g2_o21ai_1
*I *2924:B1 I *D sg13g2_o21ai_1
*I *3101:B1 I *D sg13g2_o21ai_1
*I *2969:B1 I *D sg13g2_o21ai_1
*I *3093:B1 I *D sg13g2_o21ai_1
*I *3432:X O *D sg13g2_buf_1
*CAP
1 *2961:B1 3.23038e-05
2 *2973:B1 0
3 *3105:B1 0.000533353
4 *2944:B1 0.000567927
5 *2924:B1 0
6 *3101:B1 0.000427965
7 *2969:B1 0
8 *3093:B1 0.000474861
9 *3432:X 0.000991057
10 *892:114 0.000635036
11 *892:83 0.000841916
12 *892:64 0.00100611
13 *892:51 0.00124692
14 *892:34 0.00153511
15 *892:23 0.000967387
16 *892:8 0.00133938
17 *892:6 0.000892441
18 *3093:B1 *3091:B1 4.77425e-05
19 *3101:B1 *3311:RESET_B 0
20 *3105:B1 *3431:A 0
21 *892:34 *898:37 0
22 *892:51 *898:37 0
23 *892:64 *3420:A 0.000500631
24 *892:83 *898:37 0.000758781
25 *892:114 *3432:A 0
26 *892:114 *898:14 0
27 *2924:A2 *892:51 4.77425e-05
28 *2924:A2 *892:64 1.54008e-05
29 *2963:A1 *892:114 0
30 *2968:C *892:23 0
31 *2968:C *892:34 0
32 *3054:B1 *2944:B1 4.78524e-05
33 *3057:A *2944:B1 0
34 *3057:B *2944:B1 0
35 *3093:A2 *3093:B1 1.54008e-05
36 *3094:B *3093:B1 0
37 *3099:A1 *3101:B1 0
38 *3101:A2 *3101:B1 1.54556e-05
39 *3105:A1 *3105:B1 0
40 *3105:A1 *892:83 0
41 *3241:CLK *3105:B1 0
42 *3255:CLK *892:64 0
43 *3289:D *2944:B1 8.03692e-05
44 *3307:D *3093:B1 0.000241111
45 *3354:A *892:64 0.000713174
46 *359:24 *892:114 0
47 *360:30 *3093:B1 0
48 *360:30 *892:6 0
49 *360:30 *892:8 0
50 *360:30 *892:114 0.000209746
51 *546:127 *2944:B1 0
52 *549:8 *892:51 0.000288587
53 *564:14 *2944:B1 0
54 *571:103 *892:114 0
55 *575:10 *892:114 0
56 *576:16 *2961:B1 4.78359e-05
57 *584:8 *3105:B1 0
58 *684:8 *3105:B1 0
59 *706:8 *892:6 0
60 *720:41 *3101:B1 0
61 *720:41 *892:51 0
62 *732:14 *2944:B1 0
63 *757:27 *892:6 0
64 *757:27 *892:8 0
65 *806:34 *2944:B1 0
66 *806:47 *2944:B1 0
67 *807:8 *892:23 0
68 *807:8 *892:34 0
69 *807:10 *892:23 0
70 *807:10 *892:83 0
71 *807:48 *2961:B1 0
72 *808:27 *3101:B1 0
73 *818:46 *892:114 0
74 *820:66 *2944:B1 0.000435878
75 *820:89 *2944:B1 0
76 *855:41 *892:23 0
77 *856:67 *892:34 0
78 *856:79 *3101:B1 0
79 *856:79 *892:51 0
80 *864:36 *892:64 0.000235055
81 *866:93 *892:51 0
82 *885:76 *892:64 0
*RES
1 *3432:X *892:6 23.5638 
2 *892:6 *892:8 1.8334 
3 *892:8 *3093:B1 24.4496 
4 *892:8 *892:23 25.5414 
5 *892:23 *2969:B1 40 
6 *892:23 *892:34 23.3166 
7 *892:34 *3101:B1 22.606 
8 *892:34 *892:51 47.9722 
9 *892:51 *2924:B1 20 
10 *892:51 *892:64 45.7989 
11 *892:64 *2944:B1 26.265 
12 *892:6 *892:83 23.811 
13 *892:83 *3105:B1 45.7474 
14 *892:83 *2973:B1 40 
15 *3432:X *892:114 44.9646 
16 *892:114 *2961:B1 40.3193 
*END

*D_NET *893 0.00791122
*CONN
*I *2731:B2 I *D sg13g2_a22oi_1
*I *3569:X O *D sg13g2_buf_1
*CAP
1 *2731:B2 0.000108175
2 *3569:X 0.000973517
3 *893:16 0.00186501
4 *893:12 0.00273036
5 *893:12 *3569:A 0.00025533
6 *893:16 *901:20 0.00028736
7 *893:16 *934:18 0
8 *893:16 *968:12 0
9 *893:16 *1025:16 0
10 *893:16 *1181:43 0
11 *2733:A2 *2731:B2 0.00014338
12 *400:18 *893:16 0.000228663
13 *401:12 *893:16 0
14 *752:29 *893:16 0.0004947
15 *826:14 *893:16 0.000649209
16 *844:18 *893:16 0
17 *850:31 *2731:B2 0.000175513
*RES
1 *3569:X *893:12 31.1034 
2 *893:12 *893:16 37.1598 
3 *893:16 *2731:B2 41.1845 
*END

*D_NET *894 0.014151
*CONN
*I *2911:B1 I *D sg13g2_o21ai_1
*I *3027:B1 I *D sg13g2_o21ai_1
*I *3023:B1 I *D sg13g2_o21ai_1
*I *2895:B1 I *D sg13g2_o21ai_1
*I *2903:B1 I *D sg13g2_o21ai_1
*I *3031:B1 I *D sg13g2_o21ai_1
*I *2915:B1 I *D sg13g2_o21ai_1
*I *2899:B1 I *D sg13g2_o21ai_1
*I *3433:X O *D sg13g2_buf_1
*CAP
1 *2911:B1 0
2 *3027:B1 0
3 *3023:B1 0
4 *2895:B1 0.000360099
5 *2903:B1 0.000257093
6 *3031:B1 8.7474e-05
7 *2915:B1 0.000612131
8 *2899:B1 0.000237865
9 *3433:X 0.000222764
10 *894:81 0.00131393
11 *894:75 0.00137272
12 *894:57 0.00149658
13 *894:38 0.00120747
14 *894:23 0.00116705
15 *894:12 0.000922971
16 *894:8 0.000652343
17 *2895:B1 *1123:10 7.60282e-05
18 *2895:B1 *1163:12 0
19 *2903:B1 *3587:A 0
20 *2903:B1 *3589:A 0.000175513
21 *2903:B1 *1128:26 8.45148e-05
22 *2915:B1 *3434:A 0
23 *894:57 *2691:A 0
24 *894:57 *1091:8 0
25 *894:57 *1092:8 0.000340704
26 *894:75 *2692:A 0
27 *894:75 *3597:A 0
28 *894:81 *3597:A 0
29 *894:81 *1123:10 0
30 *2888:A *894:12 0
31 *2895:A2 *2895:B1 4.76456e-05
32 *2903:A1 *2903:B1 0
33 *2903:A2 *2903:B1 7.34141e-06
34 *2906:C *894:57 0
35 *2911:A1 *894:8 0
36 *2911:A2 *894:8 1.53311e-05
37 *2911:A2 *894:12 0.000207804
38 *2915:A2 *2915:B1 0.0002096
39 *3022:D *894:81 0.00044875
40 *3023:A2 *894:81 9.63868e-05
41 *3031:A1 *3031:B1 0
42 *3031:A1 *894:23 0
43 *3031:A1 *894:38 0
44 *3032:B *3031:B1 4.77425e-05
45 *3032:B *894:38 0.000177334
46 *356:8 *2895:B1 2.16289e-05
47 *368:6 *894:75 0.000112635
48 *368:6 *894:81 0
49 *369:10 *894:57 0
50 *370:26 *894:81 0.000446405
51 *493:41 *894:75 0
52 *526:10 *894:81 0
53 *527:10 *2895:B1 4.84127e-05
54 *530:10 *894:12 0
55 *539:12 *894:8 0
56 *629:14 *894:57 0
57 *708:82 *2895:B1 0.000441963
58 *811:49 *2915:B1 0
59 *821:42 *894:57 0.000436161
60 *857:14 *894:81 0
61 *857:62 *2915:B1 0.000274452
62 *857:62 *894:38 0
63 *861:38 *2903:B1 7.57681e-05
64 *861:38 *894:81 0.000161447
65 *861:74 *2915:B1 0
66 *861:74 *894:12 0
67 *868:10 *894:81 0
68 *868:30 *894:75 0
69 *873:51 *2915:B1 0
70 *873:70 *2915:B1 0
71 *876:33 *894:81 0.000286947
72 *877:50 *2915:B1 0
73 *883:86 *894:12 0
74 *886:18 *894:81 0
*RES
1 *3433:X *894:8 21.9673 
2 *894:8 *894:12 23.9964 
3 *894:12 *2899:B1 42.0806 
4 *894:12 *894:23 2.3278 
5 *894:23 *2915:B1 46.1594 
6 *894:23 *894:38 23.0179 
7 *894:38 *3031:B1 20.7519 
8 *894:38 *894:57 46.6919 
9 *894:57 *894:75 45.8504 
10 *894:75 *894:81 27.5293 
11 *894:81 *2903:B1 42.8737 
12 *894:81 *2895:B1 44.1715 
13 *894:75 *3023:B1 20 
14 *894:57 *3027:B1 20 
15 *894:8 *2911:B1 20 
*END

*D_NET *895 0.0176252
*CONN
*I *3043:B1 I *D sg13g2_o21ai_1
*I *3051:B1 I *D sg13g2_o21ai_1
*I *2854:C I *D sg13g2_and3_1
*I *3120:B I *D sg13g2_nand3_1
*I *3035:B1 I *D sg13g2_o21ai_1
*I *3039:B1 I *D sg13g2_o21ai_1
*I *3047:B1 I *D sg13g2_o21ai_1
*I *3433:A I *D sg13g2_buf_1
*I *3434:X O *D sg13g2_buf_1
*CAP
1 *3043:B1 0
2 *3051:B1 0
3 *2854:C 0.000100463
4 *3120:B 0
5 *3035:B1 4.72978e-05
6 *3039:B1 0.000130761
7 *3047:B1 3.00357e-05
8 *3433:A 9.98926e-05
9 *3434:X 2.48839e-05
10 *895:133 0.000165873
11 *895:108 9.33304e-05
12 *895:102 0.000284196
13 *895:94 0.000506002
14 *895:88 0.00111736
15 *895:73 0.00170367
16 *895:56 0.000884439
17 *895:54 0.0005793
18 *895:44 0.000608049
19 *895:42 0.00152498
20 *895:19 0.0018553
21 *895:6 0.000619682
22 *2854:C *2854:A 0.000144635
23 *3047:B1 *3047:A2 1.54556e-05
24 *895:42 *3051:A2 0.000161103
25 *895:44 *3051:A2 3.24516e-05
26 *895:54 *3051:A2 1.54008e-05
27 *895:73 *2697:A 0
28 *895:73 *3279:RESET_B 0
29 *895:73 *3279:D 0
30 *895:88 *3279:RESET_B 0
31 *895:88 *3608:A 0
32 *895:88 *990:14 0
33 *895:88 *1034:20 0.000288087
34 *895:88 *1115:10 0
35 *895:88 *1117:12 0
36 *895:88 *1150:12 0
37 *895:88 *1151:8 0
38 *895:94 *2854:A 0.000133005
39 *895:94 *3621:A 1.54008e-05
40 *895:102 *2848:B 0.000237694
41 *895:102 *1151:8 0.000235161
42 *895:108 *1168:12 0.000177399
43 *2913:A1 *895:19 0
44 *3035:A1 *895:73 0
45 *3035:A2 *895:88 0
46 *3036:A *895:73 0
47 *3036:B *3035:B1 0
48 *3036:B *895:73 0.00020884
49 *3043:A2 *895:133 1.54008e-05
50 *3045:A1 *895:42 0
51 *3045:A2 *895:42 0
52 *3047:A1 *895:19 0
53 *3120:C *895:108 0.000177399
54 *3372:A *895:73 0
55 *3515:A *895:73 0.000339327
56 *3533:A *3035:B1 0
57 *3533:A *895:88 0
58 *328:10 *895:42 0
59 *368:33 *895:88 0
60 *374:18 *895:42 0.00024211
61 *374:18 *895:54 0.000209637
62 *377:10 *895:42 0
63 *377:10 *895:54 0.000598746
64 *491:22 *895:88 0
65 *491:37 *2854:C 0
66 *539:12 *3433:A 0
67 *544:14 *895:19 0
68 *544:14 *895:42 0.00145903
69 *621:82 *895:54 0.000144822
70 *636:10 *3039:B1 8.00842e-05
71 *636:10 *895:73 0
72 *637:8 *895:42 0.000444604
73 *639:10 *895:133 0
74 *640:8 *895:19 7.52149e-05
75 *640:8 *895:42 7.52158e-05
76 *645:8 *895:133 0.000234224
77 *697:202 *3047:B1 0
78 *697:218 *895:42 0
79 *765:20 *895:88 0
80 *810:8 *895:19 0
81 *810:10 *895:19 0
82 *811:39 *3039:B1 0
83 *811:73 *895:54 0.00059862
84 *821:25 *3039:B1 0.00018112
85 *821:25 *895:73 0.000161447
86 *825:10 *895:73 0.000500211
87 *861:74 *895:6 4.7803e-05
88 *873:78 *3047:B1 0
89 *877:44 *895:42 0
90 *883:86 *3433:A 0
*RES
1 *3434:X *895:6 20.3193 
2 *895:6 *3433:A 21.133 
3 *895:6 *895:19 25.047 
4 *895:19 *3047:B1 40.3193 
5 *895:19 *895:42 36.8714 
6 *895:42 *895:44 0.3193 
7 *895:44 *895:54 46.6744 
8 *895:54 *895:56 20 
9 *895:56 *3039:B1 41.3802 
10 *895:56 *895:73 28.24 
11 *895:73 *3035:B1 20.5974 
12 *895:73 *895:88 49.5069 
13 *895:88 *895:94 2.0703 
14 *895:94 *895:102 42.7089 
15 *895:102 *895:108 41.1845 
16 *895:108 *3120:B 20 
17 *895:94 *2854:C 20.9682 
18 *895:44 *3051:B1 20 
19 *895:42 *895:133 41.6583 
20 *895:133 *3043:B1 20 
*END

*D_NET *896 0.0166251
*CONN
*I *2882:B1 I *D sg13g2_o21ai_1
*I *2878:B1 I *D sg13g2_o21ai_1
*I *2886:B1 I *D sg13g2_o21ai_1
*I *2990:B1 I *D sg13g2_o21ai_1
*I *2998:B1 I *D sg13g2_o21ai_1
*I *2870:B1 I *D sg13g2_o21ai_1
*I *2866:B1 I *D sg13g2_o21ai_1
*I *2858:B1 I *D sg13g2_o21ai_1
*I *3435:X O *D sg13g2_buf_1
*CAP
1 *2882:B1 0.000354972
2 *2878:B1 0.000375855
3 *2886:B1 0
4 *2990:B1 0
5 *2998:B1 0.000546456
6 *2870:B1 0.000187894
7 *2866:B1 0.000371834
8 *2858:B1 0.000318506
9 *3435:X 0
10 *896:93 0.000467165
11 *896:62 0.000853172
12 *896:49 0.000490657
13 *896:47 0.000813263
14 *896:33 0.000813263
15 *896:31 0.000175472
16 *896:25 0.000791399
17 *896:6 0.00067077
18 *2858:B1 *898:84 4.77425e-05
19 *2882:B1 *1179:32 0
20 *2998:B1 *1167:16 0
21 *896:25 *898:84 0
22 *2866:A1 *2866:B1 0.00028427
23 *2866:A1 *896:62 7.48209e-05
24 *2866:A2 *2866:B1 8.03692e-05
25 *2870:A1 *2870:B1 4.77702e-05
26 *2870:A2 *2870:B1 1.54285e-05
27 *2882:A2 *2882:B1 8.03091e-05
28 *2990:A1 *896:31 1.54008e-05
29 *2990:A1 *896:47 0
30 *2990:A2 *896:47 8.00842e-05
31 *3338:A *2878:B1 0
32 *3412:A *2870:B1 0.000167201
33 *379:22 *2866:B1 0.000144942
34 *496:10 *896:25 0.000212127
35 *496:12 *2858:B1 0.000181695
36 *496:12 *896:25 0.000819738
37 *496:27 *2858:B1 0
38 *496:37 *2858:B1 0
39 *504:8 *896:62 0
40 *507:8 *2998:B1 0
41 *508:10 *2866:B1 0
42 *517:10 *2882:B1 1.54556e-05
43 *520:16 *2858:B1 0.000229115
44 *520:16 *896:25 0.00159336
45 *520:16 *896:31 0.000181192
46 *520:16 *896:93 0.000337302
47 *596:18 *2882:B1 0.000386918
48 *596:18 *896:31 8.00842e-05
49 *599:10 *896:47 1.54008e-05
50 *697:254 *2878:B1 0
51 *711:10 *2878:B1 0
52 *812:10 *2998:B1 0.000104585
53 *812:12 *2998:B1 0.000265663
54 *812:14 *2998:B1 0.00108256
55 *812:14 *896:62 5.30319e-05
56 *812:16 *896:62 0.000265575
57 *812:37 *896:47 0.000726675
58 *812:71 *2878:B1 0
59 *814:20 *2858:B1 0
60 *814:33 *2858:B1 8.02128e-05
61 *824:25 *2878:B1 0.000316541
62 *824:25 *896:31 0.000181192
63 *824:25 *896:93 0.000370634
64 *858:67 *896:25 0.000234224
65 *858:75 *2882:B1 0
66 *859:33 *896:47 0
67 *870:23 *2870:B1 0
68 *874:12 *2998:B1 0
69 *874:16 *896:62 0
70 *874:31 *2866:B1 0
71 *874:31 *896:47 0
72 *874:40 *896:47 0
73 *875:52 *2878:B1 0.000338548
74 *887:42 *896:47 0.00028427
*RES
1 *3435:X *896:6 40 
2 *896:6 *2858:B1 43.5638 
3 *896:6 *896:25 27.519 
4 *896:25 *896:31 21.3802 
5 *896:31 *896:33 20 
6 *896:33 *896:47 48.0546 
7 *896:47 *896:49 20 
8 *896:49 *2866:B1 43.914 
9 *896:49 *896:62 1.8334 
10 *896:62 *2870:B1 42.3484 
11 *896:62 *2998:B1 47.313 
12 *896:33 *2990:B1 20 
13 *896:31 *896:93 1.8334 
14 *896:93 *2886:B1 40 
15 *896:93 *2878:B1 43.8522 
16 *896:25 *2882:B1 23.5638 
*END

*D_NET *897 0.00476409
*CONN
*I *3014:B1 I *D sg13g2_o21ai_1
*I *3018:B1 I *D sg13g2_o21ai_1
*I *3010:B1 I *D sg13g2_o21ai_1
*I *3002:B1 I *D sg13g2_o21ai_1
*I *3436:X O *D sg13g2_buf_1
*CAP
1 *3014:B1 7.11257e-05
2 *3018:B1 0
3 *3010:B1 0.000116311
4 *3002:B1 0.000619138
5 *3436:X 0.000108084
6 *897:20 0.00100741
7 *897:16 0.00061565
8 *897:10 0.000414812
9 *897:8 0.000108084
10 *3002:A2 *3002:B1 1.54008e-05
11 *3010:A1 *897:20 8.00842e-05
12 *3010:A2 *3010:B1 8.00842e-05
13 *3019:A *897:16 0
14 *3361:A *3002:B1 0.000176657
15 *372:16 *3002:B1 0
16 *372:20 *3002:B1 0
17 *373:22 *3002:B1 0
18 *613:8 *3002:B1 0
19 *613:8 *3010:B1 0
20 *616:10 *897:8 0
21 *719:12 *3014:B1 0
22 *778:26 *897:8 0
23 *813:10 *3002:B1 0.000112656
24 *813:30 *3002:B1 0.000434589
25 *813:30 *897:20 0
26 *813:41 *3014:B1 0
27 *813:41 *897:16 0.000339516
28 *823:35 *897:16 0
29 *823:35 *897:20 0
30 *823:43 *897:8 0
31 *823:61 *3014:B1 0
32 *823:61 *897:16 0
33 *824:25 *3002:B1 0.000286284
34 *824:25 *3010:B1 0.000178206
35 *825:59 *3010:B1 0
*RES
1 *3436:X *897:8 41.0918 
2 *897:8 *897:10 20 
3 *897:10 *897:16 3.8007 
4 *897:16 *897:20 21.6778 
5 *897:20 *3002:B1 46.6332 
6 *897:20 *3010:B1 41.3802 
7 *897:16 *3018:B1 20 
8 *897:10 *3014:B1 20.7519 
*END

*D_NET *898 0.0276483
*CONN
*I *3432:A I *D sg13g2_buf_1
*I *3436:A I *D sg13g2_buf_1
*I *3435:A I *D sg13g2_buf_1
*I *3434:A I *D sg13g2_buf_1
*I *3056:B1 I *D sg13g2_o21ai_1
*I *3431:A I *D sg13g2_buf_1
*I *3437:X O *D sg13g2_buf_1
*CAP
1 *3432:A 0.00035365
2 *3436:A 0.000422669
3 *3435:A 0
4 *3434:A 0.000636582
5 *3056:B1 3.10612e-05
6 *3431:A 0.000775361
7 *3437:X 0
8 *898:84 0.00238003
9 *898:73 0.00293524
10 *898:56 0.00266982
11 *898:54 0.00145162
12 *898:37 0.00219628
13 *898:14 0.00313118
14 *898:6 0.000940505
15 *3436:A *1192:26 0.000533952
16 *2858:B1 *898:84 4.77425e-05
17 *2868:A1 *898:73 0
18 *2881:C *898:84 0
19 *2915:B1 *3434:A 0
20 *2916:A *3434:A 0.000112558
21 *2916:B *3434:A 0
22 *2924:A1 *898:37 0.000713174
23 *2973:A2 *3431:A 0.00030621
24 *3013:B *3436:A 0
25 *3056:A2 *3056:B1 4.77425e-05
26 *3057:B *3056:B1 1.54008e-05
27 *3103:A1 *3431:A 0
28 *3104:C *3431:A 0
29 *3105:B1 *3431:A 0
30 *3354:A *898:37 0.0011146
31 *3355:A *898:37 0.000659994
32 *286:8 *898:56 0
33 *358:20 *898:54 0
34 *360:30 *3432:A 0.000209637
35 *362:32 *898:54 0.000371752
36 *373:22 *3436:A 0
37 *373:30 *898:84 0
38 *508:10 *898:56 0
39 *508:10 *898:73 0
40 *513:10 *898:84 0
41 *514:8 *898:84 0
42 *520:16 *898:84 0
43 *546:8 *898:37 0
44 *546:112 *898:37 0
45 *549:8 *898:37 0.000287757
46 *571:95 *898:37 0
47 *576:16 *898:14 0.000403252
48 *580:26 *3431:A 0
49 *584:8 *3431:A 0
50 *586:10 *3431:A 4.79014e-05
51 *586:10 *898:14 0
52 *596:18 *898:84 0
53 *616:10 *3436:A 0
54 *619:10 *898:84 0
55 *671:137 *3431:A 0
56 *685:10 *3431:A 0
57 *697:34 *898:37 0
58 *706:10 *3432:A 0
59 *711:64 *898:84 0
60 *721:10 *3431:A 0.000177334
61 *756:10 *898:37 0
62 *806:19 *898:37 0.000159096
63 *806:19 *898:54 0.00012816
64 *806:34 *898:54 0.000266492
65 *807:8 *898:37 0
66 *807:10 *898:37 0
67 *807:40 *3431:A 0
68 *807:40 *898:14 0.000741531
69 *807:48 *898:14 0
70 *807:102 *898:14 0.000124859
71 *812:71 *898:84 0
72 *813:30 *3436:A 0
73 *813:41 *3436:A 0
74 *814:20 *898:73 0.000112558
75 *814:33 *898:73 0.00024211
76 *822:22 *898:84 0
77 *823:43 *898:84 0
78 *859:19 *898:84 0
79 *861:74 *3434:A 0.00108319
80 *864:36 *898:54 0
81 *865:10 *3431:A 0
82 *865:16 *3431:A 0
83 *865:40 *3431:A 0
84 *865:46 *3432:A 0.000209637
85 *873:78 *898:73 0
86 *873:78 *898:84 0
87 *878:34 *898:54 0.000242149
88 *879:8 *898:37 0.000500717
89 *879:8 *898:54 0.000106064
90 *888:18 *898:84 0
91 *888:35 *898:84 0
92 *889:58 *898:56 0
93 *891:12 *3431:A 0
94 *892:34 *898:37 0
95 *892:51 *898:37 0
96 *892:83 *898:37 0.000758781
97 *892:114 *3432:A 0
98 *892:114 *898:14 0
99 *896:25 *898:84 0
*RES
1 *3437:X *898:6 40 
2 *898:6 *898:14 46.1697 
3 *898:14 *3431:A 47.9207 
4 *898:14 *898:37 23.5561 
5 *898:37 *3056:B1 40.3193 
6 *898:37 *898:54 45.0573 
7 *898:54 *898:56 10.4854 
8 *898:56 *3434:A 47.2409 
9 *898:56 *898:73 30.2279 
10 *898:73 *3435:A 20 
11 *898:73 *898:84 38.8078 
12 *898:84 *3436:A 44.429 
13 *898:6 *3432:A 43.4814 
*END

*D_NET *899 0.0153414
*CONN
*I *2740:B1 I *D sg13g2_o21ai_1
*I *3080:B1 I *D sg13g2_o21ai_1
*I *2940:B1 I *D sg13g2_o21ai_1
*I *2936:B1 I *D sg13g2_o21ai_1
*I *3072:B1 I *D sg13g2_o21ai_1
*I *3068:B1 I *D sg13g2_o21ai_1
*I *2948:B1 I *D sg13g2_o21ai_1
*I *2764:B1 I *D sg13g2_o21ai_1
*I *3438:X O *D sg13g2_buf_1
*CAP
1 *2740:B1 0
2 *3080:B1 0.000107141
3 *2940:B1 3.57705e-05
4 *2936:B1 2.48096e-05
5 *3072:B1 2.28735e-05
6 *3068:B1 0.00031917
7 *2948:B1 0.000274474
8 *2764:B1 0
9 *3438:X 0
10 *899:64 0.000846826
11 *899:60 0.000776645
12 *899:54 0.000613343
13 *899:39 0.000828025
14 *899:35 0.000704835
15 *899:29 0.00132087
16 *899:21 0.0015033
17 *899:12 0.000126897
18 *899:4 0.000683989
19 *2948:B1 *3237:RESET_B 0.000175879
20 *899:12 *1172:49 0.000338638
21 *899:12 *1181:43 8.00842e-05
22 *899:21 *1181:43 0
23 *899:29 *1181:31 0
24 *899:29 *1181:43 0
25 *899:39 *3237:RESET_B 1.54008e-05
26 *2738:B1 *899:21 0
27 *2934:A1 *899:54 0.00029161
28 *2934:B1 *899:29 0
29 *2935:C *899:60 0
30 *2936:A2 *2936:B1 3.23417e-05
31 *2936:A2 *899:60 0.000306701
32 *2937:B *2936:B1 1.54008e-05
33 *2940:A2 *2940:B1 8.00842e-05
34 *2941:A *899:60 0
35 *2941:B *899:60 0
36 *2948:A1 *2948:B1 0
37 *2948:A1 *899:39 0
38 *2948:A2 *2948:B1 1.54008e-05
39 *3072:A2 *3072:B1 4.77702e-05
40 *3080:A2 *3080:B1 4.77425e-05
41 *3080:A2 *899:39 0
42 *3081:B *3080:B1 1.54008e-05
43 *3133:CLK *899:21 0
44 *3133:CLK *899:29 0
45 *661:16 *3068:B1 0
46 *661:16 *3072:B1 1.54285e-05
47 *712:16 *899:29 0
48 *712:51 *899:29 0.000598581
49 *712:59 *899:29 0
50 *720:41 *2948:B1 0
51 *720:41 *899:35 0
52 *720:41 *899:39 0
53 *722:39 *899:29 0
54 *722:41 *899:29 0
55 *755:23 *899:35 0.000501011
56 *766:22 *899:60 0
57 *768:8 *899:21 0.00040418
58 *768:32 *899:12 0.000234224
59 *768:32 *899:21 0.000145052
60 *790:18 *899:54 0.0013654
61 *790:18 *899:60 0.000238126
62 *795:24 *3080:B1 0.000454055
63 *795:24 *899:35 0.00029161
64 *795:24 *899:64 0.000290273
65 *796:18 *899:39 0
66 *807:48 *3068:B1 0
67 *807:67 *3068:B1 0
68 *807:67 *899:64 0
69 *807:74 *899:64 0
70 *818:86 *899:54 0.000399349
71 *818:116 *3080:B1 0.000431964
72 *818:116 *899:35 0.00018387
73 *833:14 *899:21 4.79124e-05
74 *833:14 *899:29 1.54556e-05
75 *833:25 *899:21 0
76 *833:42 *899:12 7.34783e-05
77 *855:62 *899:54 0
78 *855:62 *899:60 0
79 *865:60 *899:64 0
80 *879:41 *899:54 0
*RES
1 *3438:X *899:4 20 
2 *899:4 *899:12 42.1218 
3 *899:12 *2764:B1 20 
4 *899:4 *899:21 5.6444 
5 *899:21 *899:29 49.8468 
6 *899:29 *899:35 24.6865 
7 *899:35 *899:39 22.0497 
8 *899:39 *2948:B1 22.781 
9 *899:39 *899:54 26.283 
10 *899:54 *899:60 23.1415 
11 *899:60 *899:64 24.3054 
12 *899:64 *3068:B1 43.3269 
13 *899:64 *3072:B1 40.3193 
14 *899:60 *2936:B1 20.3193 
15 *899:54 *2940:B1 40.5356 
16 *899:35 *3080:B1 42.3999 
17 *899:21 *2740:B1 20 
*END

*D_NET *900 0.00835761
*CONN
*I *3084:B1 I *D sg13g2_o21ai_1
*I *3076:B1 I *D sg13g2_o21ai_1
*I *3060:B1 I *D sg13g2_o21ai_1
*I *2952:B1 I *D sg13g2_o21ai_1
*I *2932:B1 I *D sg13g2_o21ai_1
*I *2928:B1 I *D sg13g2_o21ai_1
*I *3439:X O *D sg13g2_buf_1
*CAP
1 *3084:B1 0.000511711
2 *3076:B1 0.000122381
3 *3060:B1 9.93289e-05
4 *2952:B1 0.000120798
5 *2932:B1 0.000102035
6 *2928:B1 0.000151499
7 *3439:X 5.9923e-05
8 *900:54 0.000854553
9 *900:43 0.000425242
10 *900:32 0.000258439
11 *900:10 0.000333739
12 *900:8 0.000172319
13 *2928:A2 *2928:B1 0.000144312
14 *2928:A2 *2932:B1 0
15 *2932:A2 *2932:B1 8.02102e-05
16 *2953:B *2952:B1 1.54008e-05
17 *3060:A2 *3060:B1 0.000144444
18 *3061:B *3060:B1 1.54282e-05
19 *3076:A2 *3076:B1 1.54008e-05
20 *3084:A2 *3084:B1 4.75265e-05
21 *555:12 *2932:B1 1.54008e-05
22 *646:96 *3084:B1 0.00043345
23 *697:125 *2928:B1 0
24 *732:29 *900:8 7.94972e-05
25 *736:35 *3060:B1 0
26 *794:33 *2928:B1 0.00028986
27 *794:33 *3084:B1 0.000473614
28 *794:33 *900:10 0.000314263
29 *794:33 *900:32 0.000161737
30 *794:33 *900:43 0.000535859
31 *794:33 *900:54 0.000639744
32 *796:18 *2928:B1 0.000289674
33 *796:18 *900:10 0.000336204
34 *796:18 *900:32 0.00018387
35 *796:18 *900:43 0.000559026
36 *796:18 *900:54 0.000130055
37 *796:26 *3084:B1 0
38 *796:26 *900:54 0
39 *806:49 *2932:B1 0
40 *824:54 *3084:B1 0.000240669
*RES
1 *3439:X *900:8 40.5356 
2 *900:8 *900:10 1.5862 
3 *900:10 *2928:B1 42.3072 
4 *900:10 *2932:B1 40.9682 
5 *900:8 *900:32 0.8446 
6 *900:32 *2952:B1 40.9682 
7 *900:32 *900:43 2.575 
8 *900:43 *3060:B1 40.9682 
9 *900:43 *900:54 3.0694 
10 *900:54 *3076:B1 40.9682 
11 *900:54 *3084:B1 45.9122 
*END

*D_NET *901 0.0183629
*CONN
*I *2720:B1 I *D sg13g2_o21ai_1
*I *2744:B1 I *D sg13g2_o21ai_1
*I *2748:B1 I *D sg13g2_o21ai_1
*I *2768:B1 I *D sg13g2_o21ai_1
*I *2732:B1 I *D sg13g2_o21ai_1
*I *2728:B1 I *D sg13g2_o21ai_1
*I *2736:B1 I *D sg13g2_o21ai_1
*I *2724:B1 I *D sg13g2_o21ai_1
*I *3440:X O *D sg13g2_buf_1
*CAP
1 *2720:B1 0.000142545
2 *2744:B1 0.000659412
3 *2748:B1 0
4 *2768:B1 0.000718739
5 *2732:B1 0.000129304
6 *2728:B1 0
7 *2736:B1 0.000779679
8 *2724:B1 0.000132694
9 *3440:X 2.8155e-05
10 *901:85 0.000844559
11 *901:68 0.0015633
12 *901:66 0.000933069
13 *901:55 0.00113381
14 *901:51 0.000946256
15 *901:33 0.000846254
16 *901:20 0.00107858
17 *901:10 0.00106891
18 *901:6 0.000157466
19 *2736:B1 *909:66 0.000242023
20 *901:6 *909:14 0
21 *901:20 *934:18 0.000286945
22 *901:85 *3565:A 0
23 *901:85 *1058:22 0
24 *901:85 *1071:18 0.000181267
25 *901:85 *1171:10 0
26 *901:85 *1171:18 2.17891e-05
27 *2720:A1 *2720:B1 0
28 *2720:A2 *2720:B1 4.76427e-05
29 *2721:A1 *901:20 1.51e-05
30 *2721:B1 *901:20 0.000209664
31 *2724:A2 *2724:B1 0.000175891
32 *2730:A2 *901:85 0.000543778
33 *2742:A2 *901:85 0.000139043
34 *2744:A2 *2744:B1 6.40065e-05
35 *2768:A1 *2768:B1 0
36 *2775:B1 *901:85 0
37 *3123:CLK *901:20 0
38 *79:12 *2744:B1 0
39 *250:12 *901:20 0
40 *396:8 *901:20 0
41 *402:10 *2736:B1 1.54008e-05
42 *402:10 *901:33 3.23417e-05
43 *403:8 *901:55 0
44 *403:8 *901:66 0
45 *432:10 *2768:B1 0.00020973
46 *437:18 *2768:B1 0
47 *437:18 *901:85 0
48 *460:12 *901:85 0
49 *699:67 *901:20 0
50 *700:36 *2744:B1 0
51 *716:16 *2744:B1 0.00152932
52 *716:16 *901:66 0.000553663
53 *720:41 *2768:B1 0
54 *721:50 *2736:B1 8.02267e-05
55 *723:70 *901:85 0
56 *740:52 *901:10 0.000159598
57 *740:52 *901:20 0.000126358
58 *740:52 *901:55 0
59 *740:52 *901:66 0
60 *755:33 *2732:B1 4.68099e-05
61 *755:35 *2732:B1 0
62 *766:8 *901:20 0
63 *766:8 *901:55 0
64 *782:10 *2744:B1 0
65 *793:12 *2744:B1 0
66 *829:14 *901:85 8.00842e-05
67 *833:42 *2736:B1 1.54008e-05
68 *833:59 *2736:B1 9.71349e-05
69 *833:61 *2736:B1 0.000790841
70 *833:61 *901:33 1.54008e-05
71 *833:70 *2720:B1 0
72 *833:70 *901:33 9.71568e-05
73 *833:70 *901:51 0
74 *833:80 *901:20 0
75 *833:99 *2732:B1 7.98669e-05
76 *833:99 *901:55 0
77 *833:124 *901:85 4.74897e-05
78 *839:59 *2720:B1 0
79 *839:59 *2736:B1 0.000436407
80 *840:28 *901:85 7.44765e-05
81 *850:14 *901:66 0
82 *851:66 *2744:B1 0
83 *851:66 *901:66 0
84 *882:24 *2744:B1 0.000497943
85 *893:16 *901:20 0.00028736
*RES
1 *3440:X *901:6 20.3502 
2 *901:6 *901:10 20.8446 
3 *901:10 *901:20 48.1974 
4 *901:20 *2724:B1 41.1845 
5 *901:10 *901:33 20.7519 
6 *901:33 *2736:B1 28.5902 
7 *901:33 *2728:B1 20 
8 *901:6 *901:51 0.5356 
9 *901:51 *901:55 25.7886 
10 *901:55 *2732:B1 41.1845 
11 *901:55 *901:66 3.3166 
12 *901:66 *901:68 20 
13 *901:68 *2768:B1 26.8083 
14 *901:68 *901:85 48.0031 
15 *901:85 *2748:B1 20 
16 *901:66 *2744:B1 48.3481 
17 *901:51 *2720:B1 21.1845 
*END

*D_NET *902 0.00955403
*CONN
*I *2756:B1 I *D sg13g2_o21ai_1
*I *2772:B1 I *D sg13g2_o21ai_1
*I *2752:B1 I *D sg13g2_o21ai_1
*I *2776:B1 I *D sg13g2_o21ai_1
*I *3441:X O *D sg13g2_buf_1
*CAP
1 *2756:B1 0
2 *2772:B1 0.00107485
3 *2752:B1 0
4 *2776:B1 0.000264188
5 *3441:X 0.000103602
6 *902:45 0.000821026
7 *902:23 0.00122009
8 *902:19 0.00138923
9 *902:6 0.000790748
10 *902:19 *903:48 0
11 *902:19 *1172:49 0.000497998
12 *902:23 *903:48 0.000144691
13 *902:45 *1172:49 0.00164033
14 *2750:A1 *2772:B1 4.79124e-05
15 *2750:B1 *2772:B1 0
16 *2752:A2 *2772:B1 1.54008e-05
17 *2752:A2 *902:23 9.7025e-05
18 *2772:A2 *2772:B1 0.000338114
19 *2776:A2 *2776:B1 4.78853e-05
20 *3151:CLK *2776:B1 0.000177279
21 *418:10 *2772:B1 0.000337569
22 *435:10 *2772:B1 1.54008e-05
23 *729:33 *2772:B1 0
24 *744:47 *902:45 0
25 *759:45 *2776:B1 0
26 *759:45 *902:6 0
27 *759:45 *902:19 0
28 *760:14 *2772:B1 0
29 *769:27 *2776:B1 0
30 *797:12 *2772:B1 0
31 *834:14 *902:45 0.000208524
32 *834:23 *902:45 0
33 *834:31 *902:23 0.000144822
34 *834:41 *2776:B1 0.000177351
35 *834:41 *902:6 0
36 *834:93 *2772:B1 0
37 *840:80 *2772:B1 0
*RES
1 *3441:X *902:6 20.9682 
2 *902:6 *2776:B1 23.0797 
3 *902:6 *902:19 24.7998 
4 *902:19 *902:23 21.6171 
5 *902:23 *2752:B1 20 
6 *902:23 *2772:B1 30.3206 
7 *902:19 *902:45 30.2485 
8 *902:45 *2756:B1 20 
*END

*D_NET *903 0.012967
*CONN
*I *3440:A I *D sg13g2_buf_1
*I *3439:A I *D sg13g2_buf_1
*I *3441:A I *D sg13g2_buf_1
*I *3438:A I *D sg13g2_buf_1
*I *3442:X O *D sg13g2_buf_1
*CAP
1 *3440:A 0
2 *3439:A 0
3 *3441:A 5.11715e-05
4 *3438:A 0.000125159
5 *3442:X 0.000182478
6 *903:48 0.00225743
7 *903:27 0.00367228
8 *903:14 0.00251914
9 *903:8 0.00121278
10 *3438:A *1181:43 0.000176482
11 *903:8 *909:14 0
12 *903:27 *1172:49 0
13 *2950:B1 *903:48 0
14 *410:14 *3438:A 0.000176482
15 *427:8 *903:14 0
16 *428:10 *903:8 0.00020836
17 *428:10 *903:14 0
18 *546:80 *903:48 0
19 *546:101 *903:48 0.000208316
20 *553:14 *903:48 0
21 *555:12 *903:48 0
22 *697:147 *903:48 0
23 *697:156 *903:48 0
24 *697:165 *903:48 0
25 *713:69 *903:48 0.000208966
26 *721:71 *903:14 0
27 *721:71 *903:27 0
28 *721:71 *903:48 0
29 *729:12 *903:48 0.000144942
30 *729:33 *903:48 0
31 *732:29 *903:48 0
32 *759:45 *903:48 0.00039467
33 *766:16 *903:8 0
34 *766:16 *903:14 0.00098528
35 *828:10 *903:27 0
36 *828:27 *903:27 0
37 *828:31 *903:14 0
38 *828:31 *903:27 0
39 *828:48 *903:14 0.000144768
40 *834:31 *903:48 0
41 *834:41 *3441:A 8.00842e-05
42 *834:93 *903:48 7.34783e-05
43 *902:19 *903:48 0
44 *902:23 *903:48 0.000144691
*RES
1 *3442:X *903:8 21.751 
2 *903:8 *903:14 29.6614 
3 *903:14 *3438:A 41.5038 
4 *903:14 *903:27 11.227 
5 *903:27 *3441:A 40.5356 
6 *903:27 *903:48 40.1056 
7 *903:48 *3439:A 20 
8 *903:8 *3440:A 20 
*END

*D_NET *904 0.00161454
*CONN
*I *2735:B2 I *D sg13g2_a22oi_1
*I *3570:X O *D sg13g2_buf_1
*CAP
1 *2735:B2 0.000158031
2 *3570:X 0.00061463
3 *904:8 0.000772661
4 *904:8 *1059:10 0
5 *398:8 *2735:B2 0
6 *407:8 *2735:B2 4.77425e-05
7 *699:67 *2735:B2 0
8 *749:20 *904:8 0
9 *778:10 *904:8 2.14736e-05
*RES
1 *3570:X *904:8 44.5526 
2 *904:8 *2735:B2 40.4768 
*END

*D_NET *905 0.0166614
*CONN
*I *2816:B1 I *D sg13g2_o21ai_1
*I *2824:B1 I *D sg13g2_o21ai_1
*I *2812:B1 I *D sg13g2_o21ai_1
*I *2804:B1 I *D sg13g2_o21ai_1
*I *2800:B1 I *D sg13g2_o21ai_1
*I *2796:B1 I *D sg13g2_o21ai_1
*I *2784:B1 I *D sg13g2_o21ai_1
*I *2788:B1 I *D sg13g2_o21ai_1
*I *3443:X O *D sg13g2_buf_1
*CAP
1 *2816:B1 0
2 *2824:B1 0.000873648
3 *2812:B1 0.000374474
4 *2804:B1 0
5 *2800:B1 0
6 *2796:B1 0.000454861
7 *2784:B1 0.000587788
8 *2788:B1 0.000207485
9 *3443:X 0.000162174
10 *905:119 0.000467713
11 *905:75 0.000200043
12 *905:62 0.0011487
13 *905:56 0.000937641
14 *905:48 0.0014983
15 *905:42 0.00177234
16 *905:38 0.00111996
17 *905:27 0.00133298
18 *905:12 0.000681314
19 *2784:B1 *979:22 0
20 *2788:B1 *3714:A 4.76068e-05
21 *2788:B1 *1175:56 1.54008e-05
22 *2796:B1 *1186:39 0
23 *2824:B1 *1188:31 6.88666e-05
24 *905:12 *907:100 4.77425e-05
25 *905:38 *2715:A 4.77425e-05
26 *905:38 *979:22 0
27 *905:56 *3163:RESET_B 0
28 *905:62 *3163:RESET_B 0
29 *905:62 *1186:39 1.54285e-05
30 *905:119 *1179:63 0
31 *2784:A1 *2784:B1 0
32 *2784:A2 *2784:B1 1.54008e-05
33 *2786:A2 *2788:B1 0.000126583
34 *2788:A1 *2788:B1 0
35 *2788:A1 *905:27 0
36 *2788:A2 *2788:B1 1.54008e-05
37 *2796:A1 *2796:B1 0
38 *2796:A2 *2796:B1 1.54556e-05
39 *2804:A2 *905:62 1.54008e-05
40 *2812:A2 *2812:B1 0.00058996
41 *2812:A2 *905:56 0.00033864
42 *2816:A2 *905:38 0
43 *2816:A2 *905:119 4.77425e-05
44 *2824:A2 *2824:B1 0.000112426
45 *271:10 *2812:B1 0
46 *271:10 *905:48 0
47 *389:14 *905:75 0
48 *391:8 *905:38 0
49 *391:8 *905:119 0
50 *392:12 *905:38 0
51 *392:12 *905:119 0
52 *393:37 *2788:B1 0
53 *444:10 *2784:B1 0.000209807
54 *453:10 *2796:B1 0.000112552
55 *458:32 *905:42 0.000869698
56 *459:10 *905:48 0
57 *459:10 *905:62 1.54556e-05
58 *719:47 *2824:B1 7.84876e-05
59 *772:25 *905:75 0
60 *773:23 *905:27 0
61 *775:10 *905:38 1.54418e-05
62 *775:29 *905:56 0
63 *776:29 *905:48 0
64 *780:16 *905:56 0
65 *831:23 *905:42 0.000634557
66 *831:23 *905:48 0
67 *831:33 *905:42 0.000395068
68 *831:65 *905:119 0
69 *831:81 *905:119 0.000234224
70 *831:97 *905:48 0
71 *832:18 *905:38 0
72 *837:23 *2796:B1 0
73 *837:23 *905:62 0
74 *841:51 *905:48 0.000287256
75 *841:71 *905:119 0.000287342
76 *841:102 *2788:B1 0.000182266
77 *843:127 *2812:B1 0
*RES
1 *3443:X *905:12 41.6377 
2 *905:12 *2788:B1 42.0909 
3 *905:12 *905:27 22.3278 
4 *905:27 *2784:B1 25.0779 
5 *905:27 *905:38 3.914 
6 *905:38 *905:42 24.7998 
7 *905:42 *905:48 26.1079 
8 *905:48 *905:56 44.0376 
9 *905:56 *905:62 4.4496 
10 *905:62 *2796:B1 23.9964 
11 *905:62 *905:75 41.8334 
12 *905:75 *2800:B1 20 
13 *905:56 *2804:B1 20 
14 *905:48 *2812:B1 24.2642 
15 *905:42 *2824:B1 47.6941 
16 *905:38 *905:119 44.7895 
17 *905:119 *2816:B1 20 
*END

*D_NET *906 0.0118205
*CONN
*I *2836:B1 I *D sg13g2_o21ai_1
*I *2844:B1 I *D sg13g2_o21ai_1
*I *2828:B1 I *D sg13g2_o21ai_1
*I *2840:B1 I *D sg13g2_o21ai_1
*I *3444:X O *D sg13g2_buf_1
*CAP
1 *2836:B1 0
2 *2844:B1 0.000681878
3 *2828:B1 0
4 *2840:B1 0.00014251
5 *3444:X 0.000549255
6 *906:29 0.00125043
7 *906:12 0.000762091
8 *906:8 0.000600282
9 *2844:B1 *3177:RESET_B 0
10 *2844:B1 *3177:D 0
11 *2844:B1 *3185:RESET_B 0
12 *906:8 *1179:63 0
13 *906:29 *3177:RESET_B 0
14 *2828:A1 *2844:B1 0
15 *2828:A2 *2844:B1 1.54285e-05
16 *2828:A2 *906:29 8.01118e-05
17 *2836:A1 *906:8 0
18 *2836:A2 *906:8 1.54008e-05
19 *2836:A2 *906:12 8.00842e-05
20 *2840:A2 *2840:B1 0.000421203
21 *2840:A2 *906:29 5.30319e-05
22 *2844:A2 *2844:B1 0.000403789
23 *477:10 *2844:B1 0.000144992
24 *483:10 *906:8 0.000370373
25 *785:23 *2840:B1 0.000393736
26 *785:23 *906:29 0.00267652
27 *836:10 *906:29 0.00134906
28 *836:12 *906:29 0.00129777
29 *854:10 *906:8 0.000532586
*RES
1 *3444:X *906:8 25.6444 
2 *906:8 *906:12 20.5356 
3 *906:12 *2840:B1 42.369 
4 *906:12 *906:29 32.9986 
5 *906:29 *2828:B1 20 
6 *906:29 *2844:B1 26.9216 
7 *906:8 *2836:B1 20 
*END

*D_NET *907 0.0181954
*CONN
*I *3443:A I *D sg13g2_buf_1
*I *2792:B1 I *D sg13g2_o21ai_1
*I *3444:A I *D sg13g2_buf_1
*I *2832:B1 I *D sg13g2_o21ai_1
*I *2808:B1 I *D sg13g2_o21ai_1
*I *2820:B1 I *D sg13g2_o21ai_1
*I *2780:B1 I *D sg13g2_o21ai_1
*I *3445:X O *D sg13g2_buf_1
*CAP
1 *3443:A 0
2 *2792:B1 0
3 *3444:A 0
4 *2832:B1 0
5 *2808:B1 0
6 *2820:B1 0
7 *2780:B1 0
8 *3445:X 0
9 *907:100 0.00114678
10 *907:87 0.00133665
11 *907:80 0.000722654
12 *907:67 0.0008063
13 *907:65 0.00110531
14 *907:47 0.000589743
15 *907:41 0.00226612
16 *907:33 0.00117649
17 *907:25 0.000442521
18 *907:12 0.000423035
19 *907:4 0.000533657
20 *907:65 *3179:RESET_B 0.000143846
21 *907:65 *1070:14 0
22 *907:100 *3714:A 0.000306035
23 *2792:A1 *907:100 0
24 *2808:A1 *907:41 4.75229e-05
25 *2808:A2 *907:41 4.77425e-05
26 *2808:A2 *907:65 1.54008e-05
27 *2820:A2 *907:47 7.51285e-05
28 *2832:A2 *907:67 0.00014434
29 *2832:A2 *907:80 1.54008e-05
30 *2833:B1 *907:65 4.75252e-05
31 *2841:A2 *907:65 0
32 *2841:A2 *907:80 0.000764235
33 *3636:A *907:67 0
34 *3636:A *907:80 0
35 *27:8 *907:80 0
36 *277:8 *907:80 0
37 *278:8 *907:80 0.000500716
38 *425:14 *907:12 0.000497347
39 *446:12 *907:25 0.000285801
40 *446:12 *907:33 0.000978747
41 *455:20 *907:12 0.00044287
42 *458:32 *907:100 0
43 *462:10 *907:41 7.89557e-05
44 *467:12 *907:47 0
45 *480:10 *907:67 7.95529e-05
46 *482:10 *907:80 0.000340704
47 *486:12 *907:80 0
48 *697:297 *907:100 0
49 *703:16 *907:41 0
50 *703:25 *907:65 0
51 *721:87 *907:65 0
52 *725:66 *907:33 0.00012816
53 *725:66 *907:87 0.00023464
54 *726:46 *907:12 0.000443971
55 *746:39 *907:65 0.000339735
56 *750:26 *907:41 0
57 *751:48 *907:80 0
58 *753:28 *907:12 0
59 *753:28 *907:25 8.0194e-05
60 *776:29 *907:100 0
61 *832:54 *907:41 0.000489293
62 *832:54 *907:65 0
63 *832:94 *907:25 0.000286862
64 *841:94 *907:100 0.000176572
65 *843:61 *907:33 0.000607108
66 *905:12 *907:100 4.77425e-05
*RES
1 *3445:X *907:4 20 
2 *907:4 *907:12 45.4281 
3 *907:12 *2780:B1 20 
4 *907:4 *907:25 41.8746 
5 *907:25 *907:33 25.4693 
6 *907:33 *907:41 26.18 
7 *907:41 *907:47 44.3054 
8 *907:47 *2820:B1 20 
9 *907:41 *2808:B1 20 
10 *907:41 *907:65 49.3524 
11 *907:65 *907:67 0.9682 
12 *907:67 *2832:B1 20 
13 *907:67 *907:80 48.5799 
14 *907:80 *3444:A 20 
15 *907:33 *907:87 1.8334 
16 *907:87 *2792:B1 40 
17 *907:87 *907:100 30.0631 
18 *907:100 *3443:A 20 
*END

*D_NET *908 0.0247927
*CONN
*I *2760:B1 I *D sg13g2_o21ai_1
*I *2846:B I *D sg13g2_nand3b_1
*I *2713:A I *D sg13g2_nand2_1
*I *3006:B1 I *D sg13g2_o21ai_1
*I *2994:B1 I *D sg13g2_o21ai_1
*I *2874:B1 I *D sg13g2_o21ai_1
*I *2862:B1 I *D sg13g2_o21ai_1
*I *3064:B1 I *D sg13g2_o21ai_1
*I *3446:X O *D sg13g2_buf_1
*CAP
1 *2760:B1 4.14981e-05
2 *2846:B 0.000220323
3 *2713:A 0.00028675
4 *3006:B1 0
5 *2994:B1 6.34193e-05
6 *2874:B1 0.000218769
7 *2862:B1 5.37171e-05
8 *3064:B1 0.000507688
9 *3446:X 0.000489601
10 *908:87 0.00154102
11 *908:72 0.00119651
12 *908:57 0.000339952
13 *908:46 0.000450021
14 *908:35 0.000427139
15 *908:24 0.00097966
16 *908:18 0.00205887
17 *908:12 0.00186186
18 *2713:A *1186:39 0
19 *2874:B1 *1187:43 0.000371619
20 *908:18 *1174:56 0.000370664
21 *908:72 *3006:A2 8.00842e-05
22 *908:87 *1188:12 0
23 *908:87 *1191:8 0
24 *908:87 *1192:26 0
25 *2714:A *2713:A 0
26 *2760:A1 *908:12 0.000240405
27 *2760:A2 *2760:B1 1.54008e-05
28 *2760:A2 *908:12 0
29 *2862:A2 *2862:B1 8.00842e-05
30 *2874:A2 *2874:B1 0.000404076
31 *2995:A *908:87 4.77708e-05
32 *3007:B *908:72 1.54008e-05
33 *3007:B *908:87 0.000225367
34 *3143:CLK *908:12 0.000387108
35 *3187:D *2713:A 0
36 *390:12 *2713:A 0.000149572
37 *426:10 *2760:B1 1.54008e-05
38 *502:10 *2862:B1 1.54008e-05
39 *602:16 *908:87 0
40 *713:90 *908:12 1.54008e-05
41 *713:90 *908:18 0
42 *743:29 *908:12 0.000144992
43 *743:29 *908:18 0
44 *743:29 *908:24 0.00079144
45 *754:8 *908:24 0.000143999
46 *754:47 *2760:B1 0
47 *754:47 *908:18 0
48 *754:47 *908:24 0
49 *778:22 *3064:B1 0.00151467
50 *794:37 *908:35 0.00104768
51 *794:37 *908:46 0.00064756
52 *794:37 *908:57 0.000591515
53 *794:37 *908:72 0.000592451
54 *796:26 *908:18 0.000346423
55 *796:26 *908:35 0.00126284
56 *796:26 *908:46 0.000669983
57 *796:26 *908:57 0.000612414
58 *796:26 *908:72 0.000611974
59 *797:39 *2846:B 0.000767865
60 *797:39 *908:87 0.00187639
61 *823:91 *908:87 0
62 *835:12 *2713:A 0
63 *872:23 *3064:B1 0
*RES
1 *3446:X *908:12 25.7886 
2 *908:12 *908:18 33.3694 
3 *908:18 *908:24 45.2942 
4 *908:24 *3064:B1 47.0246 
5 *908:18 *908:35 5.7886 
6 *908:35 *2862:B1 40.5356 
7 *908:35 *908:46 3.0694 
8 *908:46 *2874:B1 42.6986 
9 *908:46 *908:57 2.8222 
10 *908:57 *2994:B1 40.5356 
11 *908:57 *908:72 23.3578 
12 *908:72 *3006:B1 20 
13 *908:72 *908:87 33.2046 
14 *908:87 *2713:A 43.1466 
15 *908:87 *2846:B 43.5638 
16 *908:12 *2760:B1 20.5356 
*END

*D_NET *909 0.02968
*CONN
*I *3442:A I *D sg13g2_buf_1
*I *3437:A I *D sg13g2_buf_1
*I *3445:A I *D sg13g2_buf_1
*I *3446:A I *D sg13g2_buf_1
*I *3447:X O *D sg13g2_buf_1
*CAP
1 *3442:A 0
2 *3437:A 0
3 *3445:A 0
4 *3446:A 0.000377661
5 *3447:X 0.000275743
6 *909:78 0.00154924
7 *909:72 0.00239913
8 *909:66 0.00156978
9 *909:58 0.00133009
10 *909:50 0.000610198
11 *909:43 0
12 *909:32 0.00101904
13 *909:24 0.000994561
14 *909:20 0.00220249
15 *909:18 0.00184931
16 *909:14 0.000275743
17 *909:14 *3562:A 0
18 *909:14 *1049:18 7.51285e-05
19 *909:20 *1160:14 0
20 *909:32 *1176:23 0.000319364
21 *909:66 *1172:30 7.30101e-05
22 *909:72 *1169:16 0.0014257
23 *909:72 *1173:21 7.31655e-05
24 *909:78 *3070:B1 0.000103553
25 *909:78 *1173:21 0.000259106
26 *2720:A1 *909:14 4.7752e-05
27 *2728:A1 *909:58 0
28 *2734:A1 *909:66 4.79124e-05
29 *2734:B1 *909:66 4.78028e-05
30 *2736:B1 *909:66 0.000242023
31 *2737:A1 *909:66 0
32 *2760:A2 *3446:A 0
33 *2780:A1 *909:32 0
34 *2793:A1 *3446:A 4.76068e-05
35 *2959:B1 *909:78 8.0216e-05
36 *2963:A1 *909:78 0
37 *2963:B1 *909:78 0
38 *360:49 *909:78 0
39 *393:37 *909:32 0.00102755
40 *428:10 *909:14 0
41 *428:10 *909:58 0.000370375
42 *571:110 *909:78 0
43 *575:10 *909:78 0
44 *657:10 *909:78 0.000533865
45 *659:10 *909:72 0.000124862
46 *699:24 *909:58 0
47 *717:20 *909:20 0.00651463
48 *721:77 *3446:A 0
49 *730:26 *909:58 0.000370375
50 *740:16 *909:78 0.00166805
51 *740:36 *909:66 0
52 *740:44 *909:58 7.33256e-05
53 *740:52 *909:58 0
54 *743:29 *3446:A 0
55 *773:23 *909:32 0
56 *790:10 *909:58 0
57 *790:14 *909:72 0
58 *795:24 *909:78 0
59 *807:48 *909:78 0
60 *807:102 *909:78 4.78359e-05
61 *827:20 *909:24 0.000217634
62 *828:59 *909:66 0.000758609
63 *833:99 *909:14 0.0001813
64 *839:59 *909:66 0.000369497
65 *839:70 *909:14 0
66 *843:55 *3446:A 7.93167e-05
67 *844:18 *909:14 4.74163e-05
68 *865:54 *909:78 0
69 *885:111 *909:78 0
70 *901:6 *909:14 0
71 *903:8 *909:14 0
*RES
1 *3447:X *909:14 43.1621 
2 *909:14 *909:18 40 
3 *909:18 *909:20 30.0142 
4 *909:20 *909:24 23.9964 
5 *909:24 *909:32 47.2821 
6 *909:32 *3446:A 23.3475 
7 *909:24 *909:43 40 
8 *909:43 *3445:A 20 
9 *909:14 *909:50 20 
10 *909:50 *909:58 45.5517 
11 *909:58 *909:66 47.8074 
12 *909:66 *909:72 30.0013 
13 *909:72 *909:78 36.9049 
14 *909:78 *3437:A 20 
15 *909:50 *3442:A 20 
*END

*D_NET *910 0.000501031
*CONN
*I *3195:RESET_B I *D sg13g2_dfrbpq_1
*I *3196:L_HI O *D sg13g2_tiehi
*CAP
1 *3195:RESET_B 0.000250515
2 *3196:L_HI 0.000250515
3 *3195:RESET_B *1185:28 0
4 *2860:B1 *3195:RESET_B 0
5 *746:25 *3195:RESET_B 0
*RES
1 *3196:L_HI *3195:RESET_B 42.5338 
*END

*D_NET *911 0.000518862
*CONN
*I *3259:RESET_B I *D sg13g2_dfrbpq_1
*I *3260:L_HI O *D sg13g2_tiehi
*CAP
1 *3259:RESET_B 0.000203084
2 *3260:L_HI 0.000203084
3 *3259:RESET_B *1188:12 0.000112695
4 *697:278 *3259:RESET_B 0
5 *701:29 *3259:RESET_B 0
*RES
1 *3260:L_HI *3259:RESET_B 42.1836 
*END

*D_NET *912 0.00504052
*CONN
*I *2739:B2 I *D sg13g2_a22oi_1
*I *3571:X O *D sg13g2_buf_1
*CAP
1 *2739:B2 0
2 *3571:X 0.000121686
3 *912:16 0.00125497
4 *912:8 0.00137665
5 *912:8 *1078:28 0.000175685
6 *912:16 *3556:A 0
7 *912:16 *946:20 0.000126276
8 *912:16 *1037:10 0.00187282
9 *715:10 *912:16 0
10 *730:41 *912:16 0
11 *749:20 *912:16 0
12 *828:80 *912:16 0
13 *844:100 *912:16 0.000112437
*RES
1 *3571:X *912:8 41.1845 
2 *912:8 *912:16 34.0595 
3 *912:16 *2739:B2 20 
*END

*D_NET *913 0.000457338
*CONN
*I *3193:RESET_B I *D sg13g2_dfrbpq_1
*I *3194:L_HI O *D sg13g2_tiehi
*CAP
1 *3193:RESET_B 0.000228669
2 *3194:L_HI 0.000228669
3 *3193:RESET_B *1165:41 0
4 *725:10 *3193:RESET_B 0
*RES
1 *3194:L_HI *3193:RESET_B 42.1836 
*END

*D_NET *914 0.0006881
*CONN
*I *3291:RESET_B I *D sg13g2_dfrbpq_1
*I *3292:L_HI O *D sg13g2_tiehi
*CAP
1 *3291:RESET_B 0.000207515
2 *3292:L_HI 0.000207515
3 *736:35 *3291:RESET_B 0.00027307
4 *741:32 *3291:RESET_B 0
*RES
1 *3292:L_HI *3291:RESET_B 42.1836 
*END

*D_NET *915 0.00209303
*CONN
*I *3191:RESET_B I *D sg13g2_dfrbpq_1
*I *3192:L_HI O *D sg13g2_tiehi
*CAP
1 *3191:RESET_B 0.0004023
2 *3192:L_HI 0.0004023
3 s_axil_bvalid *3191:RESET_B 0.000725515
4 *241:12 *3191:RESET_B 0
5 *709:42 *3191:RESET_B 0.000272873
6 *709:50 *3191:RESET_B 0.000290039
*RES
1 *3192:L_HI *3191:RESET_B 45.1294 
*END

*D_NET *916 0.000690185
*CONN
*I *3189:RESET_B I *D sg13g2_dfrbpq_1
*I *3190:L_HI O *D sg13g2_tiehi
*CAP
1 *3189:RESET_B 0.000256427
2 *3190:L_HI 0.000256427
3 *3189:D *3189:RESET_B 0
4 *3189:CLK *3189:RESET_B 0
5 *863:34 *3189:RESET_B 0
6 *885:33 *3189:RESET_B 0.00017733
*RES
1 *3190:L_HI *3189:RESET_B 42.6162 
*END

*D_NET *917 0.00063543
*CONN
*I *3257:RESET_B I *D sg13g2_dfrbpq_1
*I *3258:L_HI O *D sg13g2_tiehi
*CAP
1 *3257:RESET_B 0.000317715
2 *3258:L_HI 0.000317715
3 *3257:RESET_B *1187:43 0
4 *858:75 *3257:RESET_B 0
*RES
1 *3258:L_HI *3257:RESET_B 42.6162 
*END

*D_NET *918 0.00115395
*CONN
*I *3187:RESET_B I *D sg13g2_dfrbpq_1
*I *3188:L_HI O *D sg13g2_tiehi
*CAP
1 *3187:RESET_B 0.00035252
2 *3188:L_HI 0.00035252
3 *3187:D *3187:RESET_B 0
4 *389:12 *3187:RESET_B 0.000273098
5 *763:32 *3187:RESET_B 0
6 *835:12 *3187:RESET_B 0
7 *835:21 *3187:RESET_B 0.000175815
8 *837:14 *3187:RESET_B 0
*RES
1 *3188:L_HI *3187:RESET_B 43.826 
*END

*D_NET *919 0.000706075
*CONN
*I *3307:RESET_B I *D sg13g2_dfrbpq_1
*I *3308:L_HI O *D sg13g2_tiehi
*CAP
1 *3307:RESET_B 0.000216188
2 *3308:L_HI 0.000216188
3 *3094:A *3307:RESET_B 0
4 *757:27 *3307:RESET_B 0.000273699
*RES
1 *3308:L_HI *3307:RESET_B 42.1836 
*END

*D_NET *920 0.00090341
*CONN
*I *3185:RESET_B I *D sg13g2_dfrbpq_1
*I *3186:L_HI O *D sg13g2_tiehi
*CAP
1 *3185:RESET_B 0.000451705
2 *3186:L_HI 0.000451705
3 *3185:RESET_B *3177:RESET_B 0
4 *3185:RESET_B *3177:D 0
5 *3185:RESET_B *3185:D 0
6 *2844:B1 *3185:RESET_B 0
7 *3185:CLK *3185:RESET_B 0
8 *3492:A *3185:RESET_B 0
*RES
1 *3186:L_HI *3185:RESET_B 44.944 
*END

*D_NET *921 0.000595865
*CONN
*I *3255:RESET_B I *D sg13g2_dfrbpq_1
*I *3256:L_HI O *D sg13g2_tiehi
*CAP
1 *3255:RESET_B 0.000230081
2 *3256:L_HI 0.000230081
3 *856:94 *3255:RESET_B 0
4 *885:64 *3255:RESET_B 0.000135702
*RES
1 *3256:L_HI *3255:RESET_B 42.2866 
*END

*D_NET *922 0.000709422
*CONN
*I *3183:RESET_B I *D sg13g2_dfrbpq_1
*I *3184:L_HI O *D sg13g2_tiehi
*CAP
1 *3183:RESET_B 0.000242285
2 *3184:L_HI 0.000242285
3 *3183:RESET_B *3183:D 0
4 *3183:RESET_B *3715:A 0
5 *3183:RESET_B *1173:58 8.00842e-05
6 *751:48 *3183:RESET_B 0.000144768
*RES
1 *3184:L_HI *3183:RESET_B 42.5338 
*END

*D_NET *923 0.00776425
*CONN
*I *2743:B2 I *D sg13g2_a22oi_1
*I *3572:X O *D sg13g2_buf_1
*CAP
1 *2743:B2 0
2 *3572:X 0.000224318
3 *923:24 0.00261998
4 *923:10 0.0028443
5 *923:10 *1067:16 0
6 *923:10 *1078:28 0
7 *923:10 *1182:8 0
8 *923:24 *1039:16 7.92265e-05
9 *923:24 *1044:8 0.00136974
10 *923:24 *1065:8 1.54008e-05
11 gpio_out[0] *923:24 0
12 *53:9 *923:24 0.000611279
13 *54:9 *923:24 0
14 *871:8 *923:24 0
*RES
1 *3572:X *923:10 42.1836 
2 *923:10 *923:24 49.1696 
3 *923:24 *2743:B2 20 
*END

*D_NET *924 0.00067115
*CONN
*I *3289:RESET_B I *D sg13g2_dfrbpq_1
*I *3290:L_HI O *D sg13g2_tiehi
*CAP
1 *3289:RESET_B 0.000198561
2 *3290:L_HI 0.000198561
3 *806:34 *3289:RESET_B 0.000274028
4 *820:66 *3289:RESET_B 0
*RES
1 *3290:L_HI *3289:RESET_B 42.1836 
*END

*D_NET *925 0.00233403
*CONN
*I *3181:RESET_B I *D sg13g2_dfrbpq_1
*I *3182:L_HI O *D sg13g2_tiehi
*CAP
1 *3181:RESET_B 0.000179786
2 *3182:L_HI 0.000138463
3 *925:8 0.000318249
4 *3181:RESET_B *3714:A 0
5 *473:14 *925:8 0.000712013
6 *486:12 *3181:RESET_B 0.000273507
7 *488:24 *925:8 0.000712013
*RES
1 *3182:L_HI *925:8 43.3166 
2 *925:8 *3181:RESET_B 41.8334 
*END

*D_NET *926 0.000802066
*CONN
*I *3253:RESET_B I *D sg13g2_dfrbpq_1
*I *3254:L_HI O *D sg13g2_tiehi
*CAP
1 *3253:RESET_B 0.000231446
2 *3254:L_HI 0.000231446
3 *3253:D *3253:RESET_B 0
4 *352:16 *3253:RESET_B 0.000339174
*RES
1 *3254:L_HI *3253:RESET_B 42.6162 
*END

*D_NET *927 0.00106755
*CONN
*I *3179:RESET_B I *D sg13g2_dfrbpq_1
*I *3180:L_HI O *D sg13g2_tiehi
*CAP
1 *3179:RESET_B 0.000373269
2 *3180:L_HI 0.000373269
3 *3633:A *3179:RESET_B 0
4 *3636:A *3179:RESET_B 0
5 *32:10 *3179:RESET_B 0.000177164
6 *34:10 *3179:RESET_B 0
7 *721:87 *3179:RESET_B 0
8 *907:65 *3179:RESET_B 0.000143846
*RES
1 *3180:L_HI *3179:RESET_B 43.914 
*END

*D_NET *928 0.00118872
*CONN
*I *3315:RESET_B I *D sg13g2_dfrbpq_1
*I *3316:L_HI O *D sg13g2_tiehi
*CAP
1 *3315:RESET_B 0.000393191
2 *3316:L_HI 0.000393191
3 *3107:A2 *3315:RESET_B 4.78356e-05
4 *359:14 *3315:RESET_B 0
5 *687:10 *3315:RESET_B 0
6 *722:14 *3315:RESET_B 0
7 *889:35 *3315:RESET_B 0.000177373
8 *889:39 *3315:RESET_B 0.000177126
*RES
1 *3316:L_HI *3315:RESET_B 43.914 
*END

*D_NET *929 0.000582502
*CONN
*I *3177:RESET_B I *D sg13g2_dfrbpq_1
*I *3178:L_HI O *D sg13g2_tiehi
*CAP
1 *3177:RESET_B 0.000291251
2 *3178:L_HI 0.000291251
3 *2826:B1 *3177:RESET_B 0
4 *2844:B1 *3177:RESET_B 0
5 *3185:RESET_B *3177:RESET_B 0
6 *477:10 *3177:RESET_B 0
7 *786:8 *3177:RESET_B 0
8 *906:29 *3177:RESET_B 0
*RES
1 *3178:L_HI *3177:RESET_B 42.8634 
*END

*D_NET *930 0.00116414
*CONN
*I *3251:RESET_B I *D sg13g2_dfrbpq_1
*I *3252:L_HI O *D sg13g2_tiehi
*CAP
1 *3251:RESET_B 0.000142581
2 *3252:L_HI 0.000227834
3 *930:12 0.000370415
4 *3:18 *930:12 0
5 *354:24 *3251:RESET_B 0.000111878
6 *354:24 *930:12 0
7 *360:20 *3251:RESET_B 0.000241341
8 *757:27 *930:12 7.00878e-05
9 *891:37 *930:12 0
*RES
1 *3252:L_HI *930:12 42.5029 
2 *930:12 *3251:RESET_B 41.6171 
*END

*D_NET *931 0.00104294
*CONN
*I *3175:RESET_B I *D sg13g2_dfrbpq_1
*I *3176:L_HI O *D sg13g2_tiehi
*CAP
1 *3175:RESET_B 0.000182412
2 *3176:L_HI 0.000182412
3 *3175:RESET_B *3724:A 3.23694e-05
4 *3175:RESET_B *1188:31 0.000306701
5 *3175:RESET_B *1192:36 0.000339042
*RES
1 *3176:L_HI *3175:RESET_B 42.266 
*END

*D_NET *932 0.000807666
*CONN
*I *3287:RESET_B I *D sg13g2_dfrbpq_1
*I *3288:L_HI O *D sg13g2_tiehi
*CAP
1 *3287:RESET_B 6.2866e-05
2 *3288:L_HI 0.00019606
3 *932:10 0.000258926
4 *932:10 *3049:B1 0
5 *372:16 *3287:RESET_B 0.000112558
6 *372:16 *932:10 0.000177257
7 *373:22 *3287:RESET_B 0
8 *376:10 *932:10 0
*RES
1 *3288:L_HI *932:10 41.7819 
2 *932:10 *3287:RESET_B 40.7519 
*END

*D_NET *933 0.00148737
*CONN
*I *3173:RESET_B I *D sg13g2_dfrbpq_1
*I *3174:L_HI O *D sg13g2_tiehi
*CAP
1 *3173:RESET_B 0.000179333
2 *3174:L_HI 9.32222e-05
3 *933:16 0.000279286
4 *933:10 0.000193175
5 *933:10 *1033:8 0
6 *933:16 *1169:39 0
7 *2818:B1 *3173:RESET_B 0.000176279
8 *476:20 *933:10 0.000230615
9 *717:24 *933:16 0.000144769
10 *722:73 *933:10 3.15716e-05
11 *743:54 *933:10 3.15716e-05
12 *754:47 *3173:RESET_B 0
13 *843:81 *3173:RESET_B 0
14 *843:98 *933:10 0.000127542
*RES
1 *3174:L_HI *933:10 41.303 
2 *933:10 *933:16 40.9682 
3 *933:16 *3173:RESET_B 41.6171 
*END

*D_NET *934 0.00607595
*CONN
*I *2763:B2 I *D sg13g2_a22oi_1
*I *3573:X O *D sg13g2_buf_1
*CAP
1 *2763:B2 0
2 *3573:X 0.000848085
3 *934:18 0.00126672
4 *934:10 0.0021148
5 *934:10 *3569:A 0
6 *934:10 *1067:16 0
7 *934:10 *1182:8 0
8 *934:18 *3562:A 0
9 *934:18 *935:12 0
10 *934:18 *1063:20 0
11 *934:18 *1067:16 0
12 *934:18 *1078:28 0
13 *428:10 *934:18 3.16813e-05
14 *738:8 *934:18 0.000656144
15 *752:29 *934:18 0.000496718
16 *826:14 *934:18 2.14736e-05
17 *850:62 *934:18 3.15716e-05
18 *850:72 *934:18 0.000178401
19 *860:8 *934:10 0.000143413
20 *893:16 *934:18 0
21 *901:20 *934:18 0.000286945
*RES
1 *3573:X *934:10 48.4563 
2 *934:10 *934:18 32.9626 
3 *934:18 *2763:B2 20 
*END

*D_NET *935 0.00406866
*CONN
*I *2746:A1 I *D sg13g2_a21oi_1
*I *3574:X O *D sg13g2_buf_1
*CAP
1 *2746:A1 0.000242804
2 *3574:X 0.000721808
3 *935:12 0.000964611
4 *2746:A1 *1078:14 0
5 *2746:A1 *1078:28 0.000543246
6 *2746:A1 *1149:14 0.000390026
7 *935:12 *1078:28 0.000493407
8 *935:12 *1149:14 0
9 *738:8 *935:12 0
10 *757:59 *2746:A1 7.30101e-05
11 *778:45 *935:12 7.30101e-05
12 *845:39 *2746:A1 0
13 *845:39 *935:12 0
14 *850:54 *935:12 0.000176711
15 *850:62 *935:12 0.000390023
16 *850:72 *935:12 0
17 *934:18 *935:12 0
*RES
1 *3574:X *935:12 47.1688 
2 *935:12 *2746:A1 43.3166 
*END

*D_NET *936 0.000582964
*CONN
*I *3249:RESET_B I *D sg13g2_dfrbpq_1
*I *3250:L_HI O *D sg13g2_tiehi
*CAP
1 *3249:RESET_B 0.000251327
2 *3250:L_HI 0.000251327
3 *2966:B *3249:RESET_B 0
4 *3245:CLK *3249:RESET_B 0
5 *580:26 *3249:RESET_B 8.03091e-05
*RES
1 *3250:L_HI *3249:RESET_B 42.1836 
*END

*D_NET *937 0.000961828
*CONN
*I *3171:RESET_B I *D sg13g2_dfrbpq_1
*I *3172:L_HI O *D sg13g2_tiehi
*CAP
1 *3171:RESET_B 0.000121201
2 *3172:L_HI 0.000111857
3 *937:10 0.000233058
4 *3171:RESET_B *3714:A 0.000176722
5 *3171:RESET_B *1187:51 0
6 *937:10 *3714:A 0.000111596
7 *937:10 *1179:63 0
8 *781:27 *937:10 0.00012816
9 *841:94 *937:10 7.92329e-05
*RES
1 *3172:L_HI *937:10 41.3493 
2 *937:10 *3171:RESET_B 41.1845 
*END

*D_NET *938 0.000471284
*CONN
*I *3305:RESET_B I *D sg13g2_dfrbpq_1
*I *3306:L_HI O *D sg13g2_tiehi
*CAP
1 *3305:RESET_B 0.000235642
2 *3306:L_HI 0.000235642
3 *890:14 *3305:RESET_B 0
*RES
1 *3306:L_HI *3305:RESET_B 42.6162 
*END

*D_NET *939 0.000617344
*CONN
*I *3169:RESET_B I *D sg13g2_dfrbpq_1
*I *3170:L_HI O *D sg13g2_tiehi
*CAP
1 *3169:RESET_B 0.000308672
2 *3170:L_HI 0.000308672
3 *2812:A1 *3169:RESET_B 0
4 *2812:A2 *3169:RESET_B 0
5 *3381:A *3169:RESET_B 0
*RES
1 *3170:L_HI *3169:RESET_B 42.9252 
*END

*D_NET *940 0.000690718
*CONN
*I *3247:RESET_B I *D sg13g2_dfrbpq_1
*I *3248:L_HI O *D sg13g2_tiehi
*CAP
1 *3247:RESET_B 0.000197665
2 *3248:L_HI 0.000197665
3 *2921:B *3247:RESET_B 0
4 *3053:A *3247:RESET_B 0.000295388
5 *646:10 *3247:RESET_B 0
6 *722:39 *3247:RESET_B 0
*RES
1 *3248:L_HI *3247:RESET_B 42.1836 
*END

*D_NET *941 0.000855191
*CONN
*I *3167:RESET_B I *D sg13g2_dfrbpq_1
*I *3168:L_HI O *D sg13g2_tiehi
*CAP
1 *3167:RESET_B 0.000291261
2 *3168:L_HI 0.000291261
3 *743:54 *3167:RESET_B 0.00027267
4 *843:81 *3167:RESET_B 0
*RES
1 *3168:L_HI *3167:RESET_B 42.6162 
*END

*D_NET *942 0.000478957
*CONN
*I *3285:RESET_B I *D sg13g2_dfrbpq_1
*I *3286:L_HI O *D sg13g2_tiehi
*CAP
1 *3285:RESET_B 0.000239478
2 *3286:L_HI 0.000239478
3 *3285:RESET_B *3045:B1 0
4 *697:202 *3285:RESET_B 0
5 *708:19 *3285:RESET_B 0
*RES
1 *3286:L_HI *3285:RESET_B 41.9698 
*END

*D_NET *943 0.00071497
*CONN
*I *3165:RESET_B I *D sg13g2_dfrbpq_1
*I *3166:L_HI O *D sg13g2_tiehi
*CAP
1 *3165:RESET_B 0.000220638
2 *3166:L_HI 0.000220638
3 *3165:RESET_B *1183:50 0
4 *841:39 *3165:RESET_B 0.000273693
*RES
1 *3166:L_HI *3165:RESET_B 42.1836 
*END

*D_NET *944 0.000477127
*CONN
*I *3245:RESET_B I *D sg13g2_dfrbpq_1
*I *3246:L_HI O *D sg13g2_tiehi
*CAP
1 *3245:RESET_B 0.000238563
2 *3246:L_HI 0.000238563
*RES
1 *3246:L_HI *3245:RESET_B 42.6162 
*END

*D_NET *945 0.000846307
*CONN
*I *3163:RESET_B I *D sg13g2_dfrbpq_1
*I *3164:L_HI O *D sg13g2_tiehi
*CAP
1 *3163:RESET_B 0.000254145
2 *3164:L_HI 0.000254145
3 *456:12 *3163:RESET_B 0
4 *835:49 *3163:RESET_B 0.000338016
5 *837:23 *3163:RESET_B 0
6 *905:56 *3163:RESET_B 0
7 *905:62 *3163:RESET_B 0
*RES
1 *3164:L_HI *3163:RESET_B 42.6162 
*END

*D_NET *946 0.00772244
*CONN
*I *2751:B2 I *D sg13g2_a22oi_1
*I *3575:X O *D sg13g2_buf_1
*CAP
1 *2751:B2 0
2 *3575:X 0.000352893
3 *946:20 0.0013981
4 *946:14 0.00167073
5 *946:8 0.000625528
6 *946:8 *1045:10 0.000144261
7 *946:14 *1025:16 0
8 *946:14 *1047:16 0.000437585
9 *946:20 *1037:10 0
10 *946:20 *1047:10 0.000658438
11 *946:20 *1069:12 0.000283963
12 *2751:A2 *946:20 1.54008e-05
13 *410:14 *946:8 0
14 *730:26 *946:8 0
15 *749:20 *946:20 0
16 *756:53 *946:20 0.000498767
17 *757:51 *946:8 0.000176718
18 *815:20 *946:20 0.00133377
19 *850:54 *946:14 0
20 *912:16 *946:20 0.000126276
*RES
1 *3575:X *946:8 43.1312 
2 *946:8 *946:14 42.9149 
3 *946:14 *946:20 35.347 
4 *946:20 *2751:B2 20 
*END

*D_NET *947 0.00123855
*CONN
*I *3319:RESET_B I *D sg13g2_dfrbpq_1
*I *3320:L_HI O *D sg13g2_tiehi
*CAP
1 *3319:RESET_B 0.000149206
2 *3320:L_HI 0.000220571
3 *947:10 0.000369777
4 *2985:B1 *947:10 0.000145124
5 *2985:A2 *3319:RESET_B 0.000208747
6 *856:94 *947:10 0.000145124
7 *885:58 *3319:RESET_B 0
*RES
1 *3320:L_HI *947:10 42.06 
2 *947:10 *3319:RESET_B 41.4008 
*END

*D_NET *948 0.00148951
*CONN
*I *3161:RESET_B I *D sg13g2_dfrbpq_1
*I *3162:L_HI O *D sg13g2_tiehi
*CAP
1 *3161:RESET_B 0.000413548
2 *3162:L_HI 0.000413548
3 *3161:RESET_B *1183:31 0.000662413
4 *3161:RESET_B *1190:31 0
*RES
1 *3162:L_HI *3161:RESET_B 44.429 
*END

*D_NET *949 0.00033578
*CONN
*I *3243:RESET_B I *D sg13g2_dfrbpq_1
*I *3244:L_HI O *D sg13g2_tiehi
*CAP
1 *3243:RESET_B 0.00016789
2 *3244:L_HI 0.00016789
*RES
1 *3244:L_HI *3243:RESET_B 41.8334 
*END

*D_NET *950 0.000662615
*CONN
*I *3159:RESET_B I *D sg13g2_dfrbpq_1
*I *3160:L_HI O *D sg13g2_tiehi
*CAP
1 *3159:RESET_B 0.000243092
2 *3160:L_HI 0.000243092
3 *3159:RESET_B *1185:28 0
4 *746:31 *3159:RESET_B 0.000176431
5 *750:26 *3159:RESET_B 0
*RES
1 *3160:L_HI *3159:RESET_B 42.1836 
*END

*D_NET *951 0.00136102
*CONN
*I *3283:RESET_B I *D sg13g2_dfrbpq_1
*I *3284:L_HI O *D sg13g2_tiehi
*CAP
1 *3283:RESET_B 0.000548264
2 *3284:L_HI 0.000548264
3 *3283:RESET_B *3287:D 0.000264488
4 *372:16 *3283:RESET_B 0
5 *373:22 *3283:RESET_B 0
6 *709:8 *3283:RESET_B 0
7 *709:14 *3283:RESET_B 0
*RES
1 *3284:L_HI *3283:RESET_B 45.3766 
*END

*D_NET *952 0.000886584
*CONN
*I *3157:RESET_B I *D sg13g2_dfrbpq_1
*I *3158:L_HI O *D sg13g2_tiehi
*CAP
1 *3157:RESET_B 0.000274635
2 *3158:L_HI 0.000274635
3 *3157:RESET_B *1187:43 0
4 *751:33 *3157:RESET_B 0.000337315
*RES
1 *3158:L_HI *3157:RESET_B 42.6162 
*END

*D_NET *953 0.00047819
*CONN
*I *3241:RESET_B I *D sg13g2_dfrbpq_1
*I *3242:L_HI O *D sg13g2_tiehi
*CAP
1 *3241:RESET_B 0.000239095
2 *3242:L_HI 0.000239095
3 *307:14 *3241:RESET_B 0
4 *580:26 *3241:RESET_B 0
*RES
1 *3242:L_HI *3241:RESET_B 42.6162 
*END

*D_NET *954 0.000531721
*CONN
*I *3155:RESET_B I *D sg13g2_dfrbpq_1
*I *3156:L_HI O *D sg13g2_tiehi
*CAP
1 *3155:RESET_B 0.00026586
2 *3156:L_HI 0.00026586
3 *2784:A2 *3155:RESET_B 0
4 *697:297 *3155:RESET_B 0
*RES
1 *3156:L_HI *3155:RESET_B 42.266 
*END

*D_NET *955 0.00101347
*CONN
*I *3303:RESET_B I *D sg13g2_dfrbpq_1
*I *3304:L_HI O *D sg13g2_tiehi
*CAP
1 *3303:RESET_B 0.000234393
2 *3304:L_HI 0.000234393
3 *710:61 *3303:RESET_B 0.000208096
4 *748:23 *3303:RESET_B 0.000336585
*RES
1 *3304:L_HI *3303:RESET_B 42.6162 
*END

*D_NET *956 0.00171003
*CONN
*I *3153:RESET_B I *D sg13g2_dfrbpq_1
*I *3154:L_HI O *D sg13g2_tiehi
*CAP
1 *3153:RESET_B 0.000518704
2 *3154:L_HI 0.000518704
3 *3153:RESET_B *2781:A2 0
4 *3153:RESET_B *3153:D 0.000240299
5 *2781:A1 *3153:RESET_B 0
6 *3141:CLK *3153:RESET_B 1.54008e-05
7 *737:48 *3153:RESET_B 0
8 *745:28 *3153:RESET_B 0.000369177
9 *846:24 *3153:RESET_B 0
10 *852:83 *3153:RESET_B 4.77425e-05
*RES
1 *3154:L_HI *3153:RESET_B 45.6238 
*END

*D_NET *957 0.00508445
*CONN
*I *2755:B2 I *D sg13g2_a22oi_1
*I *3576:X O *D sg13g2_buf_1
*CAP
1 *2755:B2 0
2 *3576:X 0
3 *957:20 0
4 *957:16 0.00247844
5 *957:10 0.00247844
6 *957:6 0
7 *957:16 *1055:12 0
8 *957:16 *1181:64 0
9 *97:26 *957:16 4.78367e-05
10 *731:50 *957:16 0
11 *761:23 *957:16 7.97336e-05
*RES
1 *3576:X *957:6 40 
2 *957:6 *957:10 40 
3 *957:10 *957:16 49.6537 
4 *957:16 *957:20 40 
5 *957:20 *2755:B2 20 
*END

*D_NET *958 0.00153087
*CONN
*I *3239:RESET_B I *D sg13g2_dfrbpq_1
*I *3240:L_HI O *D sg13g2_tiehi
*CAP
1 *3239:RESET_B 0
2 *3240:L_HI 0.000412326
3 *958:10 0.000412326
4 *2950:B1 *958:10 0
5 *3239:CLK *958:10 8.02763e-05
6 *306:10 *958:10 0.000287343
7 *729:33 *958:10 0.000338601
8 *769:31 *958:10 0
*RES
1 *3240:L_HI *958:10 44.3466 
2 *958:10 *3239:RESET_B 40 
*END

*D_NET *959 0.000924742
*CONN
*I *3151:RESET_B I *D sg13g2_dfrbpq_1
*I *3152:L_HI O *D sg13g2_tiehi
*CAP
1 *3151:RESET_B 0.000462371
2 *3152:L_HI 0.000462371
3 *3151:CLK *3151:RESET_B 0
4 *758:46 *3151:RESET_B 0
5 *769:27 *3151:RESET_B 0
*RES
1 *3152:L_HI *3151:RESET_B 43.914 
*END

*D_NET *960 0.000555836
*CONN
*I *3281:RESET_B I *D sg13g2_dfrbpq_1
*I *3282:L_HI O *D sg13g2_tiehi
*CAP
1 *3281:RESET_B 0.000277918
2 *3282:L_HI 0.000277918
3 *372:16 *3281:RESET_B 0
4 *376:10 *3281:RESET_B 0
*RES
1 *3282:L_HI *3281:RESET_B 42.6162 
*END

*D_NET *961 0.000805125
*CONN
*I *3149:RESET_B I *D sg13g2_dfrbpq_1
*I *3150:L_HI O *D sg13g2_tiehi
*CAP
1 *3149:RESET_B 5.40106e-05
2 *3150:L_HI 0.00014101
3 *961:8 0.000195021
4 *97:10 *961:8 0
5 *97:20 *961:8 0
6 *435:10 *3149:RESET_B 0
7 *700:53 *961:8 0.000334913
8 *760:14 *3149:RESET_B 8.01705e-05
*RES
1 *3150:L_HI *961:8 41.5862 
2 *961:8 *3149:RESET_B 40.5356 
*END

*D_NET *962 0.000703762
*CONN
*I *3237:RESET_B I *D sg13g2_dfrbpq_1
*I *3238:L_HI O *D sg13g2_tiehi
*CAP
1 *3237:RESET_B 0.000218716
2 *3238:L_HI 0.000218716
3 *2948:B1 *3237:RESET_B 0.000175879
4 *2948:A1 *3237:RESET_B 7.50503e-05
5 *3081:B *3237:RESET_B 0
6 *899:39 *3237:RESET_B 1.54008e-05
*RES
1 *3238:L_HI *3237:RESET_B 42.7604 
*END

*D_NET *963 0.00227132
*CONN
*I *3147:RESET_B I *D sg13g2_dfrbpq_1
*I *3148:L_HI O *D sg13g2_tiehi
*CAP
1 *3147:RESET_B 0.00043123
2 *3148:L_HI 0.000130074
3 *963:8 0.000561304
4 *963:8 *1058:28 0.000234727
5 *2732:A1 *3147:RESET_B 0
6 *699:12 *963:8 0
7 *720:41 *3147:RESET_B 0.000112634
8 *731:46 *3147:RESET_B 0.000241387
9 *740:52 *963:8 0.000447271
10 *755:23 *3147:RESET_B 0.000112689
11 *755:33 *3147:RESET_B 0
*RES
1 *3148:L_HI *963:8 42.0806 
2 *963:8 *3147:RESET_B 44.2442 
*END

*D_NET *964 0.00039383
*CONN
*I *3313:RESET_B I *D sg13g2_dfrbpq_1
*I *3314:L_HI O *D sg13g2_tiehi
*CAP
1 *3313:RESET_B 0.000196915
2 *3314:L_HI 0.000196915
*RES
1 *3314:L_HI *3313:RESET_B 42.1836 
*END

*D_NET *965 0.00142968
*CONN
*I *3145:RESET_B I *D sg13g2_dfrbpq_1
*I *3146:L_HI O *D sg13g2_tiehi
*CAP
1 *3145:RESET_B 0.000343384
2 *3146:L_HI 0.000343384
3 *2762:A2 *3145:RESET_B 8.00842e-05
4 *721:50 *3145:RESET_B 0.000468595
5 *766:16 *3145:RESET_B 0
6 *795:24 *3145:RESET_B 0
7 *839:44 *3145:RESET_B 0.000194236
*RES
1 *3146:L_HI *3145:RESET_B 43.914 
*END

*D_NET *966 0.000615888
*CONN
*I *3235:RESET_B I *D sg13g2_dfrbpq_1
*I *3236:L_HI O *D sg13g2_tiehi
*CAP
1 *3235:RESET_B 0.000307944
2 *3236:L_HI 0.000307944
3 *723:54 *3235:RESET_B 0
4 *879:26 *3235:RESET_B 0
*RES
1 *3236:L_HI *3235:RESET_B 42.6162 
*END

*D_NET *967 0.00159644
*CONN
*I *3143:RESET_B I *D sg13g2_dfrbpq_1
*I *3144:L_HI O *D sg13g2_tiehi
*CAP
1 *3143:RESET_B 0.000193852
2 *3144:L_HI 0.000100187
3 *967:10 0.000294039
4 *967:10 *1175:44 0.000287256
5 *2758:A2 *3143:RESET_B 0.000273677
6 *2760:A2 *967:10 8.00842e-05
7 *443:18 *967:10 0.000287256
8 *722:59 *967:10 8.00842e-05
9 *753:18 *3143:RESET_B 0
*RES
1 *3144:L_HI *967:10 41.8746 
2 *967:10 *3143:RESET_B 41.8334 
*END

*D_NET *968 0.00513551
*CONN
*I *3447:A I *D sg13g2_buf_1
*I *3577:X O *D sg13g2_buf_1
*CAP
1 *3447:A 0
2 *3577:X 0.000497678
3 *968:12 0.00159797
4 *968:8 0.00209564
5 *248:8 *968:12 0
6 *395:10 *968:12 0.000485455
7 *396:8 *968:12 0
8 *401:12 *968:12 0.000385606
9 *833:80 *968:12 7.31655e-05
10 *893:16 *968:12 0
*RES
1 *3577:X *968:8 45.5105 
2 *968:8 *968:12 37.9014 
3 *968:12 *3447:A 20 
*END

*D_NET *969 0.00177627
*CONN
*I *3279:RESET_B I *D sg13g2_dfrbpq_1
*I *3280:L_HI O *D sg13g2_tiehi
*CAP
1 *3279:RESET_B 0.000453097
2 *3280:L_HI 0.000453097
3 *3279:RESET_B *1117:12 0
4 *2849:A *3279:RESET_B 0
5 *3372:A *3279:RESET_B 9.72884e-05
6 *492:16 *3279:RESET_B 0.000466886
7 *825:10 *3279:RESET_B 0.000305904
8 *895:73 *3279:RESET_B 0
9 *895:88 *3279:RESET_B 0
*RES
1 *3280:L_HI *3279:RESET_B 44.7792 
*END

*D_NET *970 0.00204022
*CONN
*I *3141:RESET_B I *D sg13g2_dfrbpq_1
*I *3142:L_HI O *D sg13g2_tiehi
*CAP
1 *3141:RESET_B 0
2 *3142:L_HI 0.000245987
3 *970:10 0.000245987
4 *970:10 *1175:44 0.00050048
5 *443:18 *970:10 0.000499649
6 *452:18 *970:10 0.000274057
7 *736:35 *970:10 0.000274057
*RES
1 *3142:L_HI *970:10 44.1612 
2 *970:10 *3141:RESET_B 40 
*END

*D_NET *971 0.000675233
*CONN
*I *3233:RESET_B I *D sg13g2_dfrbpq_1
*I *3234:L_HI O *D sg13g2_tiehi
*CAP
1 *3233:RESET_B 0.000189303
2 *3234:L_HI 0.000189303
3 *3233:RESET_B *1181:31 0.000296627
4 *2934:A1 *3233:RESET_B 0
5 *2934:B1 *3233:RESET_B 0
*RES
1 *3234:L_HI *3233:RESET_B 42.1836 
*END

*D_NET *972 0.000691325
*CONN
*I *3139:RESET_B I *D sg13g2_dfrbpq_1
*I *3140:L_HI O *D sg13g2_tiehi
*CAP
1 *3139:RESET_B 0.000273653
2 *3140:L_HI 0.000273653
3 *3139:RESET_B *3139:D 0.000128618
4 *2753:A2 *3139:RESET_B 0
5 *700:36 *3139:RESET_B 1.54008e-05
6 *759:49 *3139:RESET_B 0
*RES
1 *3140:L_HI *3139:RESET_B 42.678 
*END

*D_NET *973 0.000570943
*CONN
*I *3301:RESET_B I *D sg13g2_dfrbpq_1
*I *3302:L_HI O *D sg13g2_tiehi
*CAP
1 *3301:RESET_B 0.000277744
2 *3302:L_HI 0.000277744
3 *3301:RESET_B *1173:25 0
4 *3301:D *3301:RESET_B 1.54556e-05
5 *720:41 *3301:RESET_B 0
6 *796:6 *3301:RESET_B 0
*RES
1 *3302:L_HI *3301:RESET_B 42.6162 
*END

*D_NET *974 0.00158606
*CONN
*I *3137:RESET_B I *D sg13g2_dfrbpq_1
*I *3138:L_HI O *D sg13g2_tiehi
*CAP
1 *3137:RESET_B 0.000657298
2 *3138:L_HI 0.000657298
3 *3137:RESET_B *1058:22 0
4 *3137:RESET_B *1075:12 0
5 *3137:RESET_B *1078:14 0.000112656
6 *2749:A1 *3137:RESET_B 8.00842e-05
7 *2749:B1 *3137:RESET_B 3.15716e-05
8 *3137:D *3137:RESET_B 0
9 *3488:A *3137:RESET_B 0
10 *255:10 *3137:RESET_B 4.71556e-05
*RES
1 *3138:L_HI *3137:RESET_B 46.077 
*END

*D_NET *975 0.000484317
*CONN
*I *3231:RESET_B I *D sg13g2_dfrbpq_1
*I *3232:L_HI O *D sg13g2_tiehi
*CAP
1 *3231:RESET_B 0.000242159
2 *3232:L_HI 0.000242159
3 *3231:RESET_B *1181:31 0
4 *2937:A *3231:RESET_B 0
5 *3231:D *3231:RESET_B 0
6 *766:16 *3231:RESET_B 0
*RES
1 *3232:L_HI *3231:RESET_B 42.6162 
*END

*D_NET *976 0.00136151
*CONN
*I *3135:RESET_B I *D sg13g2_dfrbpq_1
*I *3136:L_HI O *D sg13g2_tiehi
*CAP
1 *3135:RESET_B 0.000425173
2 *3136:L_HI 0.000425173
3 *3135:RESET_B *3135:D 0
4 *3135:RESET_B *1065:24 0.000207854
5 *3389:A *3135:RESET_B 8.00842e-05
6 *840:26 *3135:RESET_B 0.000112289
7 *882:8 *3135:RESET_B 0.000110935
*RES
1 *3136:L_HI *3135:RESET_B 43.914 
*END

*D_NET *977 0.000909597
*CONN
*I *3277:RESET_B I *D sg13g2_dfrbpq_1
*I *3278:L_HI O *D sg13g2_tiehi
*CAP
1 *3277:RESET_B 0.000454799
2 *3278:L_HI 0.000454799
3 *365:16 *3277:RESET_B 0
4 *886:52 *3277:RESET_B 0
*RES
1 *3278:L_HI *3277:RESET_B 43.9835 
*END

*D_NET *978 0.000437826
*CONN
*I *3133:RESET_B I *D sg13g2_dfrbpq_1
*I *3134:L_HI O *D sg13g2_tiehi
*CAP
1 *3133:RESET_B 5.85765e-05
2 *3134:L_HI 0.000160336
3 *978:8 0.000218913
4 *3145:CLK *3133:RESET_B 0
5 *253:8 *978:8 0
6 *410:14 *3133:RESET_B 0
*RES
1 *3134:L_HI *978:8 41.5862 
2 *978:8 *3133:RESET_B 40.5356 
*END

*D_NET *979 0.0203988
*CONN
*I *2717:B_N I *D sg13g2_nor2b_1
*I *2715:A I *D sg13g2_nor2_1
*I *2716:A I *D sg13g2_nor2b_1
*I *3578:X O *D sg13g2_buf_1
*CAP
1 *2717:B_N 3.87833e-05
2 *2715:A 9.04859e-05
3 *2716:A 0
4 *3578:X 0
5 *979:22 0.00089582
6 *979:14 0.000844117
7 *979:12 0.00567679
8 *979:10 0.00663721
9 *979:6 0.000960418
10 *979:10 *990:10 0
11 *979:10 *990:14 0
12 *979:10 *1028:10 0
13 *979:12 *990:16 0
14 *979:12 *1115:18 0.00116708
15 *979:12 *1184:23 0
16 *979:22 *1192:32 0
17 *2784:B1 *979:22 0
18 *2784:A1 *979:22 0
19 *3155:CLK *979:22 0.00027465
20 *3161:CLK *979:22 0.000864489
21 *714:8 *979:10 0.000399531
22 *765:20 *979:10 0.00163514
23 *767:29 *979:22 0.000866513
24 *775:10 *2715:A 0
25 *832:18 *979:22 0
26 *905:38 *2715:A 4.77425e-05
27 *905:38 *979:22 0
*RES
1 *3578:X *979:6 40 
2 *979:6 *979:10 30.9798 
3 *979:10 *979:12 56.1247 
4 *979:12 *979:14 20 
5 *979:14 *979:22 29.7003 
6 *979:22 *2716:A 20 
7 *979:22 *2715:A 21.236 
8 *979:14 *2717:B_N 40.3193 
*END

*D_NET *980 0.000480994
*CONN
*I *3229:RESET_B I *D sg13g2_dfrbpq_1
*I *3230:L_HI O *D sg13g2_tiehi
*CAP
1 *3229:RESET_B 0.000240497
2 *3230:L_HI 0.000240497
3 *3229:D *3229:RESET_B 0
4 *646:14 *3229:RESET_B 0
5 *759:45 *3229:RESET_B 0
*RES
1 *3230:L_HI *3229:RESET_B 42.6162 
*END

*D_NET *981 0.000474666
*CONN
*I *3131:RESET_B I *D sg13g2_dfrbpq_1
*I *3132:L_HI O *D sg13g2_tiehi
*CAP
1 *3131:RESET_B 0.000237333
2 *3132:L_HI 0.000237333
3 *3131:CLK *3131:RESET_B 0
*RES
1 *3132:L_HI *3131:RESET_B 42.6162 
*END

*D_NET *982 0.00260286
*CONN
*I *3321:RESET_B I *D sg13g2_dfrbpq_1
*I *3322:L_HI O *D sg13g2_tiehi
*CAP
1 *3321:RESET_B 0.00018059
2 *3322:L_HI 0.000716686
3 *982:12 0.000897277
4 *3321:RESET_B *3585:A 0
5 *982:12 *2848:B 0.00029185
6 *982:12 *1028:10 4.75166e-05
7 *3706:A *982:12 0
8 *241:12 *982:12 0
9 *375:8 *982:12 0.00046894
10 *709:42 *982:12 0
11 *765:27 *3321:RESET_B 0
*RES
1 *3322:L_HI *982:12 47.2924 
2 *982:12 *3321:RESET_B 41.4008 
*END

*D_NET *983 0.000854883
*CONN
*I *3129:RESET_B I *D sg13g2_dfrbpq_1
*I *3130:L_HI O *D sg13g2_tiehi
*CAP
1 *3129:RESET_B 0.000154679
2 *3130:L_HI 0.000154679
3 *3129:RESET_B *1181:43 0.000272762
4 *2767:A2 *3129:RESET_B 0.000272762
*RES
1 *3130:L_HI *3129:RESET_B 41.8334 
*END

*D_NET *984 0.00053806
*CONN
*I *3227:RESET_B I *D sg13g2_dfrbpq_1
*I *3228:L_HI O *D sg13g2_tiehi
*CAP
1 *3227:RESET_B 0.000256666
2 *3228:L_HI 0.000256666
3 *3229:D *3227:RESET_B 2.4729e-05
4 *646:14 *3227:RESET_B 0
*RES
1 *3228:L_HI *3227:RESET_B 42.781 
*END

*D_NET *985 0.0004623
*CONN
*I *3127:RESET_B I *D sg13g2_dfrbpq_1
*I *3128:L_HI O *D sg13g2_tiehi
*CAP
1 *3127:RESET_B 0.00023115
2 *3128:L_HI 0.00023115
3 *3123:CLK *3127:RESET_B 0
4 *3131:CLK *3127:RESET_B 0
*RES
1 *3128:L_HI *3127:RESET_B 42.6162 
*END

*D_NET *986 0.000983027
*CONN
*I *3275:RESET_B I *D sg13g2_dfrbpq_1
*I *3276:L_HI O *D sg13g2_tiehi
*CAP
1 *3275:RESET_B 0.000321781
2 *3276:L_HI 0.000321781
3 *3275:RESET_B *1179:12 0
4 *3275:RESET_B *1179:26 0
5 *366:16 *3275:RESET_B 0.000339464
*RES
1 *3276:L_HI *3275:RESET_B 43.8522 
*END

*D_NET *987 0.000504962
*CONN
*I *3125:RESET_B I *D sg13g2_dfrbpq_1
*I *3126:L_HI O *D sg13g2_tiehi
*CAP
1 *3125:RESET_B 0.000252481
2 *3126:L_HI 0.000252481
3 *3125:RESET_B *3551:A 0
4 *399:22 *3125:RESET_B 0
*RES
1 *3126:L_HI *3125:RESET_B 42.4308 
*END

*D_NET *988 0.00130922
*CONN
*I *3225:RESET_B I *D sg13g2_dfrbpq_1
*I *3226:L_HI O *D sg13g2_tiehi
*CAP
1 *3225:RESET_B 0.000388263
2 *3226:L_HI 0.000388263
3 *3311:CLK *3225:RESET_B 0
4 *707:8 *3225:RESET_B 0
5 *758:38 *3225:RESET_B 0.00053269
*RES
1 *3226:L_HI *3225:RESET_B 43.914 
*END

*D_NET *989 0.000524428
*CONN
*I *3123:RESET_B I *D sg13g2_dfrbpq_1
*I *3124:L_HI O *D sg13g2_tiehi
*CAP
1 *3123:RESET_B 0.000262214
2 *3124:L_HI 0.000262214
3 *3123:RESET_B *1182:8 0
4 *3123:D *3123:RESET_B 0
*RES
1 *3124:L_HI *3123:RESET_B 42.6162 
*END

*D_NET *990 0.0178434
*CONN
*I *2716:B_N I *D sg13g2_nor2b_1
*I *2715:B I *D sg13g2_nor2_1
*I *2717:A I *D sg13g2_nor2b_1
*I *3579:X O *D sg13g2_buf_1
*CAP
1 *2716:B_N 0
2 *2715:B 0.000116283
3 *2717:A 0
4 *3579:X 0.000230349
5 *990:33 0.000851129
6 *990:22 2.60565e-05
7 *990:16 0.00623749
8 *990:14 0.00637427
9 *990:10 0.00112803
10 *990:14 *2848:B 0.00107793
11 *990:14 *1034:35 0.000393704
12 *990:16 *1189:22 0
13 *990:22 *1188:31 4.77425e-05
14 *990:33 *1184:23 0
15 *990:33 *1189:22 0
16 *2788:A1 *2715:B 0.000128334
17 *393:31 *2715:B 0.000393908
18 *393:31 *990:33 0.00039125
19 *493:54 *990:16 0
20 *714:8 *990:14 0.000399198
21 *719:37 *990:22 4.77425e-05
22 *775:29 *2715:B 0
23 *775:29 *990:33 0
24 *835:53 *990:33 0
25 *895:88 *990:14 0
26 *979:10 *990:10 0
27 *979:10 *990:14 0
28 *979:12 *990:16 0
*RES
1 *3579:X *990:10 42.8325 
2 *990:10 *990:14 29.7438 
3 *990:14 *990:16 56.1247 
4 *990:16 *990:22 40.3193 
5 *990:22 *2717:A 20 
6 *990:16 *990:33 28.3327 
7 *990:33 *2715:B 41.8334 
8 *990:33 *2716:B_N 40 
*END

*D_NET *991 0.000749952
*CONN
*I *3299:RESET_B I *D sg13g2_dfrbpq_1
*I *3300:L_HI O *D sg13g2_tiehi
*CAP
1 *3299:RESET_B 0.000231186
2 *3300:L_HI 0.000231186
3 *646:86 *3299:RESET_B 0.000263051
4 *745:28 *3299:RESET_B 2.45298e-05
*RES
1 *3300:L_HI *3299:RESET_B 42.2866 
*END

*D_NET *992 0.000857994
*CONN
*I *3223:RESET_B I *D sg13g2_dfrbpq_1
*I *3224:L_HI O *D sg13g2_tiehi
*CAP
1 *3223:RESET_B 0.000259559
2 *3224:L_HI 0.000259559
3 *358:20 *3223:RESET_B 0
4 *362:32 *3223:RESET_B 0.000338876
*RES
1 *3224:L_HI *3223:RESET_B 42.6162 
*END

*D_NET *993 0.000767761
*CONN
*I *3273:RESET_B I *D sg13g2_dfrbpq_1
*I *3274:L_HI O *D sg13g2_tiehi
*CAP
1 *3273:RESET_B 0.000208268
2 *3274:L_HI 0.000208268
3 *3273:RESET_B *1089:12 0.000207948
4 *3273:RESET_B *1096:14 0.000143278
5 *3501:A *3273:RESET_B 0
*RES
1 *3274:L_HI *3273:RESET_B 42.1836 
*END

*D_NET *994 0.000444691
*CONN
*I *3221:RESET_B I *D sg13g2_dfrbpq_1
*I *3222:L_HI O *D sg13g2_tiehi
*CAP
1 *3221:RESET_B 0.000222345
2 *3222:L_HI 0.000222345
3 *861:74 *3221:RESET_B 0
4 *883:86 *3221:RESET_B 0
*RES
1 *3222:L_HI *3221:RESET_B 42.1836 
*END

*D_NET *995 0.000478735
*CONN
*I *3311:RESET_B I *D sg13g2_dfrbpq_1
*I *3312:L_HI O *D sg13g2_tiehi
*CAP
1 *3311:RESET_B 0.000239367
2 *3312:L_HI 0.000239367
3 *3099:B1 *3311:RESET_B 0
4 *3101:B1 *3311:RESET_B 0
5 *720:41 *3311:RESET_B 0
*RES
1 *3312:L_HI *3311:RESET_B 42.1836 
*END

*D_NET *996 0.000559195
*CONN
*I *3219:RESET_B I *D sg13g2_dfrbpq_1
*I *3220:L_HI O *D sg13g2_tiehi
*CAP
1 *3219:RESET_B 0.000271897
2 *3220:L_HI 0.000271897
3 *362:32 *3219:RESET_B 0
4 *697:75 *3219:RESET_B 0
5 *820:66 *3219:RESET_B 1.54008e-05
*RES
1 *3220:L_HI *3219:RESET_B 43.1312 
*END

*D_NET *997 0.000649518
*CONN
*I *3271:RESET_B I *D sg13g2_dfrbpq_1
*I *3272:L_HI O *D sg13g2_tiehi
*CAP
1 *3271:RESET_B 0.00018744
2 *3272:L_HI 0.00018744
3 *3271:RESET_B *1183:31 0.000274638
4 *3271:RESET_B *1186:25 0
*RES
1 *3272:L_HI *3271:RESET_B 42.1836 
*END

*D_NET *998 0.00080998
*CONN
*I *3217:RESET_B I *D sg13g2_dfrbpq_1
*I *3218:L_HI O *D sg13g2_tiehi
*CAP
1 *3217:RESET_B 0.000348662
2 *3218:L_HI 0.000348662
3 *3213:D *3217:RESET_B 0
4 *3217:D *3217:RESET_B 0
5 *3332:A *3217:RESET_B 0
6 *362:22 *3217:RESET_B 0.000112656
*RES
1 *3218:L_HI *3217:RESET_B 44.0582 
*END

*D_NET *999 0.000421496
*CONN
*I *3297:RESET_B I *D sg13g2_dfrbpq_1
*I *3298:L_HI O *D sg13g2_tiehi
*CAP
1 *3297:RESET_B 0.000210748
2 *3298:L_HI 0.000210748
3 *3069:B *3297:RESET_B 0
4 *3297:D *3297:RESET_B 0
*RES
1 *3298:L_HI *3297:RESET_B 42.2866 
*END

*D_NET *1000 0.000367711
*CONN
*I *3215:RESET_B I *D sg13g2_dfrbpq_1
*I *3216:L_HI O *D sg13g2_tiehi
*CAP
1 *3215:RESET_B 0.000183856
2 *3216:L_HI 0.000183856
3 *3215:RESET_B *1165:22 0
*RES
1 *3216:L_HI *3215:RESET_B 42.2248 
*END

*D_NET *1001 0.00455314
*CONN
*I *2711:B_N I *D sg13g2_nor2b_1
*I *2712:B I *D sg13g2_nand2b_1
*I *3580:X O *D sg13g2_buf_1
*CAP
1 *2711:B_N 0
2 *2712:B 9.91778e-05
3 *3580:X 0.00156739
4 *1001:12 0.000208244
5 *1001:8 0.00167646
6 s_axil_rdata[0] *1001:8 0
7 s_axil_rdata[10] *1001:8 0
8 s_axil_rdata[8] *1001:8 0
9 s_axil_rdata[9] *1001:8 0
10 *2846:C *1001:12 0
11 *3670:A *1001:8 0
12 *3673:A *1001:8 0.00020758
13 *3698:A *1001:8 0
14 *3702:A *1001:8 0.000111929
15 *702:48 *1001:8 0
16 *702:61 *1001:8 0
17 *763:26 *1001:8 0
18 *799:22 *2712:B 0.000342035
19 *799:22 *1001:12 0.000340324
20 *801:25 *1001:8 0
*RES
1 *3580:X *1001:8 36.3667 
2 *1001:8 *1001:12 21.5862 
3 *1001:12 *2712:B 41.5862 
4 *1001:12 *2711:B_N 40 
*END

*D_NET *1002 0.000488882
*CONN
*I *3269:RESET_B I *D sg13g2_dfrbpq_1
*I *3270:L_HI O *D sg13g2_tiehi
*CAP
1 *3269:RESET_B 0.000233353
2 *3270:L_HI 0.000233353
3 *3269:RESET_B *1183:31 2.21754e-05
4 *3269:RESET_B *1186:25 0
*RES
1 *3270:L_HI *3269:RESET_B 42.1836 
*END

*D_NET *1003 0.00061814
*CONN
*I *3213:RESET_B I *D sg13g2_dfrbpq_1
*I *3214:L_HI O *D sg13g2_tiehi
*CAP
1 *3213:RESET_B 0.000268946
2 *3214:L_HI 0.000268946
3 *358:18 *3213:RESET_B 0
4 *362:22 *3213:RESET_B 0
5 *362:32 *3213:RESET_B 8.02485e-05
*RES
1 *3214:L_HI *3213:RESET_B 42.5286 
*END

*D_NET *1004 0.000518739
*CONN
*I *3317:RESET_B I *D sg13g2_dfrbpq_1
*I *3318:L_HI O *D sg13g2_tiehi
*CAP
1 *3317:RESET_B 0.000227798
2 *3318:L_HI 0.000227798
3 *3111:A2 *3317:RESET_B 4.77425e-05
4 *3116:D *3317:RESET_B 0
5 *591:10 *3317:RESET_B 0
6 *820:36 *3317:RESET_B 1.54008e-05
*RES
1 *3318:L_HI *3317:RESET_B 42.1836 
*END

*D_NET *1005 0.00044347
*CONN
*I *3211:RESET_B I *D sg13g2_dfrbpq_1
*I *3212:L_HI O *D sg13g2_tiehi
*CAP
1 *3211:RESET_B 0.000221735
2 *3212:L_HI 0.000221735
3 *3211:RESET_B *2671:A 0
4 *3211:RESET_B *3209:RESET_B 0
5 *362:22 *3211:RESET_B 0
*RES
1 *3212:L_HI *3211:RESET_B 42.1836 
*END

*D_NET *1006 0.000448995
*CONN
*I *3267:RESET_B I *D sg13g2_dfrbpq_1
*I *3268:L_HI O *D sg13g2_tiehi
*CAP
1 *3267:RESET_B 0.000216797
2 *3268:L_HI 0.000216797
3 *3267:CLK *3267:RESET_B 0
4 *375:12 *3267:RESET_B 0
5 *711:68 *3267:RESET_B 1.54008e-05
*RES
1 *3268:L_HI *3267:RESET_B 40.9524 
*END

*D_NET *1007 0.000564121
*CONN
*I *3209:RESET_B I *D sg13g2_dfrbpq_1
*I *3210:L_HI O *D sg13g2_tiehi
*CAP
1 *3209:RESET_B 0.000282061
2 *3210:L_HI 0.000282061
3 *3209:RESET_B *2671:A 0
4 *3209:RESET_B *1162:12 0
5 *3211:RESET_B *3209:RESET_B 0
6 *764:19 *3209:RESET_B 0
*RES
1 *3210:L_HI *3209:RESET_B 42.6162 
*END

*D_NET *1008 0.000419784
*CONN
*I *3295:RESET_B I *D sg13g2_dfrbpq_1
*I *3296:L_HI O *D sg13g2_tiehi
*CAP
1 *3295:RESET_B 0.000209892
2 *3296:L_HI 0.000209892
3 *3295:D *3295:RESET_B 0
*RES
1 *3296:L_HI *3295:RESET_B 42.1836 
*END

*D_NET *1009 0.000758354
*CONN
*I *3207:RESET_B I *D sg13g2_dfrbpq_1
*I *3208:L_HI O *D sg13g2_tiehi
*CAP
1 *3207:RESET_B 0.00024311
2 *3208:L_HI 0.00024311
3 *745:12 *3207:RESET_B 0
4 *822:36 *3207:RESET_B 0.000272135
*RES
1 *3208:L_HI *3207:RESET_B 42.6162 
*END

*D_NET *1010 0.00128731
*CONN
*I *3265:RESET_B I *D sg13g2_dfrbpq_1
*I *3266:L_HI O *D sg13g2_tiehi
*CAP
1 *3265:RESET_B 0.000389613
2 *3266:L_HI 0.000389613
3 *3265:RESET_B *1188:31 0.000176531
4 *3265:RESET_B *1191:20 0.000283753
5 *719:37 *3265:RESET_B 0
6 *823:91 *3265:RESET_B 4.78028e-05
*RES
1 *3266:L_HI *3265:RESET_B 44.017 
*END

*D_NET *1011 0.00230309
*CONN
*I *3205:RESET_B I *D sg13g2_dfrbpq_1
*I *3206:L_HI O *D sg13g2_tiehi
*CAP
1 *3205:RESET_B 0.000185526
2 *3206:L_HI 0.000271498
3 *1011:8 0.000457025
4 *3205:RESET_B *1178:31 0.000338306
5 *778:26 *1011:8 0
6 *824:46 *3205:RESET_B 0.000338306
7 *872:23 *1011:8 0.000712427
*RES
1 *3206:L_HI *1011:8 43.3166 
2 *1011:8 *3205:RESET_B 42.266 
*END

*D_NET *1012 0.00540728
*CONN
*I *3429:A I *D sg13g2_buf_1
*I *3581:X O *D sg13g2_buf_1
*CAP
1 *3429:A 0
2 *3581:X 0.000173138
3 *1012:32 0.000451385
4 *1012:18 0.00151597
5 *1012:8 0.00123773
6 *1012:18 *1023:8 0
7 *1012:18 *1157:14 0
8 *3110:B *1012:32 0.000208055
9 *3404:A *1012:32 0.000279394
10 *3424:A *1012:18 0
11 *353:8 *1012:18 0.000661801
12 *354:24 *1012:32 0
13 *355:12 *1012:18 0
14 *360:20 *1012:18 0.000208683
15 *360:20 *1012:32 0
16 *680:10 *1012:18 0
17 *803:37 *1012:32 0.000175513
18 *862:100 *1012:32 0.00018387
19 *866:18 *1012:32 4.77425e-05
20 *873:26 *1012:18 8.01776e-05
21 *873:26 *1012:32 0.000183828
*RES
1 *3581:X *1012:8 41.8334 
2 *1012:8 *1012:18 33.2355 
3 *1012:18 *1012:32 45.4281 
4 *1012:32 *3429:A 20 
*END

*D_NET *1013 0.000334181
*CONN
*I *3309:RESET_B I *D sg13g2_dfrbpq_1
*I *3310:L_HI O *D sg13g2_tiehi
*CAP
1 *3309:RESET_B 0.00016709
2 *3310:L_HI 0.00016709
3 *3309:D *3309:RESET_B 0
4 *890:30 *3309:RESET_B 0
*RES
1 *3310:L_HI *3309:RESET_B 41.3758 
*END

*D_NET *1014 0.000540799
*CONN
*I *3203:RESET_B I *D sg13g2_dfrbpq_1
*I *3204:L_HI O *D sg13g2_tiehi
*CAP
1 *3203:RESET_B 0.000270399
2 *3204:L_HI 0.000270399
3 *3203:RESET_B *1187:43 0
4 *2879:B *3203:RESET_B 0
5 *697:278 *3203:RESET_B 0
*RES
1 *3204:L_HI *3203:RESET_B 42.6162 
*END

*D_NET *1015 0.000474684
*CONN
*I *3263:RESET_B I *D sg13g2_dfrbpq_1
*I *3264:L_HI O *D sg13g2_tiehi
*CAP
1 *3263:RESET_B 0.000237342
2 *3264:L_HI 0.000237342
3 *3263:RESET_B *1183:31 0
4 *3263:RESET_B *1186:25 0
*RES
1 *3264:L_HI *3263:RESET_B 42.1836 
*END

*D_NET *1016 0.00199194
*CONN
*I *3201:RESET_B I *D sg13g2_dfrbpq_1
*I *3202:L_HI O *D sg13g2_tiehi
*CAP
1 *3201:RESET_B 0.000213348
2 *3202:L_HI 0.000228707
3 *1016:10 0.000442055
4 *3201:RESET_B *1178:39 0
5 *1016:10 *1170:35 0.00034162
6 *701:38 *1016:10 0
7 *751:33 *3201:RESET_B 0
8 *769:37 *1016:10 0.000766205
*RES
1 *3202:L_HI *1016:10 43.8831 
2 *1016:10 *3201:RESET_B 42.0497 
*END

*D_NET *1017 0.000824211
*CONN
*I *3293:RESET_B I *D sg13g2_dfrbpq_1
*I *3294:L_HI O *D sg13g2_tiehi
*CAP
1 *3293:RESET_B 0.00023495
2 *3294:L_HI 0.00023495
3 *710:40 *3293:RESET_B 1.54008e-05
4 *748:23 *3293:RESET_B 0.000338911
5 *753:18 *3293:RESET_B 0
*RES
1 *3294:L_HI *3293:RESET_B 42.6162 
*END

*D_NET *1018 0.000417439
*CONN
*I *3199:RESET_B I *D sg13g2_dfrbpq_1
*I *3200:L_HI O *D sg13g2_tiehi
*CAP
1 *3199:RESET_B 0.00020872
2 *3200:L_HI 0.00020872
3 *744:35 *3199:RESET_B 0
4 *747:36 *3199:RESET_B 0
*RES
1 *3200:L_HI *3199:RESET_B 42.1836 
*END

*D_NET *1019 0.00127443
*CONN
*I *3261:RESET_B I *D sg13g2_dfrbpq_1
*I *3262:L_HI O *D sg13g2_tiehi
*CAP
1 *3261:RESET_B 0.000370286
2 *3262:L_HI 0.000370286
3 *3261:RESET_B *1186:25 0
4 *375:12 *3261:RESET_B 0.00053386
*RES
1 *3262:L_HI *3261:RESET_B 44.1612 
*END

*D_NET *1020 0.00136979
*CONN
*I *3197:RESET_B I *D sg13g2_dfrbpq_1
*I *3198:L_HI O *D sg13g2_tiehi
*CAP
1 *3197:RESET_B 0.000254322
2 *3198:L_HI 0.000430572
3 *1020:8 0.000684894
4 *3197:RESET_B *1178:31 0
5 *3197:RESET_B *1179:32 0
6 *285:10 *1020:8 0
7 *508:10 *1020:8 0
*RES
1 *3198:L_HI *1020:8 43.5638 
2 *1020:8 *3197:RESET_B 42.266 
*END

*D_NET *1021 0.000541405
*CONN
*I *3121:RESET_B I *D sg13g2_dfrbpq_1
*I *3122:L_HI O *D sg13g2_tiehi
*CAP
1 *3121:RESET_B 0.000250682
2 *3122:L_HI 0.000250682
3 *3121:RESET_B *1186:39 0
4 *2846:C *3121:RESET_B 0
5 *2847:B *3121:RESET_B 2.46413e-05
6 *3121:D *3121:RESET_B 0
7 *702:61 *3121:RESET_B 0
8 *702:69 *3121:RESET_B 1.54008e-05
9 *763:32 *3121:RESET_B 0
*RES
1 *3122:L_HI *3121:RESET_B 42.7192 
*END

*D_NET *1022 0.00251372
*CONN
*I *3554:A I *D sg13g2_buf_1
*I *3448:X O *D sg13g2_dlygate4sd3_1
*CAP
1 *3554:A 6.28628e-05
2 *3448:X 0.0002559
3 *1022:10 0.000318763
4 *3554:A *3574:A 0
5 *1022:10 *1063:20 0.00076307
6 *1022:10 *1078:28 0.000758982
7 *2735:A2 *1022:10 0.000177071
8 *398:8 *1022:10 0.000177071
*RES
1 *3448:X *1022:10 44.7483 
2 *1022:10 *3554:A 40.5356 
*END

*D_NET *1023 0.0199632
*CONN
*I *3423:A I *D sg13g2_buf_1
*I *3020:A I *D sg13g2_nor3_1
*I *3582:X O *D sg13g2_buf_1
*CAP
1 *3423:A 9.41129e-05
2 *3020:A 0
3 *3582:X 0.000639289
4 *1023:32 0.00193358
5 *1023:18 0.00332753
6 *1023:12 0.00173815
7 *1023:8 0.000889371
8 *1023:12 *1057:12 0
9 *1023:12 *1157:14 0
10 *1023:18 *1079:24 0
11 *1023:18 *1141:14 0.0038331
12 *1023:18 *1156:10 0
13 *1023:18 *1156:16 0
14 *1023:18 *1157:14 0
15 *1023:18 *1158:14 0
16 *1023:18 *1163:16 0
17 *1023:32 *3593:A 0
18 *1023:32 *1079:24 0
19 *1023:32 *1112:16 0
20 *1023:32 *1123:10 0.000207854
21 *1023:32 *1127:10 0.000304879
22 *1023:32 *1136:10 0.000337906
23 *2706:A *1023:12 0
24 *2706:A *1023:18 0.000126354
25 *2902:D *1023:32 8.00842e-05
26 *3409:A *1023:32 0.000139675
27 *3414:A *3423:A 0.000161352
28 *3414:A *1023:12 7.89542e-05
29 *294:12 *1023:32 0
30 *351:10 *3423:A 0.000176452
31 *351:10 *1023:12 0.000111296
32 *353:8 *1023:18 0
33 *358:8 *1023:32 0
34 *361:8 *1023:32 0.000234807
35 *370:10 *1023:32 0
36 *533:10 *1023:32 0
37 *821:88 *1023:32 0.00166293
38 *867:69 *1023:32 0.00023003
39 *873:26 *1023:18 0
40 *876:39 *1023:32 0.000258881
41 *885:33 *1023:18 0.00339658
42 *1012:18 *1023:8 0
*RES
1 *3582:X *1023:8 48.2606 
2 *1023:8 *1023:12 22.4823 
3 *1023:12 *1023:18 44.617 
4 *1023:18 *1023:32 41.8154 
5 *1023:32 *3020:A 20 
6 *1023:12 *3423:A 21.1845 
*END

*D_NET *1024 0.00232518
*CONN
*I *3574:A I *D sg13g2_buf_1
*I *3449:X O *D sg13g2_dlygate4sd3_1
*CAP
1 *3574:A 0.000913519
2 *3449:X 0.000913519
3 *3574:A *1059:10 0
4 *3574:A *1138:14 8.0057e-05
5 *2718:A2 *3574:A 0.000176235
6 *2718:B1 *3574:A 0
7 *2721:A1 *3574:A 0
8 *3454:A *3574:A 0
9 *3456:A *3574:A 0.000241847
10 *3554:A *3574:A 0
11 *399:22 *3574:A 0
12 *828:99 *3574:A 0
*RES
1 *3449:X *3574:A 48.652 
*END

*D_NET *1025 0.00203695
*CONN
*I *3584:A I *D sg13g2_buf_1
*I *3450:X O *D sg13g2_dlygate4sd3_1
*CAP
1 *3584:A 0
2 *3450:X 7.19718e-05
3 *1025:16 0.000705568
4 *1025:8 0.00077754
5 *1025:8 *1181:55 0
6 *1025:16 *1047:16 0
7 *1025:16 *1049:18 0.000402668
8 *1025:16 *1181:47 0
9 *727:14 *1025:16 0
10 *730:41 *1025:8 0
11 *756:34 *1025:16 0
12 *844:18 *1025:16 0
13 *850:54 *1025:16 7.91975e-05
14 *893:16 *1025:16 0
15 *946:14 *1025:16 0
*RES
1 *3450:X *1025:8 40.5974 
2 *1025:8 *1025:16 46.0247 
3 *1025:16 *3584:A 40 
*END

*D_NET *1026 0.000486137
*CONN
*I *3147:D I *D sg13g2_dfrbpq_1
*I *3451:X O *D sg13g2_dlygate4sd3_1
*CAP
1 *3147:D 0.000243069
2 *3451:X 0.000243069
3 *2769:A1 *3147:D 0
4 *731:25 *3147:D 0
*RES
1 *3451:X *3147:D 42.2145 
*END

*D_NET *1027 0.00108754
*CONN
*I *3585:A I *D sg13g2_buf_1
*I *3452:X O *D sg13g2_dlygate4sd3_1
*CAP
1 *3585:A 0.000543769
2 *3452:X 0.000543769
3 *3585:A *2853:B 0
4 s_axil_bvalid *3585:A 0
5 *3321:RESET_B *3585:A 0
6 *3578:A *3585:A 0
7 *171:10 *3585:A 0
8 *765:12 *3585:A 0
9 *765:27 *3585:A 0
*RES
1 *3452:X *3585:A 45.2942 
*END

*D_NET *1028 0.00195216
*CONN
*I *3321:D I *D sg13g2_dfrbpq_1
*I *3453:X O *D sg13g2_dlygate4sd3_1
*CAP
1 *3321:D 0
2 *3453:X 0.000551556
3 *1028:10 0.000551556
4 *241:12 *1028:10 0.000240405
5 *375:8 *1028:10 0
6 *709:50 *1028:10 0
7 *765:8 *1028:10 0
8 *765:20 *1028:10 0.000561128
9 *979:10 *1028:10 0
10 *982:12 *1028:10 4.75166e-05
*RES
1 *3453:X *1028:10 46.1697 
2 *1028:10 *3321:D 40 
*END

*D_NET *1029 0.00274958
*CONN
*I *3569:A I *D sg13g2_buf_1
*I *3454:X O *D sg13g2_dlygate4sd3_1
*CAP
1 *3569:A 0.000124025
2 *3454:X 0.000764448
3 *1029:8 0.000888474
4 *1029:8 *1030:10 0
5 *1029:8 *1041:12 0
6 *2725:A1 *1029:8 0.0007173
7 *249:10 *1029:8 0
8 *893:12 *3569:A 0.00025533
9 *934:10 *3569:A 0
*RES
1 *3454:X *1029:8 48.0134 
2 *1029:8 *3569:A 41.4008 
*END

*D_NET *1030 0.00193295
*CONN
*I *3566:A I *D sg13g2_buf_1
*I *3455:X O *D sg13g2_dlygate4sd3_1
*CAP
1 *3566:A 0
2 *3455:X 0.000660799
3 *1030:10 0.000660799
4 *2725:A1 *1030:10 0.000286322
5 *3125:D *1030:10 0.000143728
6 *399:22 *1030:10 0.000181298
7 *860:18 *1030:10 0
8 *1029:8 *1030:10 0
*RES
1 *3455:X *1030:10 45.9534 
2 *1030:10 *3566:A 40 
*END

*D_NET *1031 0.00124435
*CONN
*I *3551:A I *D sg13g2_buf_1
*I *3456:X O *D sg13g2_dlygate4sd3_1
*CAP
1 *3551:A 0.000446267
2 *3456:X 0.000446267
3 *3551:A *1078:28 0.000143771
4 *3125:RESET_B *3551:A 0
5 *3125:D *3551:A 0
6 *399:22 *3551:A 0
7 *749:8 *3551:A 0.000208048
*RES
1 *3456:X *3551:A 44.2951 
*END

*D_NET *1032 0.00854696
*CONN
*I *3560:A I *D sg13g2_buf_1
*I *3457:X O *D sg13g2_dlygate4sd3_1
*CAP
1 *3560:A 0
2 *3457:X 0.000471776
3 *1032:18 0.000827296
4 *1032:14 0.00117962
5 *1032:8 0.000824098
6 *1032:14 *1055:12 0.000630927
7 gpio_out[2] *1032:8 0.000755205
8 gpio_out[4] *1032:8 0.000143369
9 *97:34 *1032:8 0
10 *760:14 *1032:18 0
11 *761:23 *1032:14 0.000631062
12 *804:12 *1032:18 0
13 *829:10 *1032:18 0.000596637
14 *829:20 *1032:18 0.000809879
15 *830:35 *1032:18 0.000442627
16 *838:10 *1032:18 0.000390281
17 *845:25 *1032:18 0.000652857
18 *848:47 *1032:8 6.34632e-05
19 *848:55 *1032:8 4.76432e-05
20 *851:30 *1032:8 8.0216e-05
*RES
1 *3457:X *1032:8 45.0779 
2 *1032:8 *1032:14 44.2127 
3 *1032:14 *1032:18 30.2382 
4 *1032:18 *3560:A 20 
*END

*D_NET *1033 0.00174106
*CONN
*I *3173:D I *D sg13g2_dfrbpq_1
*I *3458:X O *D sg13g2_dlygate4sd3_1
*CAP
1 *3173:D 0.000129438
2 *3458:X 0.000236551
3 *1033:8 0.000365989
4 *1033:8 *1056:14 0.000653764
5 *1033:8 *1188:37 0.000179079
6 *470:10 *1033:8 0
7 *743:54 *3173:D 0.000176235
8 *933:10 *1033:8 0
*RES
1 *3458:X *1033:8 43.0694 
2 *1033:8 *3173:D 41.1845 
*END

*D_NET *1034 0.0174712
*CONN
*I *2848:B I *D sg13g2_nand2_1
*I *2850:D I *D sg13g2_nand4_1
*I *2852:A2 I *D sg13g2_a21o_1
*I *3583:X O *D sg13g2_buf_1
*CAP
1 *2848:B 0.000398957
2 *2850:D 0.000110609
3 *2852:A2 1.07941e-05
4 *3583:X 0.000623798
5 *1034:35 0.00072959
6 *1034:22 0.000230817
7 *1034:20 0.000462969
8 *1034:12 0.00275385
9 *1034:10 0.00291468
10 *2850:D *2850:C 7.68316e-05
11 *2850:D *3621:A 0.000176476
12 *2852:A2 *3609:A 1.69409e-05
13 *1034:10 *1057:12 0
14 *1034:10 *1099:12 0
15 *1034:10 *1103:10 0
16 *1034:10 *1125:12 0
17 *1034:10 *1153:14 0
18 *1034:10 *1157:14 0
19 *1034:12 *1099:12 0.000926952
20 *1034:12 *1165:18 0.00050196
21 *1034:12 *1166:22 0.00124648
22 *1034:20 *3608:A 0
23 *1034:20 *3609:A 0.000307226
24 *1034:35 *2852:A1 0.000176541
25 *1034:35 *3609:A 0.000226508
26 *2850:A *2850:D 0
27 *3524:A *1034:20 4.77425e-05
28 *3535:A *1034:20 0
29 *3544:A *1034:20 0
30 *213:9 *1034:12 0
31 *217:9 *1034:12 0.00103519
32 *221:9 *1034:12 0
33 *225:13 *1034:12 0.00140558
34 *227:9 *1034:12 0
35 *491:10 *2848:B 4.78359e-05
36 *491:22 *2848:B 0.000183878
37 *491:22 *1034:35 0.00039313
38 *709:42 *2848:B 0.000176608
39 *895:88 *1034:20 0.000288087
40 *895:102 *2848:B 0.000237694
41 *982:12 *2848:B 0.00029185
42 *990:14 *2848:B 0.00107793
43 *990:14 *1034:35 0.000393704
*RES
1 *3583:X *1034:10 47.3439 
2 *1034:10 *1034:12 30.7558 
3 *1034:12 *1034:20 45.1191 
4 *1034:20 *1034:22 20 
5 *1034:22 *2852:A2 20.1133 
6 *1034:22 *1034:35 23.4505 
7 *1034:35 *2850:D 41.1845 
8 *1034:35 *2848:B 46.2315 
*END

*D_NET *1035 0.00324779
*CONN
*I *3572:A I *D sg13g2_buf_1
*I *3459:X O *D sg13g2_dlygate4sd3_1
*CAP
1 *3572:A 0
2 *3459:X 0.000131997
3 *1035:14 0.00117981
4 *1035:8 0.0013118
5 *1035:8 *1049:10 0.000176946
6 *1035:14 *1080:10 0
7 *1035:14 *1181:55 0
8 *1035:14 *1182:8 0
9 *2725:A1 *1035:14 0
10 *2725:A2 *1035:14 0
11 *3448:A *1035:8 0
12 *399:22 *1035:14 0.000447239
13 *727:8 *1035:14 0
14 *839:87 *1035:14 0
15 *860:18 *1035:14 0
*RES
1 *3459:X *1035:8 41.4008 
2 *1035:8 *1035:14 31.021 
3 *1035:14 *3572:A 20 
*END

*D_NET *1036 0.000491017
*CONN
*I *3135:D I *D sg13g2_dfrbpq_1
*I *3460:X O *D sg13g2_dlygate4sd3_1
*CAP
1 *3135:D 0.000190088
2 *3460:X 0.000190088
3 *3135:D *3565:A 0
4 *3135:D *3568:A 1.54008e-05
5 *3135:RESET_B *3135:D 0
6 *3389:A *3135:D 4.78356e-05
7 *840:26 *3135:D 4.76053e-05
*RES
1 *3460:X *3135:D 41.7819 
*END

*D_NET *1037 0.00511843
*CONN
*I *3595:A I *D sg13g2_buf_1
*I *3461:X O *D sg13g2_dlygate4sd3_1
*CAP
1 *3595:A 0
2 *3461:X 0
3 *1037:10 0.00058769
4 *1037:6 0.00058769
5 *1037:10 *1067:16 0
6 *2735:A1 *1037:10 0.000866194
7 *715:10 *1037:10 0.00028743
8 *756:53 *1037:10 0.000916606
9 *912:16 *1037:10 0.00187282
10 *946:20 *1037:10 0
*RES
1 *3461:X *1037:6 40 
2 *1037:6 *1037:10 30.4854 
3 *1037:10 *3595:A 20 
*END

*D_NET *1038 0.000549416
*CONN
*I *3149:D I *D sg13g2_dfrbpq_1
*I *3462:X O *D sg13g2_dlygate4sd3_1
*CAP
1 *3149:D 0.000186736
2 *3462:X 0.000186736
3 *2773:A1 *3149:D 0.000175944
4 *435:10 *3149:D 0
5 *826:20 *3149:D 0
*RES
1 *3462:X *3149:D 42.0291 
*END

*D_NET *1039 0.00332841
*CONN
*I *3567:A I *D sg13g2_buf_1
*I *3463:X O *D sg13g2_dlygate4sd3_1
*CAP
1 *3567:A 0.000233897
2 *3463:X 0.000495414
3 *1039:16 0.00072931
4 *3567:A *3565:A 4.77425e-05
5 *3567:A *1060:12 0.000337136
6 *3567:A *1069:12 0
7 *1039:16 *1065:8 7.93167e-05
8 gpio_out[0] *1039:16 0.000433253
9 *413:16 *1039:16 0
10 *758:60 *1039:16 0.000499436
11 *851:42 *1039:16 0
12 *851:48 *3567:A 0
13 *851:48 *1039:16 0.000393683
14 *923:24 *1039:16 7.92265e-05
*RES
1 *3463:X *1039:16 46.2624 
2 *1039:16 *3567:A 42.266 
*END

*D_NET *1040 0.00049842
*CONN
*I *3183:D I *D sg13g2_dfrbpq_1
*I *3464:X O *D sg13g2_dlygate4sd3_1
*CAP
1 *3183:D 0.000209434
2 *3464:X 0.000209434
3 *3183:D *3715:A 0
4 *3183:D *1173:58 0
5 *2841:A1 *3183:D 0
6 *2841:B1 *3183:D 7.95529e-05
7 *3183:RESET_B *3183:D 0
*RES
1 *3464:X *3183:D 42.1321 
*END

*D_NET *1041 0.00497878
*CONN
*I *3617:A I *D sg13g2_buf_1
*I *3465:X O *D sg13g2_dlygate4sd3_1
*CAP
1 *3617:A 0
2 *3465:X 0
3 *1041:12 0.000613232
4 *1041:6 0.000613232
5 *1041:12 *1067:16 4.76034e-05
6 *1041:12 *1080:10 0.00190711
7 *727:8 *1041:12 0.0017976
8 *1029:8 *1041:12 0
*RES
1 *3465:X *1041:6 40 
2 *1041:6 *1041:12 31.0519 
3 *1041:12 *3617:A 20 
*END

*D_NET *1042 0.000616664
*CONN
*I *2781:A2 I *D sg13g2_a21oi_1
*I *3466:X O *D sg13g2_dlygate4sd3_1
*CAP
1 *2781:A2 0.000180723
2 *3466:X 0.000180723
3 *2781:A1 *2781:A2 4.75265e-05
4 *3153:RESET_B *2781:A2 0
5 *744:47 *2781:A2 0.000207692
6 *846:24 *2781:A2 0
*RES
1 *3466:X *2781:A2 41.9982 
*END

*D_NET *1043 0.000685767
*CONN
*I *3153:D I *D sg13g2_dfrbpq_1
*I *3467:X O *D sg13g2_dlygate4sd3_1
*CAP
1 *3153:D 0.000222734
2 *3467:X 0.000222734
3 *3153:RESET_B *3153:D 0.000240299
4 *744:47 *3153:D 0
*RES
1 *3467:X *3153:D 42.4617 
*END

*D_NET *1044 0.00395199
*CONN
*I *3573:A I *D sg13g2_buf_1
*I *3468:X O *D sg13g2_dlygate4sd3_1
*CAP
1 *3573:A 3.13139e-05
2 *3468:X 0.000549164
3 *1044:8 0.000580478
4 *1044:8 *1080:10 0.00142129
5 *923:24 *1044:8 0.00136974
*RES
1 *3468:X *1044:8 49.4966 
2 *1044:8 *3573:A 40.3193 
*END

*D_NET *1045 0.00221296
*CONN
*I *2767:B2 I *D sg13g2_a22oi_1
*I *3584:X O *D sg13g2_buf_1
*CAP
1 *2767:B2 0
2 *3584:X 0.000761612
3 *1045:10 0.000761612
4 *1045:10 *3575:A 4.75613e-05
5 *1045:10 *1182:12 0
6 *3129:D *1045:10 0.000224588
7 *699:22 *1045:10 0
8 *730:26 *1045:10 0
9 *757:41 *1045:10 0.000273328
10 *757:51 *1045:10 0
11 *946:8 *1045:10 0.000144261
*RES
1 *3584:X *1045:10 47.0967 
2 *1045:10 *2767:B2 40 
*END

*D_NET *1046 0.000202398
*CONN
*I *2853:B I *D sg13g2_nand2_1
*I *3585:X O *D sg13g2_buf_1
*CAP
1 *2853:B 0.000101199
2 *3585:X 0.000101199
3 *3585:A *2853:B 0
4 *765:27 *2853:B 0
*RES
1 *3585:X *2853:B 41.133 
*END

*D_NET *1047 0.00320604
*CONN
*I *3606:A I *D sg13g2_buf_1
*I *3469:X O *D sg13g2_dlygate4sd3_1
*CAP
1 *3606:A 0
2 *3469:X 0.000210424
3 *1047:16 0.000458492
4 *1047:10 0.000668915
5 *1047:10 *3552:A 0.000111326
6 *1047:10 *1076:16 0
7 *1047:16 *1181:47 0
8 *749:20 *1047:10 0.000660857
9 *946:14 *1047:16 0.000437585
10 *946:20 *1047:10 0.000658438
11 *1025:16 *1047:16 0
*RES
1 *3469:X *1047:10 43.8213 
2 *1047:10 *1047:16 44.6453 
3 *1047:16 *3606:A 40 
*END

*D_NET *1048 0.000655457
*CONN
*I *3151:D I *D sg13g2_dfrbpq_1
*I *3470:X O *D sg13g2_dlygate4sd3_1
*CAP
1 *3151:D 0.000156762
2 *3470:X 0.000156762
3 *733:31 *3151:D 0.000164539
4 *758:46 *3151:D 0.000177394
*RES
1 *3470:X *3151:D 41.7819 
*END

*D_NET *1049 0.0036242
*CONN
*I *3575:A I *D sg13g2_buf_1
*I *3471:X O *D sg13g2_dlygate4sd3_1
*CAP
1 *3575:A 2.5659e-05
2 *3471:X 0.000457904
3 *1049:18 0.000565321
4 *1049:10 0.000997566
5 *1049:10 *3562:A 0
6 *1049:10 *1063:14 0.000112388
7 *1049:10 *1063:20 2.14736e-05
8 *3448:A *1049:10 0
9 *730:26 *3575:A 4.75613e-05
10 *730:41 *1049:10 0.00069402
11 *756:34 *1049:18 0
12 *844:18 *1049:18 0
13 *909:14 *1049:18 7.51285e-05
14 *1025:16 *1049:18 0.000402668
15 *1035:8 *1049:10 0.000176946
16 *1045:10 *3575:A 4.75613e-05
*RES
1 *3471:X *1049:10 44.9955 
2 *1049:10 *1049:18 45.4899 
3 *1049:18 *3575:A 40.3193 
*END

*D_NET *1050 0.00061097
*CONN
*I *3139:D I *D sg13g2_dfrbpq_1
*I *3472:X O *D sg13g2_dlygate4sd3_1
*CAP
1 *3139:D 0.000241176
2 *3472:X 0.000241176
3 *2753:A1 *3139:D 0
4 *2753:A2 *3139:D 0
5 *3139:RESET_B *3139:D 0.000128618
6 *759:49 *3139:D 0
*RES
1 *3472:X *3139:D 42.6265 
*END

*D_NET *1051 0.00368372
*CONN
*I *3625:A I *D sg13g2_buf_1
*I *3473:X O *D sg13g2_dlygate4sd3_1
*CAP
1 *3625:A 0.000704045
2 *3473:X 0.00033433
3 *1051:12 0.00103837
4 *3625:A *1168:12 0
5 *1051:12 *2698:A 0
6 s_axil_bresp[0] *3625:A 0.00108271
7 s_axil_bresp[0] *1051:12 0
8 *3120:C *3625:A 0.000242203
9 *3323:A *3625:A 0
10 *241:12 *1051:12 0
11 *282:12 *3625:A 0
12 *282:12 *1051:12 0.000234311
13 *375:8 *1051:12 4.77425e-05
*RES
1 *3473:X *1051:12 43.4917 
2 *1051:12 *3625:A 47.8383 
*END

*D_NET *1052 0.00109078
*CONN
*I *2854:A I *D sg13g2_and3_1
*I *3474:X O *D sg13g2_dlygate4sd3_1
*CAP
1 *2854:A 0.000326326
2 *3474:X 0.000326326
3 *2854:A *1168:12 0
4 *2854:C *2854:A 0.000144635
5 *3120:A *2854:A 0
6 *282:12 *2854:A 0
7 *347:10 *2854:A 0.000112638
8 *491:37 *2854:A 4.78556e-05
9 *714:16 *2854:A 0
10 *895:94 *2854:A 0.000133005
*RES
1 *3474:X *2854:A 43.5329 
*END

*D_NET *1053 0.00281763
*CONN
*I *3552:A I *D sg13g2_buf_1
*I *3475:X O *D sg13g2_dlygate4sd3_1
*CAP
1 *3552:A 0.00107642
2 *3475:X 0.000156373
3 *1053:8 0.00123279
4 *3552:A *2770:A1 0
5 *3552:A *1058:22 0
6 *3552:A *1076:16 0
7 *2770:A2 *3552:A 0
8 *3461:A *3552:A 0
9 *3493:A *3552:A 0
10 *3496:A *3552:A 0.000240728
11 *844:77 *3552:A 0
12 *845:31 *3552:A 0
13 *1047:10 *3552:A 0.000111326
*RES
1 *3475:X *1053:8 41.339 
2 *1053:8 *3552:A 49.6742 
*END

*D_NET *1054 0.000383731
*CONN
*I *3159:D I *D sg13g2_dfrbpq_1
*I *3476:X O *D sg13g2_dlygate4sd3_1
*CAP
1 *3159:D 0.000151891
2 *3476:X 0.000151891
3 *3159:D *1185:28 0
4 *743:29 *3159:D 7.99485e-05
*RES
1 *3476:X *3159:D 41.1845 
*END

*D_NET *1055 0.00376578
*CONN
*I *3564:A I *D sg13g2_buf_1
*I *3477:X O *D sg13g2_dlygate4sd3_1
*CAP
1 *3564:A 0
2 *3477:X 0.000330589
3 *1055:18 2.60565e-05
4 *1055:12 0.00118909
5 *1055:8 0.00149363
6 *1055:12 *1065:16 0
7 *2834:A1 *1055:18 4.77425e-05
8 *53:9 *1055:8 0
9 *79:18 *1055:12 0
10 *419:16 *1055:12 0
11 *730:41 *1055:8 0
12 *731:50 *1055:12 0
13 *759:49 *1055:18 4.77425e-05
14 *761:23 *1055:12 0
15 *957:16 *1055:12 0
16 *1032:14 *1055:12 0.000630927
*RES
1 *3477:X *1055:8 42.575 
2 *1055:8 *1055:12 31.1343 
3 *1055:12 *1055:18 40.3193 
4 *1055:18 *3564:A 20 
*END

*D_NET *1056 0.00495694
*CONN
*I *2833:A1 I *D sg13g2_a21oi_1
*I *3478:X O *D sg13g2_dlygate4sd3_1
*CAP
1 *2833:A1 0
2 *3478:X 0.00028938
3 *1056:14 0.000914916
4 *1056:8 0.0012043
5 *1056:14 *1188:37 0
6 *3654:A *1056:8 0
7 *425:14 *1056:14 0.000658111
8 *481:24 *1056:14 0
9 *737:48 *1056:8 0
10 *750:34 *1056:14 0.00123648
11 *853:42 *1056:14 0
12 *1033:8 *1056:14 0.000653764
*RES
1 *3478:X *1056:8 42.266 
2 *1056:8 *1056:14 30.7429 
3 *1056:14 *2833:A1 20 
*END

*D_NET *1057 0.00567114
*CONN
*I *2678:A I *D sg13g2_inv_1
*I *3586:X O *D sg13g2_buf_1
*CAP
1 *2678:A 0
2 *3586:X 0
3 *1057:12 0.00114086
4 *1057:6 0.00114086
5 *1057:12 *1153:14 0.00338942
6 *1057:12 *1157:14 0
7 *1023:12 *1057:12 0
8 *1034:10 *1057:12 0
*RES
1 *3586:X *1057:6 40 
2 *1057:6 *1057:12 38.0353 
3 *1057:12 *2678:A 20 
*END

*D_NET *1058 0.00487979
*CONN
*I *3557:A I *D sg13g2_buf_1
*I *3479:X O *D sg13g2_dlygate4sd3_1
*CAP
1 *3557:A 0
2 *3479:X 0.00153454
3 *1058:28 0.000131326
4 *1058:22 0.00166587
5 *1058:22 *2770:A1 0
6 *1058:22 *1075:12 0
7 *2730:B1 *1058:22 0
8 *3137:RESET_B *1058:22 0
9 *3137:D *1058:22 0.000661851
10 *3461:A *1058:22 0
11 *3469:A *1058:22 0
12 *3488:A *1058:22 0.00010152
13 *3552:A *1058:22 0
14 *699:12 *1058:28 0.000394652
15 *699:92 *1058:28 7.52158e-05
16 *720:41 *1058:22 0
17 *740:52 *1058:28 0
18 *829:35 *1058:22 0
19 *850:14 *1058:22 8.00842e-05
20 *901:85 *1058:22 0
21 *963:8 *1058:28 0.000234727
*RES
1 *3479:X *1058:22 34.0234 
2 *1058:22 *1058:28 42.0806 
3 *1058:28 *3557:A 20 
*END

*D_NET *1059 0.00168251
*CONN
*I *3570:A I *D sg13g2_buf_1
*I *3480:X O *D sg13g2_dlygate4sd3_1
*CAP
1 *3570:A 0
2 *3480:X 0.000841256
3 *1059:10 0.000841256
4 *3574:A *1059:10 0
5 *398:8 *1059:10 0
6 *778:10 *1059:10 0
7 *828:99 *1059:10 0
8 *860:18 *1059:10 0
9 *904:8 *1059:10 0
*RES
1 *3480:X *1059:10 46.9113 
2 *1059:10 *3570:A 40 
*END

*D_NET *1060 0.00450875
*CONN
*I *3561:A I *D sg13g2_buf_1
*I *3481:X O *D sg13g2_dlygate4sd3_1
*CAP
1 *3561:A 0.000298183
2 *3481:X 0.000704557
3 *1060:12 0.00100274
4 *3561:A *1075:12 4.77425e-05
5 *1060:12 *3565:A 0.000121449
6 *1060:12 *1065:24 0
7 *1060:12 *1069:12 0
8 *3389:A *1060:12 0
9 *3567:A *1060:12 0.000337136
10 *413:16 *1060:12 0
11 *757:77 *1060:12 0
12 *804:12 *3561:A 0.00075075
13 *815:8 *3561:A 4.77425e-05
14 *826:14 *3561:A 0.000749334
15 *845:8 *1060:12 4.71556e-05
16 *871:8 *1060:12 0.000401959
*RES
1 *3481:X *1060:12 47.0452 
2 *1060:12 *3561:A 44.6659 
*END

*D_NET *1061 0.00421311
*CONN
*I *3559:A I *D sg13g2_buf_1
*I *3482:X O *D sg13g2_dlygate4sd3_1
*CAP
1 *3559:A 0
2 *3482:X 0.000114679
3 *1061:18 0.000798688
4 *1061:10 0.000913367
5 *1061:10 *1069:12 0.000144783
6 *3498:A *1061:10 7.9808e-05
7 *48:9 *1061:10 0
8 *733:35 *1061:18 0.000755989
9 *733:52 *1061:18 0.000537257
10 *758:56 *1061:18 0
11 *782:10 *1061:18 7.55825e-05
12 *833:112 *1061:18 0
13 *840:47 *1061:18 0.000792961
*RES
1 *3482:X *1061:10 41.3184 
2 *1061:10 *1061:18 48.8889 
3 *1061:18 *3559:A 40 
*END

*D_NET *1062 0.00457353
*CONN
*I *3571:A I *D sg13g2_buf_1
*I *3483:X O *D sg13g2_dlygate4sd3_1
*CAP
1 *3571:A 0.000256783
2 *3483:X 0.000471163
3 *1062:8 0.000727946
4 *3571:A *1078:28 0
5 *3571:A *1182:8 0
6 *1062:8 *1063:20 0
7 *1062:8 *1067:16 0.00193135
8 *1062:8 *1138:14 0.00118629
*RES
1 *3483:X *1062:8 49.0022 
2 *1062:8 *3571:A 42.4823 
*END

*D_NET *1063 0.00766771
*CONN
*I *3576:A I *D sg13g2_buf_1
*I *3484:X O *D sg13g2_dlygate4sd3_1
*CAP
1 *3576:A 0
2 *3484:X 6.3874e-05
3 *1063:20 0.00129583
4 *1063:14 0.00139227
5 *1063:8 0.000160309
6 *1063:8 *1067:16 0.000284403
7 *1063:8 *1138:14 0.000284403
8 *1063:14 *3562:A 0
9 *1063:20 *1067:16 0.000658406
10 *1063:20 *1078:28 0.000655625
11 *1063:20 *1138:14 0
12 *1063:20 *1182:8 0.000819187
13 *2718:A2 *1063:20 0.000340656
14 *399:14 *1063:20 0.000128662
15 *844:29 *1063:20 0.000318191
16 *844:31 *1063:20 0.000368967
17 *934:18 *1063:20 0
18 *1022:10 *1063:20 0.00076307
19 *1049:10 *1063:14 0.000112388
20 *1049:10 *1063:20 2.14736e-05
21 *1062:8 *1063:20 0
*RES
1 *3484:X *1063:8 41.339 
2 *1063:8 *1063:14 40.9682 
3 *1063:14 *1063:20 36.9847 
4 *1063:20 *3576:A 20 
*END

*D_NET *1064 0.000519289
*CONN
*I *3141:D I *D sg13g2_dfrbpq_1
*I *3485:X O *D sg13g2_dlygate4sd3_1
*CAP
1 *3141:D 0.000259645
2 *3485:X 0.000259645
3 *2757:B1 *3141:D 0
4 *741:32 *3141:D 0
*RES
1 *3485:X *3141:D 42.3175 
*END

*D_NET *1065 0.00465346
*CONN
*I *3568:A I *D sg13g2_buf_1
*I *3486:X O *D sg13g2_dlygate4sd3_1
*CAP
1 *3568:A 0.000275726
2 *3486:X 5.89121e-05
3 *1065:24 0.000757696
4 *1065:16 0.000992107
5 *1065:8 0.000569049
6 *3568:A *3565:A 0
7 *3135:RESET_B *1065:24 0.000207854
8 *3135:D *3568:A 1.54008e-05
9 *3389:A *1065:24 0
10 *95:12 *1065:16 0
11 *413:16 *1065:24 0.000111547
12 *419:16 *1065:16 0
13 *460:20 *1065:24 0.000232421
14 *752:43 *1065:16 0
15 *756:53 *1065:16 0
16 *759:71 *1065:16 0.000232389
17 *829:10 *1065:24 0.000176274
18 *830:29 *1065:24 0.000207854
19 *830:42 *1065:24 0.000290167
20 *830:54 *1065:16 0
21 *840:26 *3568:A 0.000304989
22 *840:26 *1065:24 0.000126358
23 *923:24 *1065:8 1.54008e-05
24 *1039:16 *1065:8 7.93167e-05
25 *1055:12 *1065:16 0
26 *1060:12 *1065:24 0
*RES
1 *3486:X *1065:8 40.5356 
2 *1065:8 *1065:16 45.0882 
3 *1065:16 *1065:24 45.5208 
4 *1065:24 *3568:A 42.4823 
*END

*D_NET *1066 0.000927157
*CONN
*I *3185:D I *D sg13g2_dfrbpq_1
*I *3487:X O *D sg13g2_dlygate4sd3_1
*CAP
1 *3185:D 0.000364465
2 *3487:X 0.000364465
3 *3185:D *3177:D 0
4 *3185:D *1190:50 0
5 *2829:B1 *3185:D 2.21754e-05
6 *2845:A1 *3185:D 0
7 *3185:RESET_B *3185:D 0
8 *3487:A *3185:D 0
9 *3492:A *3185:D 0.00017605
10 *275:10 *3185:D 0
11 *843:127 *3185:D 0
*RES
1 *3487:X *3185:D 43.8316 
*END

*D_NET *1067 0.00965921
*CONN
*I *3627:A I *D sg13g2_buf_1
*I *3488:X O *D sg13g2_dlygate4sd3_1
*CAP
1 *3627:A 0
2 *3488:X 2.41961e-05
3 *1067:16 0.00184782
4 *1067:8 0.00187202
5 *1067:16 *2770:A1 0
6 *1067:16 *1138:14 0
7 *1067:16 *1182:8 0
8 *2735:A1 *1067:16 0.000866608
9 *715:10 *1067:16 0.000607785
10 *756:53 *1067:16 0.00137541
11 *860:8 *1067:16 0.000143608
12 *923:10 *1067:16 0
13 *934:10 *1067:16 0
14 *934:18 *1067:16 0
15 *1037:10 *1067:16 0
16 *1041:12 *1067:16 4.76034e-05
17 *1062:8 *1067:16 0.00193135
18 *1063:8 *1067:16 0.000284403
19 *1063:20 *1067:16 0.000658406
*RES
1 *3488:X *1067:8 40.3193 
2 *1067:8 *1067:16 44.411 
3 *1067:16 *3627:A 20 
*END

*D_NET *1068 0.00296072
*CONN
*I *2684:A I *D sg13g2_inv_1
*I *3587:X O *D sg13g2_buf_1
*CAP
1 *2684:A 2.96211e-05
2 *3587:X 2.08029e-05
3 *1068:16 0.000719064
4 *1068:8 0.000710246
5 *1068:16 *1079:18 0.000551316
6 *294:12 *2684:A 4.77425e-05
7 *294:12 *1068:16 7.48842e-05
8 *356:8 *1068:8 7.30101e-05
9 *533:10 *1068:16 0.000661019
10 *861:38 *1068:8 7.30101e-05
*RES
1 *3587:X *1068:8 40.3502 
2 *1068:8 *1068:16 47.622 
3 *1068:16 *2684:A 40.3193 
*END

*D_NET *1069 0.00454543
*CONN
*I *3565:A I *D sg13g2_buf_1
*I *3489:X O *D sg13g2_dlygate4sd3_1
*CAP
1 *3565:A 0.0010014
2 *3489:X 0.000707128
3 *1069:12 0.00170853
4 *2742:A2 *3565:A 0
5 *2745:A1 *3565:A 0.000208025
6 *3135:D *3565:A 0
7 *3482:A *1069:12 0
8 *3498:A *1069:12 0
9 *3567:A *3565:A 4.77425e-05
10 *3567:A *1069:12 0
11 *3568:A *3565:A 0
12 *48:9 *1069:12 0
13 *49:13 *1069:12 0
14 *416:10 *3565:A 0
15 *724:18 *1069:12 7.30101e-05
16 *756:53 *1069:12 0
17 *758:46 *3565:A 0
18 *833:124 *3565:A 0
19 *840:47 *1069:12 7.44237e-05
20 *845:8 *3565:A 4.71556e-05
21 *851:48 *3565:A 8.00842e-05
22 *851:48 *1069:12 0
23 *851:58 *3565:A 4.77425e-05
24 *901:85 *3565:A 0
25 *946:20 *1069:12 0.000283963
26 *1060:12 *3565:A 0.000121449
27 *1060:12 *1069:12 0
28 *1061:10 *1069:12 0.000144783
*RES
1 *3489:X *1069:12 46.7671 
2 *1069:12 *3565:A 49.0599 
*END

*D_NET *1070 0.00536959
*CONN
*I *2837:A1 I *D sg13g2_a21oi_1
*I *3490:X O *D sg13g2_dlygate4sd3_1
*CAP
1 *2837:A1 0
2 *3490:X 0
3 *1070:14 0.00142929
4 *1070:6 0.00142929
5 *1070:14 *3714:A 0
6 *1070:14 *1172:69 0.000234224
7 *2837:B1 *1070:14 0
8 *3181:CLK *1070:14 2.22695e-05
9 *473:14 *1070:14 0
10 *486:12 *1070:14 0
11 *703:44 *1070:14 0.00150874
12 *746:39 *1070:14 0
13 *754:62 *1070:14 0.000335652
14 *853:10 *1070:14 0.000284793
15 *853:12 *1070:14 0.000125347
16 *907:65 *1070:14 0
*RES
1 *3490:X *1070:6 40 
2 *1070:6 *1070:14 34.9247 
3 *1070:14 *2837:A1 20 
*END

*D_NET *1071 0.00481007
*CONN
*I *3563:A I *D sg13g2_buf_1
*I *3491:X O *D sg13g2_dlygate4sd3_1
*CAP
1 *3563:A 0.000174667
2 *3491:X 0.000682586
3 *1071:18 0.000596306
4 *1071:10 0.00110423
5 *3563:A *1075:12 0
6 *1071:10 *1075:12 0.000693956
7 *1071:18 *1171:10 0.000180459
8 *2806:A1 *3563:A 0.000212466
9 *3488:A *1071:10 0
10 *3498:A *1071:10 0
11 *48:9 *1071:10 0.000369782
12 *416:10 *1071:10 0
13 *437:14 *1071:18 0.000373466
14 *437:18 *3563:A 0
15 *699:92 *1071:18 0
16 *733:41 *1071:10 0
17 *759:71 *1071:10 0
18 *815:14 *1071:18 0.000240887
19 *851:58 *1071:18 0
20 *851:66 *1071:18 0
21 *901:85 *1071:18 0.000181267
*RES
1 *3491:X *1071:10 47.6838 
2 *1071:10 *1071:18 44.4084 
3 *1071:18 *3563:A 41.854 
*END

*D_NET *1072 0.00113058
*CONN
*I *3177:D I *D sg13g2_dfrbpq_1
*I *3492:X O *D sg13g2_dlygate4sd3_1
*CAP
1 *3177:D 0.000509659
2 *3492:X 0.000509659
3 *2829:B1 *3177:D 0
4 *2844:B1 *3177:D 0
5 *3185:RESET_B *3177:D 0
6 *3185:D *3177:D 0
7 *3492:A *3177:D 0.000111263
8 *843:127 *3177:D 0
*RES
1 *3492:X *3177:D 45.15 
*END

*D_NET *1073 0.00280634
*CONN
*I *3562:A I *D sg13g2_buf_1
*I *3493:X O *D sg13g2_dlygate4sd3_1
*CAP
1 *3562:A 0.000586261
2 *3493:X 0.000279527
3 *1073:8 0.000865788
4 *3448:A *3562:A 0.000241341
5 *428:10 *3562:A 0
6 *727:24 *1073:8 0.000657328
7 *749:20 *1073:8 0
8 *752:29 *3562:A 0.000176099
9 *826:8 *3562:A 0
10 *844:18 *3562:A 0
11 *860:18 *3562:A 0
12 *909:14 *3562:A 0
13 *934:18 *3562:A 0
14 *1049:10 *3562:A 0
15 *1063:14 *3562:A 0
*RES
1 *3493:X *1073:8 43.0694 
2 *1073:8 *3562:A 45.6444 
*END

*D_NET *1074 0.000280026
*CONN
*I *3143:D I *D sg13g2_dfrbpq_1
*I *3494:X O *D sg13g2_dlygate4sd3_1
*CAP
1 *3143:D 0.000140013
2 *3494:X 0.000140013
3 *258:10 *3143:D 0
4 *425:14 *3143:D 0
5 *753:18 *3143:D 0
*RES
1 *3494:X *3143:D 41.1845 
*END

*D_NET *1075 0.00311276
*CONN
*I *3558:A I *D sg13g2_buf_1
*I *3495:X O *D sg13g2_dlygate4sd3_1
*CAP
1 *3558:A 0
2 *3495:X 0.00109775
3 *1075:12 0.00109775
4 *1075:12 *1078:14 0
5 *2749:A2 *1075:12 8.00842e-05
6 *2775:B1 *1075:12 0
7 *2806:A1 *1075:12 0
8 *3137:RESET_B *1075:12 0
9 *3488:A *1075:12 0
10 *3561:A *1075:12 4.77425e-05
11 *3563:A *1075:12 0
12 *437:18 *1075:12 4.77425e-05
13 *733:41 *1075:12 0
14 *815:8 *1075:12 0
15 *851:79 *1075:12 4.77425e-05
16 *1058:22 *1075:12 0
17 *1071:10 *1075:12 0.000693956
*RES
1 *3495:X *1075:12 30.9489 
2 *1075:12 *3558:A 20 
*END

*D_NET *1076 0.00262496
*CONN
*I *3626:A I *D sg13g2_buf_1
*I *3496:X O *D sg13g2_dlygate4sd3_1
*CAP
1 *3626:A 0
2 *3496:X 0.000891921
3 *1076:16 0.000891921
4 *1076:16 *3556:A 0
5 *2731:A1 *1076:16 0.000112535
6 *2746:A2 *1076:16 6.46834e-05
7 *3484:A *1076:16 0
8 *3493:A *1076:16 0.000209348
9 *3552:A *1076:16 0
10 *755:35 *1076:16 0.000208
11 *844:77 *1076:16 0.000240396
12 *844:100 *1076:16 6.16032e-06
13 *1047:10 *1076:16 0
*RES
1 *3496:X *1076:16 48.2649 
2 *1076:16 *3626:A 40 
*END

*D_NET *1077 0.00316055
*CONN
*I *3556:A I *D sg13g2_buf_1
*I *3497:X O *D sg13g2_dlygate4sd3_1
*CAP
1 *3556:A 0.000706543
2 *3497:X 0.000247252
3 *1077:8 0.000953795
4 *2739:A1 *3556:A 4.77425e-05
5 *3459:A *3556:A 0
6 *3483:A *3556:A 0
7 *3484:A *3556:A 0.000531448
8 *727:24 *1077:8 0
9 *730:41 *1077:8 0
10 *757:51 *3556:A 0.00027232
11 *850:31 *3556:A 0.000304425
12 *850:42 *3556:A 9.7025e-05
13 *912:16 *3556:A 0
14 *1076:16 *3556:A 0
*RES
1 *3497:X *1077:8 42.8222 
2 *1077:8 *3556:A 47.2409 
*END

*D_NET *1078 0.00878401
*CONN
*I *3555:A I *D sg13g2_buf_1
*I *3498:X O *D sg13g2_dlygate4sd3_1
*CAP
1 *3555:A 0
2 *3498:X 0.000630143
3 *1078:28 0.00187311
4 *1078:14 0.00250325
5 *1078:14 *2770:A1 0
6 *1078:14 *1149:14 0
7 *1078:28 *1182:8 0
8 *2725:A1 *1078:28 7.46939e-05
9 *2725:A2 *1078:28 4.77425e-05
10 *2746:A1 *1078:14 0
11 *2746:A1 *1078:28 0.000543246
12 *3137:RESET_B *1078:14 0.000112656
13 *3551:A *1078:28 0.000143771
14 *3571:A *1078:28 0
15 *249:10 *1078:28 7.94969e-05
16 *399:22 *1078:28 0
17 *417:10 *1078:14 0
18 *715:10 *1078:28 0
19 *738:8 *1078:28 0
20 *749:8 *1078:28 0
21 *756:53 *1078:14 0
22 *829:41 *1078:14 0
23 *844:100 *1078:28 0.000335912
24 *850:42 *1078:28 0
25 *850:54 *1078:14 0
26 *850:54 *1078:28 0.000356283
27 *912:8 *1078:28 0.000175685
28 *923:10 *1078:28 0
29 *934:18 *1078:28 0
30 *935:12 *1078:28 0.000493407
31 *1022:10 *1078:28 0.000758982
32 *1063:20 *1078:28 0.000655625
33 *1075:12 *1078:14 0
*RES
1 *3498:X *1078:14 45.6959 
2 *1078:14 *1078:28 41.5064 
3 *1078:28 *3555:A 20 
*END

*D_NET *1079 0.0122752
*CONN
*I *2683:A I *D sg13g2_inv_1
*I *3588:X O *D sg13g2_buf_1
*CAP
1 *2683:A 0
2 *3588:X 0.000172081
3 *1079:24 0.0021052
4 *1079:18 0.00296657
5 *1079:8 0.00103346
6 *1079:8 *3587:A 1.53311e-05
7 *1079:8 *1113:18 0.000240099
8 *1079:8 *1128:26 0
9 *1079:18 *1090:14 0
10 *1079:18 *1112:16 0.000984848
11 *1079:24 *1112:16 0
12 *1079:24 *1114:8 0.000821399
13 *1079:24 *1141:14 0
14 *1079:24 *1153:14 0
15 *1079:24 *1158:14 0.00338486
16 *294:12 *1079:24 0
17 *1023:18 *1079:24 0
18 *1023:32 *1079:24 0
19 *1068:16 *1079:18 0.000551316
*RES
1 *3588:X *1079:8 41.6171 
2 *1079:8 *1079:18 49.3009 
3 *1079:18 *1079:24 45.3586 
4 *1079:24 *2683:A 20 
*END

*D_NET *1080 0.00475088
*CONN
*I *3553:A I *D sg13g2_buf_1
*I *3499:X O *D sg13g2_dlygate4sd3_1
*CAP
1 *3553:A 0
2 *3499:X 0
3 *1080:10 0.000711239
4 *1080:6 0.000711239
5 *727:8 *1080:10 0
6 *1035:14 *1080:10 0
7 *1041:12 *1080:10 0.00190711
8 *1044:8 *1080:10 0.00142129
*RES
1 *3499:X *1080:6 40 
2 *1080:6 *1080:10 30.9798 
3 *1080:10 *3553:A 20 
*END

*D_NET *1081 0.00193542
*CONN
*I *3593:A I *D sg13g2_buf_1
*I *3500:X O *D sg13g2_dlygate4sd3_1
*CAP
1 *3593:A 0.000765661
2 *3500:X 0.000765661
3 *3593:A *1083:14 0
4 *3593:A *1127:10 0
5 *3022:D *3593:A 0.000112695
6 *3023:A2 *3593:A 0
7 *370:10 *3593:A 0
8 *370:26 *3593:A 0
9 *532:12 *3593:A 5.10235e-05
10 *867:35 *3593:A 0
11 *876:39 *3593:A 0.000240383
12 *1023:32 *3593:A 0
*RES
1 *3500:X *3593:A 47.5808 
*END

*D_NET *1082 0.000400395
*CONN
*I *3273:D I *D sg13g2_dfrbpq_1
*I *3501:X O *D sg13g2_dlygate4sd3_1
*CAP
1 *3273:D 0.000127996
2 *3501:X 0.000127996
3 *3273:D *1089:12 0
4 *371:10 *3273:D 0
5 *821:88 *3273:D 0.000144403
*RES
1 *3501:X *3273:D 41.1845 
*END

*D_NET *1083 0.00299954
*CONN
*I *3594:A I *D sg13g2_buf_1
*I *3502:X O *D sg13g2_dlygate4sd3_1
*CAP
1 *3594:A 0.000531592
2 *3502:X 0.00054112
3 *1083:14 0.00107271
4 *3594:A *2692:A 0
5 *3594:A *3596:A 0
6 *3594:A *3597:A 0
7 *2890:A *1083:14 2.20966e-05
8 *3022:C *3594:A 0.000144068
9 *3022:D *3594:A 0
10 *3023:A2 *3594:A 4.77425e-05
11 *3500:A *1083:14 0.000274189
12 *3593:A *1083:14 0
13 *219:17 *1083:14 0
14 *368:16 *1083:14 0
15 *371:10 *1083:14 0.000286789
16 *626:10 *3594:A 0
17 *886:8 *3594:A 7.92265e-05
*RES
1 *3502:X *1083:14 45.3304 
2 *1083:14 *3594:A 44.8101 
*END

*D_NET *1084 0.000539175
*CONN
*I *3275:D I *D sg13g2_dfrbpq_1
*I *3503:X O *D sg13g2_dlygate4sd3_1
*CAP
1 *3275:D 0.000148519
2 *3503:X 0.000148519
3 *3275:D *1179:12 0
4 *2906:C *3275:D 0.000242138
*RES
1 *3503:X *3275:D 41.6171 
*END

*D_NET *1085 0.00131116
*CONN
*I *3597:A I *D sg13g2_buf_1
*I *3504:X O *D sg13g2_dlygate4sd3_1
*CAP
1 *3597:A 0.000527782
2 *3504:X 0.000527782
3 *3597:A *3596:A 0.00017637
4 *3023:A2 *3597:A 0
5 *3594:A *3597:A 0
6 *886:8 *3597:A 7.92265e-05
7 *894:75 *3597:A 0
8 *894:81 *3597:A 0
*RES
1 *3504:X *3597:A 44.9646 
*END

*D_NET *1086 0.000644471
*CONN
*I *3279:D I *D sg13g2_dfrbpq_1
*I *3505:X O *D sg13g2_dlygate4sd3_1
*CAP
1 *3279:D 0.000161583
2 *3505:X 0.000161583
3 *3279:D *2697:A 0.000241089
4 *3515:A *3279:D 8.0216e-05
5 *895:73 *3279:D 0
*RES
1 *3505:X *3279:D 41.6171 
*END

*D_NET *1087 0.00198562
*CONN
*I *3615:A I *D sg13g2_buf_1
*I *3506:X O *D sg13g2_dlygate4sd3_1
*CAP
1 *3615:A 0.000334041
2 *3506:X 0.000177447
3 *1087:10 0.000511488
4 *3615:A *3613:A 0
5 *3615:A *1103:10 0
6 *3615:A *1158:8 0
7 *3615:A *1165:22 0.000500057
8 *1087:10 *1112:16 0
9 *1087:10 *1125:12 4.7154e-05
10 *1087:10 *1165:18 0.000288087
11 *3520:A *1087:10 4.7154e-05
12 *358:18 *3615:A 8.0194e-05
*RES
1 *3506:X *1087:10 41.9055 
2 *1087:10 *3615:A 43.3475 
*END

*D_NET *1088 0.00116115
*CONN
*I *3109:A2 I *D sg13g2_o21ai_1
*I *3507:X O *D sg13g2_dlygate4sd3_1
*CAP
1 *3109:A2 0
2 *3507:X 0.000147656
3 *1088:8 0.000147656
4 *862:110 *1088:8 0.000234727
5 *873:26 *1088:8 0.000555983
6 *885:33 *1088:8 0
7 *890:46 *1088:8 7.51285e-05
*RES
1 *3507:X *1088:8 42.575 
2 *1088:8 *3109:A2 40 
*END

*D_NET *1089 0.00355005
*CONN
*I *3596:A I *D sg13g2_buf_1
*I *3508:X O *D sg13g2_dlygate4sd3_1
*CAP
1 *3596:A 0.000462811
2 *3508:X 0.000711971
3 *1089:12 0.00117478
4 *3596:A *1134:8 0
5 *1089:12 *2694:A 0
6 *1089:12 *1096:14 0
7 *3273:RESET_B *1089:12 0.000207948
8 *3273:D *1089:12 0
9 *3501:A *1089:12 0
10 *3594:A *3596:A 0
11 *3597:A *3596:A 0.00017637
12 *219:17 *1089:12 0
13 *493:41 *3596:A 0
14 *764:21 *3596:A 0.000816167
15 *821:82 *1089:12 0
16 *821:88 *1089:12 0
*RES
1 *3508:X *1089:12 46.8289 
2 *1089:12 *3596:A 44.9955 
*END

*D_NET *1090 0.00594591
*CONN
*I *2682:A I *D sg13g2_inv_1
*I *3589:X O *D sg13g2_buf_1
*CAP
1 *2682:A 0
2 *3589:X 0.000112271
3 *1090:22 0
4 *1090:18 0.00230305
5 *1090:14 0.0027891
6 *1090:8 0.000598324
7 *1090:8 *1128:26 0.000143171
8 *1079:18 *1090:14 0
*RES
1 *3589:X *1090:8 40.9682 
2 *1090:8 *1090:14 44.429 
3 *1090:14 *1090:18 48.7782 
4 *1090:18 *1090:22 40 
5 *1090:22 *2682:A 20 
*END

*D_NET *1091 0.0011665
*CONN
*I *3031:A2 I *D sg13g2_o21ai_1
*I *3509:X O *D sg13g2_dlygate4sd3_1
*CAP
1 *3031:A2 0
2 *3509:X 0.000269227
3 *1091:8 0.000269227
4 *1091:8 *1092:8 0
5 *628:8 *1091:8 0
6 *629:14 *1091:8 0.000446855
7 *867:86 *1091:8 0.000181192
8 *894:57 *1091:8 0
*RES
1 *3509:X *1091:8 43.3166 
2 *1091:8 *3031:A2 40 
*END

*D_NET *1092 0.00116137
*CONN
*I *3277:D I *D sg13g2_dfrbpq_1
*I *3510:X O *D sg13g2_dlygate4sd3_1
*CAP
1 *3277:D 9.36166e-05
2 *3510:X 0.000139307
3 *1092:8 0.000232924
4 *3510:A *3277:D 0.000177438
5 *811:49 *3277:D 0.000177378
6 *894:57 *1092:8 0.000340704
7 *1091:8 *1092:8 0
*RES
1 *3510:X *1092:8 41.5862 
2 *1092:8 *3277:D 41.1845 
*END

*D_NET *1093 0.00417344
*CONN
*I *3601:A I *D sg13g2_buf_1
*I *3511:X O *D sg13g2_dlygate4sd3_1
*CAP
1 *3601:A 0.000131251
2 *3511:X 0.000878766
3 *1093:12 0.00101002
4 *3601:A *2689:A 0.000241428
5 *3601:A *1096:14 0.000241428
6 *1093:12 *3605:A 0.000371134
7 *1093:12 *1124:16 0
8 *1093:12 *1166:22 0
9 *708:82 *1093:12 0.000399574
10 *764:21 *1093:12 0.000722468
11 *877:12 *1093:12 8.0194e-05
12 *877:25 *1093:12 9.71788e-05
*RES
1 *3511:X *1093:12 49.6099 
2 *1093:12 *3601:A 41.6171 
*END

*D_NET *1094 0.000571255
*CONN
*I *3047:A2 I *D sg13g2_o21ai_1
*I *3512:X O *D sg13g2_dlygate4sd3_1
*CAP
1 *3047:A2 0.000237745
2 *3512:X 0.000237745
3 *3047:B1 *3047:A2 1.54556e-05
4 *3047:A1 *3047:A2 8.03091e-05
5 *697:202 *3047:A2 0
6 *873:78 *3047:A2 0
*RES
1 *3512:X *3047:A2 42.5647 
*END

*D_NET *1095 0.0003149
*CONN
*I *3285:D I *D sg13g2_dfrbpq_1
*I *3513:X O *D sg13g2_dlygate4sd3_1
*CAP
1 *3285:D 0.00015745
2 *3513:X 0.00015745
3 *3048:B *3285:D 0
4 *697:202 *3285:D 0
*RES
1 *3513:X *3285:D 41.1845 
*END

*D_NET *1096 0.0026485
*CONN
*I *3599:A I *D sg13g2_buf_1
*I *3514:X O *D sg13g2_dlygate4sd3_1
*CAP
1 *3599:A 0
2 *3514:X 0.000962053
3 *1096:14 0.000962053
4 *1096:14 *2689:A 0
5 *1096:14 *3600:A 0
6 *1096:14 *3603:A 0
7 *3273:RESET_B *1096:14 0.000143278
8 *3501:A *1096:14 0.000339683
9 *3522:A *1096:14 0
10 *3601:A *1096:14 0.000241428
11 *366:16 *1096:14 0
12 *821:82 *1096:14 0
13 *1089:12 *1096:14 0
*RES
1 *3514:X *1096:14 30.094 
2 *1096:14 *3599:A 20 
*END

*D_NET *1097 0.000441193
*CONN
*I *3039:A2 I *D sg13g2_o21ai_1
*I *3515:X O *D sg13g2_dlygate4sd3_1
*CAP
1 *3039:A2 0
2 *3515:X 0.000104268
3 *1097:8 0.000104268
4 *621:44 *1097:8 0
5 *821:25 *1097:8 0.000232657
*RES
1 *3515:X *1097:8 41.0918 
2 *1097:8 *3039:A2 40 
*END

*D_NET *1098 0.000209816
*CONN
*I *3281:D I *D sg13g2_dfrbpq_1
*I *3516:X O *D sg13g2_dlygate4sd3_1
*CAP
1 *3281:D 0
2 *3516:X 4.08278e-05
3 *1098:8 4.08278e-05
4 *1098:8 *1183:14 0.00012816
*RES
1 *3516:X *1098:8 40.5974 
2 *1098:8 *3281:D 40 
*END

*D_NET *1099 0.00278825
*CONN
*I *3616:A I *D sg13g2_buf_1
*I *3517:X O *D sg13g2_dlygate4sd3_1
*CAP
1 *3616:A 0
2 *3517:X 0.000599291
3 *1099:12 0.000599291
4 *1099:12 *1125:12 0.000662717
5 *1099:12 *1165:18 0
6 *1034:10 *1099:12 0
7 *1034:12 *1099:12 0.000926952
*RES
1 *3517:X *1099:12 47.6941 
2 *1099:12 *3616:A 40 
*END

*D_NET *1100 0.00247336
*CONN
*I *3621:A I *D sg13g2_buf_1
*I *3518:X O *D sg13g2_dlygate4sd3_1
*CAP
1 *3621:A 0.000835577
2 *3518:X 0.000835577
3 *3621:A *3612:A 0
4 *3621:A *1115:10 7.98712e-05
5 *3621:A *1129:10 0
6 s_axil_bresp[0] *3621:A 0
7 *2850:B *3621:A 0
8 *2850:A *3621:A 0
9 *2850:D *3621:A 0.000176476
10 *3323:A *3621:A 4.78195e-05
11 *3474:A *3621:A 8.00842e-05
12 *3531:A *3621:A 0
13 *3544:A *3621:A 0
14 *282:12 *3621:A 0
15 *491:37 *3621:A 0
16 *714:16 *3621:A 0.000402551
17 *895:94 *3621:A 1.54008e-05
*RES
1 *3518:X *3621:A 49.2494 
*END

*D_NET *1101 0.00248959
*CONN
*I *2681:A I *D sg13g2_inv_1
*I *3590:X O *D sg13g2_buf_1
*CAP
1 *2681:A 0
2 *3590:X 0.000506083
3 *1101:12 0.000506083
4 *523:10 *1101:12 8.00842e-05
5 *532:12 *1101:12 0.000234893
6 *857:14 *1101:12 0.000111568
7 *857:51 *1101:12 0.00027267
8 *861:38 *1101:12 0.00010806
9 *861:53 *1101:12 0.000229067
10 *873:32 *1101:12 0.000441082
*RES
1 *3590:X *1101:12 45.7474 
2 *1101:12 *2681:A 40 
*END

*D_NET *1102 0.00307569
*CONN
*I *3623:A I *D sg13g2_buf_1
*I *3519:X O *D sg13g2_dlygate4sd3_1
*CAP
1 *3623:A 3.74045e-05
2 *3519:X 0.000304917
3 *1102:8 0.000342322
4 *1102:8 *1129:10 0.00119552
5 *3578:A *3623:A 0
6 *171:10 *1102:8 0.00119552
*RES
1 *3519:X *1102:8 46.5302 
2 *1102:8 *3623:A 40.3193 
*END

*D_NET *1103 0.00210689
*CONN
*I *3610:A I *D sg13g2_buf_1
*I *3520:X O *D sg13g2_dlygate4sd3_1
*CAP
1 *3610:A 4.99449e-05
2 *3520:X 0.000493273
3 *1103:10 0.000543218
4 *3610:A *3586:A 0
5 *3610:A *1153:8 0
6 *1103:10 *3613:A 0.000144691
7 *1103:10 *1112:16 0
8 *1103:10 *1125:12 0.000875761
9 *1103:10 *1165:22 0
10 s_axil_awready *3610:A 0
11 *3615:A *1103:10 0
12 *1034:10 *1103:10 0
*RES
1 *3520:X *1103:10 46.0152 
2 *1103:10 *3610:A 40.5356 
*END

*D_NET *1104 0.00249331
*CONN
*I *3618:A I *D sg13g2_buf_1
*I *3521:X O *D sg13g2_dlygate4sd3_1
*CAP
1 *3618:A 5.76377e-05
2 *3521:X 0.000599271
3 *1104:10 0.000656908
4 *1104:10 *1113:18 0
5 *1104:10 *1128:14 0
6 *2891:A2 *1104:10 0
7 *2901:A1 *1104:10 0
8 *2901:B1 *3618:A 4.77425e-05
9 *2904:A *1104:10 0
10 *3529:A *1104:10 0.000240738
11 *3546:A *1104:10 0
12 *708:90 *1104:10 0.000110936
13 *739:16 *1104:10 0.000314516
14 *739:26 *1104:10 7.48842e-05
15 *809:30 *1104:10 0
16 *861:38 *1104:10 0.000390675
*RES
1 *3521:X *1104:10 46.5982 
2 *1104:10 *3618:A 40.5356 
*END

*D_NET *1105 0.00122757
*CONN
*I *3600:A I *D sg13g2_buf_1
*I *3522:X O *D sg13g2_dlygate4sd3_1
*CAP
1 *3600:A 0.000363826
2 *3522:X 0.000363826
3 *3600:A *2689:A 0
4 *3600:A *3603:A 0.000499922
5 *1096:14 *3600:A 0
*RES
1 *3522:X *3600:A 43.9449 
*END

*D_NET *1106 0.000106418
*CONN
*I *3283:D I *D sg13g2_dfrbpq_1
*I *3523:X O *D sg13g2_dlygate4sd3_1
*CAP
1 *3283:D 5.3209e-05
2 *3523:X 5.3209e-05
*RES
1 *3523:X *3283:D 40.5974 
*END

*D_NET *1107 0.0039805
*CONN
*I *3605:A I *D sg13g2_buf_1
*I *3524:X O *D sg13g2_dlygate4sd3_1
*CAP
1 *3605:A 0.000896932
2 *3524:X 0.000390531
3 *1107:8 0.00128746
4 *3605:A *2687:A 0
5 *3605:A *3602:A 0
6 *3605:A *3603:A 0
7 *3605:A *3607:A 0
8 *1107:8 *1121:10 0
9 *1107:8 *1165:18 0.00103444
10 *3522:A *3605:A 0
11 *868:52 *3605:A 0
12 *877:25 *3605:A 0
13 *1093:12 *3605:A 0.000371134
*RES
1 *3524:X *1107:8 45.047 
2 *1107:8 *3605:A 48.2606 
*END

*D_NET *1108 0.00141195
*CONN
*I *3607:A I *D sg13g2_buf_1
*I *3525:X O *D sg13g2_dlygate4sd3_1
*CAP
1 *3607:A 0.000497512
2 *3525:X 0.000497512
3 *3607:A *2700:A 0
4 *3607:A *1150:12 0
5 *3607:A *1166:22 8.00842e-05
6 *3607:A *1166:37 0.000176292
7 *3034:A *3607:A 0
8 *3034:D *3607:A 8.01776e-05
9 *3605:A *3607:A 0
10 *493:30 *3607:A 8.03692e-05
11 *868:114 *3607:A 0
12 *877:25 *3607:A 0
*RES
1 *3525:X *3607:A 44.7586 
*END

*D_NET *1109 0.0011476
*CONN
*I *3602:A I *D sg13g2_buf_1
*I *3526:X O *D sg13g2_dlygate4sd3_1
*CAP
1 *3602:A 0.000397111
2 *3526:X 0.000397111
3 *3602:A *2687:A 4.78524e-05
4 *3602:A *3603:A 0
5 *3273:CLK *3602:A 0.000305521
6 *3605:A *3602:A 0
*RES
1 *3526:X *3602:A 44.1921 
*END

*D_NET *1110 0.00066108
*CONN
*I *3051:A2 I *D sg13g2_o21ai_1
*I *3527:X O *D sg13g2_dlygate4sd3_1
*CAP
1 *3051:A2 0.00014497
2 *3527:X 7.33914e-05
3 *1110:8 0.000218362
4 *3051:A1 *3051:A2 1.54008e-05
5 *377:10 *3051:A2 0
6 *895:42 *3051:A2 0.000161103
7 *895:44 *3051:A2 3.24516e-05
8 *895:54 *3051:A2 1.54008e-05
*RES
1 *3527:X *1110:8 40.5974 
2 *1110:8 *3051:A2 41.4008 
*END

*D_NET *1111 0.00130281
*CONN
*I *3287:D I *D sg13g2_dfrbpq_1
*I *3528:X O *D sg13g2_dlygate4sd3_1
*CAP
1 *3287:D 0.000381778
2 *3528:X 0.000381778
3 *3283:RESET_B *3287:D 0.000264488
4 *372:16 *3287:D 0.000274769
5 *373:22 *3287:D 0
*RES
1 *3528:X *3287:D 44.429 
*END

*D_NET *1112 0.00839572
*CONN
*I *2680:A I *D sg13g2_inv_1
*I *3591:X O *D sg13g2_buf_1
*CAP
1 *2680:A 0
2 *3591:X 0.000300541
3 *1112:16 0.00233692
4 *1112:10 0.00263746
5 *1112:10 *1130:8 0
6 *1112:10 *1133:8 0
7 *1112:10 *1165:18 0
8 *1112:16 *1114:8 0.000821399
9 *1112:16 *1125:12 0
10 *1112:16 *1130:8 0
11 *1112:16 *1133:8 0
12 *1112:16 *1136:10 0
13 *1112:16 *1157:14 0.00131456
14 *1112:16 *1165:18 0
15 *821:88 *1112:16 0
16 *1023:32 *1112:16 0
17 *1079:18 *1112:16 0.000984848
18 *1079:24 *1112:16 0
19 *1087:10 *1112:16 0
20 *1103:10 *1112:16 0
*RES
1 *3591:X *1112:10 42.8943 
2 *1112:10 *1112:16 46.2856 
3 *1112:16 *2680:A 20 
*END

*D_NET *1113 0.00264736
*CONN
*I *3619:A I *D sg13g2_buf_1
*I *3529:X O *D sg13g2_dlygate4sd3_1
*CAP
1 *3619:A 0
2 *3529:X 0.000963314
3 *1113:18 0.000963314
4 *1113:18 *3587:A 0
5 *1113:18 *3588:A 0
6 *1113:18 *1128:14 0
7 *1113:18 *1163:12 0
8 *493:41 *1113:18 0
9 *809:38 *1113:18 0.000176085
10 *809:55 *1113:18 0.000304546
11 *889:79 *1113:18 0
12 *1079:8 *1113:18 0.000240099
13 *1104:10 *1113:18 0
*RES
1 *3529:X *1113:18 49.2082 
2 *1113:18 *3619:A 40 
*END

*D_NET *1114 0.00226606
*CONN
*I *3586:A I *D sg13g2_buf_1
*I *3530:X O *D sg13g2_dlygate4sd3_1
*CAP
1 *3586:A 0.000161791
2 *3530:X 0.000149842
3 *1114:8 0.000311633
4 *3586:A *1153:8 0
5 *3583:A *3586:A 0
6 *3610:A *3586:A 0
7 *1079:24 *1114:8 0.000821399
8 *1112:16 *1114:8 0.000821399
*RES
1 *3530:X *1114:8 43.811 
2 *1114:8 *3586:A 41.4008 
*END

*D_NET *1115 0.00323986
*CONN
*I *3624:A I *D sg13g2_buf_1
*I *3531:X O *D sg13g2_dlygate4sd3_1
*CAP
1 *3624:A 0
2 *3531:X 0.00021917
3 *1115:18 0.000766548
4 *1115:10 0.000985717
5 *1115:18 *1180:12 0
6 *3621:A *1115:10 7.98712e-05
7 *709:27 *1115:18 0
8 *714:48 *1115:18 2.14736e-05
9 *895:88 *1115:10 0
10 *979:12 *1115:18 0.00116708
*RES
1 *3531:X *1115:10 42.369 
2 *1115:10 *1115:18 49.5378 
3 *1115:18 *3624:A 40 
*END

*D_NET *1116 0.000727413
*CONN
*I *3006:A2 I *D sg13g2_o21ai_1
*I *3532:X O *D sg13g2_dlygate4sd3_1
*CAP
1 *3006:A2 0.000251574
2 *3532:X 0.000251574
3 *3006:A1 *3006:A2 0.000144181
4 *908:72 *3006:A2 8.00842e-05
*RES
1 *3532:X *3006:A2 42.5956 
*END

*D_NET *1117 0.00205847
*CONN
*I *3611:A I *D sg13g2_buf_1
*I *3533:X O *D sg13g2_dlygate4sd3_1
*CAP
1 *3611:A 0.000164932
2 *3533:X 0.000279859
3 *1117:12 0.00044479
4 *1117:12 *3608:A 0.000209746
5 *1117:12 *1150:12 0.000399133
6 *2703:A *3611:A 4.78195e-05
7 *2849:B *3611:A 0.000274507
8 *3279:RESET_B *1117:12 0
9 *376:10 *3611:A 0
10 *492:12 *1117:12 0.000237686
11 *493:30 *1117:12 0
12 *895:88 *1117:12 0
*RES
1 *3533:X *1117:12 43.7698 
2 *1117:12 *3611:A 41.8334 
*END

*D_NET *1118 0.0020293
*CONN
*I *3609:A I *D sg13g2_buf_1
*I *3534:X O *D sg13g2_dlygate4sd3_1
*CAP
1 *3609:A 0.000587047
2 *3534:X 0.000587047
3 *3609:A *2699:A 1.54008e-05
4 *3609:A *3612:A 8.01207e-05
5 *2852:A2 *3609:A 1.69409e-05
6 *3544:A *3609:A 0
7 *491:22 *3609:A 0.00020901
8 *492:12 *3609:A 0
9 *1034:20 *3609:A 0.000307226
10 *1034:35 *3609:A 0.000226508
*RES
1 *3534:X *3609:A 46.592 
*END

*D_NET *1119 0.00222405
*CONN
*I *3612:A I *D sg13g2_buf_1
*I *3535:X O *D sg13g2_dlygate4sd3_1
*CAP
1 *3612:A 0.000667214
2 *3535:X 0.000667214
3 *3612:A *2850:C 0
4 *3612:A *2852:A1 0.000208156
5 *2850:A *3612:A 0.000274638
6 *3609:A *3612:A 8.01207e-05
7 *3621:A *3612:A 0
8 *376:10 *3612:A 0.000307002
9 *493:16 *3612:A 1.97059e-05
*RES
1 *3535:X *3612:A 47.1276 
*END

*D_NET *1120 0.00115316
*CONN
*I *3613:A I *D sg13g2_buf_1
*I *3536:X O *D sg13g2_dlygate4sd3_1
*CAP
1 *3613:A 0.000383506
2 *3536:X 0.000383506
3 *3613:A *3598:A 0
4 *3613:A *1156:10 0
5 *3613:A *1158:8 0.000241456
6 *3530:A *3613:A 0
7 *3615:A *3613:A 0
8 *358:18 *3613:A 0
9 *1103:10 *3613:A 0.000144691
*RES
1 *3536:X *3613:A 43.914 
*END

*D_NET *1121 0.00308114
*CONN
*I *3603:A I *D sg13g2_buf_1
*I *3537:X O *D sg13g2_dlygate4sd3_1
*CAP
1 *3603:A 0.000749542
2 *3537:X 0.000541068
3 *1121:10 0.00129061
4 *3603:A *2689:A 0
5 *1121:10 *1124:8 0
6 *1121:10 *1165:18 0
7 *3273:CLK *3603:A 0
8 *3522:A *3603:A 0
9 *3525:A *1121:10 0
10 *3526:A *1121:10 0
11 *3600:A *3603:A 0.000499922
12 *3602:A *3603:A 0
13 *3605:A *3603:A 0
14 *708:69 *3603:A 0
15 *1096:14 *3603:A 0
16 *1107:8 *1121:10 0
*RES
1 *3537:X *1121:10 45.0882 
2 *1121:10 *3603:A 47.3748 
*END

*D_NET *1122 0.00110877
*CONN
*I *3598:A I *D sg13g2_buf_1
*I *3538:X O *D sg13g2_dlygate4sd3_1
*CAP
1 *3598:A 0.000491051
2 *3538:X 0.000491051
3 *3598:A *1141:8 0.000111263
4 *3598:A *1156:10 0
5 s_axil_awready *3598:A 0
6 *3530:A *3598:A 0
7 *3613:A *3598:A 0
8 *764:10 *3598:A 0
9 *764:19 *3598:A 1.54008e-05
*RES
1 *3538:X *3598:A 44.8616 
*END

*D_NET *1123 0.00185241
*CONN
*I *2679:A I *D sg13g2_inv_1
*I *3592:X O *D sg13g2_buf_1
*CAP
1 *2679:A 0
2 *3592:X 0.000327203
3 *1123:10 0.000327203
4 *2895:B1 *1123:10 7.60282e-05
5 *708:82 *1123:10 0.000614626
6 *867:6 *1123:10 8.00842e-05
7 *867:58 *1123:10 7.62389e-05
8 *867:69 *1123:10 0.000143171
9 *894:81 *1123:10 0
10 *1023:32 *1123:10 0.000207854
*RES
1 *3592:X *1123:10 44.223 
2 *1123:10 *2679:A 40 
*END

*D_NET *1124 0.00280171
*CONN
*I *3604:A I *D sg13g2_buf_1
*I *3539:X O *D sg13g2_dlygate4sd3_1
*CAP
1 *3604:A 9.49555e-05
2 *3539:X 0.000118006
3 *1124:16 0.000777895
4 *1124:8 0.000800945
5 *3604:A *2687:A 0.00017671
6 *1124:16 *1150:12 0
7 *1124:16 *1166:22 0
8 *708:69 *3604:A 0.000177393
9 *764:21 *1124:16 0.000399241
10 *877:12 *1124:16 8.0194e-05
11 *877:25 *1124:16 0.000176368
12 *1093:12 *1124:16 0
13 *1121:10 *1124:8 0
*RES
1 *3539:X *1124:8 41.339 
2 *1124:8 *1124:16 46.4787 
3 *1124:16 *3604:A 41.1845 
*END

*D_NET *1125 0.00303731
*CONN
*I *3614:A I *D sg13g2_buf_1
*I *3540:X O *D sg13g2_dlygate4sd3_1
*CAP
1 *3614:A 0
2 *3540:X 0.00055503
3 *1125:12 0.00055503
4 *1125:12 *1165:18 0.000341619
5 *3520:A *1125:12 0
6 *3540:A *1125:12 0
7 *1034:10 *1125:12 0
8 *1087:10 *1125:12 4.7154e-05
9 *1099:12 *1125:12 0.000662717
10 *1103:10 *1125:12 0.000875761
11 *1112:16 *1125:12 0
*RES
1 *3540:X *1125:12 47.7868 
2 *1125:12 *3614:A 40 
*END

*D_NET *1126 0.000668159
*CONN
*I *3105:A2 I *D sg13g2_o21ai_1
*I *3541:X O *D sg13g2_dlygate4sd3_1
*CAP
1 *3105:A2 0
2 *3541:X 0.0001902
3 *1126:8 0.0001902
4 *671:137 *1126:8 0
5 *684:8 *1126:8 0
6 *721:10 *1126:8 0.000287758
*RES
1 *3541:X *1126:8 42.0806 
2 *1126:8 *3105:A2 40 
*END

*D_NET *1127 0.00365599
*CONN
*I *3590:A I *D sg13g2_buf_1
*I *3542:X O *D sg13g2_dlygate4sd3_1
*CAP
1 *3590:A 0.000392513
2 *3542:X 0.000469495
3 *1127:10 0.000862008
4 *1127:10 *1136:10 0
5 *2890:D *3590:A 0
6 *3548:A *1127:10 0.000242181
7 *3593:A *1127:10 0
8 *370:26 *1127:10 0.000177109
9 *526:10 *1127:10 0.000129584
10 *857:14 *3590:A 0
11 *861:38 *3590:A 7.59438e-05
12 *861:53 *3590:A 0.000341888
13 *867:8 *3590:A 0
14 *868:10 *3590:A 7.99873e-05
15 *868:10 *1127:10 0
16 *873:51 *3590:A 0.000343193
17 *876:54 *1127:10 0.00023721
18 *1023:32 *1127:10 0.000304879
*RES
1 *3542:X *1127:10 45.3354 
2 *1127:10 *3590:A 44.2642 
*END

*D_NET *1128 0.00362558
*CONN
*I *3620:A I *D sg13g2_buf_1
*I *3543:X O *D sg13g2_dlygate4sd3_1
*CAP
1 *3620:A 7.42892e-05
2 *3543:X 0.000465557
3 *1128:26 0.000672638
4 *1128:14 0.00106391
5 *1128:14 *3587:A 0.000272205
6 *1128:14 *1136:10 0
7 *1128:26 *3587:A 8.00082e-05
8 *1128:26 *3588:A 0.000143171
9 *1128:26 *3589:A 0
10 *2891:B1 *3620:A 0
11 *2903:B1 *1128:26 8.45148e-05
12 *3546:A *1128:14 0
13 *493:41 *1128:26 0
14 *809:30 *1128:14 0.000124547
15 *809:55 *3620:A 0
16 *889:79 *1128:26 0.000501576
17 *1079:8 *1128:26 0
18 *1090:8 *1128:26 0.000143171
19 *1104:10 *1128:14 0
20 *1113:18 *1128:14 0
*RES
1 *3543:X *1128:14 44.3981 
2 *1128:14 *1128:26 46.3448 
3 *1128:26 *3620:A 40.7519 
*END

*D_NET *1129 0.00405442
*CONN
*I *3622:A I *D sg13g2_buf_1
*I *3544:X O *D sg13g2_dlygate4sd3_1
*CAP
1 *3622:A 0
2 *3544:X 0.000566394
3 *1129:10 0.000566394
4 *1129:10 *1165:18 0.00172611
5 *3531:A *1129:10 0
6 *3544:A *1129:10 0
7 *3621:A *1129:10 0
8 *282:12 *1129:10 0
9 *1102:8 *1129:10 0.00119552
*RES
1 *3544:X *1129:10 49.9086 
2 *1129:10 *3622:A 40 
*END

*D_NET *1130 0.00245099
*CONN
*I *3592:A I *D sg13g2_buf_1
*I *3545:X O *D sg13g2_dlygate4sd3_1
*CAP
1 *3592:A 0
2 *3545:X 0.000142684
3 *1130:14 0.000620363
4 *1130:8 0.000763047
5 *1130:8 *1165:18 0.000449845
6 *886:18 *1130:14 0.000475054
7 *1112:10 *1130:8 0
8 *1112:16 *1130:8 0
*RES
1 *3545:X *1130:8 42.0806 
2 *1130:8 *1130:14 47.4572 
3 *1130:14 *3592:A 40 
*END

*D_NET *1131 0.00171275
*CONN
*I *3587:A I *D sg13g2_buf_1
*I *3546:X O *D sg13g2_dlygate4sd3_1
*CAP
1 *3587:A 0.000568757
2 *3546:X 0.000568757
3 *3587:A *1136:10 0
4 *2903:B1 *3587:A 0
5 *2903:A2 *3587:A 0
6 *533:10 *3587:A 0.000207688
7 *1079:8 *3587:A 1.53311e-05
8 *1113:18 *3587:A 0
9 *1128:14 *3587:A 0.000272205
10 *1128:26 *3587:A 8.00082e-05
*RES
1 *3546:X *3587:A 45.6547 
*END

*D_NET *1132 0.00116451
*CONN
*I *3608:A I *D sg13g2_buf_1
*I *3547:X O *D sg13g2_dlygate4sd3_1
*CAP
1 *3608:A 0.000323855
2 *3547:X 0.000323855
3 *2849:A *3608:A 0.000307057
4 *3533:A *3608:A 0
5 *895:88 *3608:A 0
6 *1034:20 *3608:A 0
7 *1117:12 *3608:A 0.000209746
*RES
1 *3547:X *3608:A 43.6977 
*END

*D_NET *1133 0.000701895
*CONN
*I *3591:A I *D sg13g2_buf_1
*I *3548:X O *D sg13g2_dlygate4sd3_1
*CAP
1 *3591:A 0
2 *3548:X 0.000350948
3 *1133:8 0.000350948
4 *1133:8 *1165:18 0
5 *821:88 *1133:8 0
6 *1112:10 *1133:8 0
7 *1112:16 *1133:8 0
*RES
1 *3548:X *1133:8 43.3166 
2 *1133:8 *3591:A 40 
*END

*D_NET *1134 0.00323379
*CONN
*I *2694:A I *D sg13g2_inv_1
*I *3593:X O *D sg13g2_buf_1
*CAP
1 *2694:A 0.000566137
2 *3593:X 0.000489402
3 *1134:8 0.00105554
4 *3024:B *2694:A 0.000143171
5 *3357:A *2694:A 4.79124e-05
6 *3596:A *1134:8 0
7 *219:17 *2694:A 0.000273699
8 *323:12 *2694:A 0.000143358
9 *368:16 *2694:A 0
10 *371:10 *2694:A 0.000144102
11 *764:21 *1134:8 0
12 *809:10 *2694:A 8.0216e-05
13 *821:88 *2694:A 0
14 *868:30 *1134:8 0
15 *889:79 *1134:8 0.000290258
16 *1089:12 *2694:A 0
*RES
1 *3593:X *1134:8 43.811 
2 *1134:8 *2694:A 45.7474 
*END

*D_NET *1135 0.00211873
*CONN
*I *3589:A I *D sg13g2_buf_1
*I *3549:X O *D sg13g2_dlygate4sd3_1
*CAP
1 *3589:A 0.000609958
2 *3549:X 0.000609958
3 *3589:A *3588:A 0
4 *2903:B1 *3589:A 0.000175513
5 *2903:A1 *3589:A 0.000112422
6 *523:10 *3589:A 0.000177268
7 *857:14 *3589:A 0.000111568
8 *857:51 *3589:A 0.000322045
9 *1128:26 *3589:A 0
*RES
1 *3549:X *3589:A 46.077 
*END

*D_NET *1136 0.00247766
*CONN
*I *3588:A I *D sg13g2_buf_1
*I *3550:X O *D sg13g2_dlygate4sd3_1
*CAP
1 *3588:A 0.000173485
2 *3550:X 0.000286105
3 *1136:16 0.000701176
4 *1136:10 0.000813796
5 *3549:A *1136:10 0
6 *3587:A *1136:10 0
7 *3589:A *3588:A 0
8 *533:10 *1136:10 2.20248e-05
9 *1023:32 *1136:10 0.000337906
10 *1112:16 *1136:10 0
11 *1113:18 *3588:A 0
12 *1127:10 *1136:10 0
13 *1128:14 *1136:10 0
14 *1128:26 *3588:A 0.000143171
*RES
1 *3550:X *1136:10 43.4196 
2 *1136:10 *1136:16 44.2127 
3 *1136:16 *3588:A 41.6171 
*END

*D_NET *1137 0.000672855
*CONN
*I *2693:A I *D sg13g2_inv_1
*I *3594:X O *D sg13g2_buf_1
*CAP
1 *2693:A 0.000147236
2 *3594:X 0.000147236
3 *370:10 *2693:A 0.000143182
4 *626:10 *2693:A 0.000235202
*RES
1 *3594:X *2693:A 41.5836 
*END

*D_NET *1138 0.00509936
*CONN
*I *2770:A1 I *D sg13g2_a21oi_1
*I *3595:X O *D sg13g2_buf_1
*CAP
1 *2770:A1 0.000591515
2 *3595:X 0.000781736
3 *1138:14 0.00137325
4 *2718:A2 *1138:14 0
5 *2770:A2 *2770:A1 1.54008e-05
6 *3552:A *2770:A1 0
7 *3574:A *1138:14 8.0057e-05
8 *399:14 *1138:14 0.000355958
9 *399:22 *1138:14 8.01886e-05
10 *829:35 *2770:A1 1.54008e-05
11 *844:29 *1138:14 0
12 *844:31 *1138:14 0
13 *844:100 *2770:A1 0
14 *850:42 *2770:A1 0.000335155
15 *850:54 *1138:14 0
16 *1058:22 *2770:A1 0
17 *1062:8 *1138:14 0.00118629
18 *1063:8 *1138:14 0.000284403
19 *1063:20 *1138:14 0
20 *1067:16 *2770:A1 0
21 *1067:16 *1138:14 0
22 *1078:14 *2770:A1 0
*RES
1 *3595:X *1138:14 48.9404 
2 *1138:14 *2770:A1 45.5208 
*END

*D_NET *1139 0.00052544
*CONN
*I *2692:A I *D sg13g2_inv_1
*I *3596:X O *D sg13g2_buf_1
*CAP
1 *2692:A 0.000238849
2 *3596:X 0.000238849
3 *3594:A *2692:A 0
4 *369:10 *2692:A 4.77425e-05
5 *626:10 *2692:A 0
6 *894:75 *2692:A 0
*RES
1 *3596:X *2692:A 41.9673 
*END

*D_NET *1140 0.00114002
*CONN
*I *2691:A I *D sg13g2_inv_1
*I *3597:X O *D sg13g2_buf_1
*CAP
1 *2691:A 0.000353306
2 *3597:X 0.000353306
3 *368:6 *2691:A 0.00043341
4 *894:57 *2691:A 0
*RES
1 *3597:X *2691:A 43.3475 
*END

*D_NET *1141 0.0075726
*CONN
*I *2677:A I *D sg13g2_inv_1
*I *3598:X O *D sg13g2_buf_1
*CAP
1 *2677:A 0
2 *3598:X 7.90448e-05
3 *1141:14 0.00127251
4 *1141:8 0.00135156
5 *1141:8 *1156:10 0
6 *1141:14 *1156:16 0
7 *1141:14 *1158:14 0
8 *3598:A *1141:8 0.000111263
9 *349:8 *1141:14 0.000235556
10 *352:8 *1141:14 0.000609685
11 *354:24 *1141:14 0
12 *359:14 *1141:14 7.98712e-05
13 *360:20 *1141:14 0
14 *1023:18 *1141:14 0.0038331
15 *1079:24 *1141:14 0
*RES
1 *3598:X *1141:8 40.7519 
2 *1141:8 *1141:14 38.4061 
3 *1141:14 *2677:A 20 
*END

*D_NET *1142 0.000607603
*CONN
*I *2690:A I *D sg13g2_inv_1
*I *3599:X O *D sg13g2_buf_1
*CAP
1 *2690:A 0.000175926
2 *3599:X 0.000175926
3 *3021:A2 *2690:A 0.000240339
4 *821:82 *2690:A 1.54118e-05
*RES
1 *3599:X *2690:A 41.6171 
*END

*D_NET *1143 0.00133076
*CONN
*I *2689:A I *D sg13g2_inv_1
*I *3600:X O *D sg13g2_buf_1
*CAP
1 *2689:A 0.000480587
2 *3600:X 0.000480587
3 *2689:A *2688:A 0
4 *2689:A *2702:A 0
5 *3600:A *2689:A 0
6 *3601:A *2689:A 0.000241428
7 *3603:A *2689:A 0
8 *366:16 *2689:A 4.78521e-05
9 *708:69 *2689:A 8.03089e-05
10 *821:82 *2689:A 0
11 *1096:14 *2689:A 0
*RES
1 *3600:X *2689:A 44.7792 
*END

*D_NET *1144 0.000413504
*CONN
*I *2688:A I *D sg13g2_inv_1
*I *3601:X O *D sg13g2_buf_1
*CAP
1 *2688:A 0.000206752
2 *3601:X 0.000206752
3 *2689:A *2688:A 0
4 *366:16 *2688:A 0
5 *821:82 *2688:A 0
*RES
1 *3601:X *2688:A 41.6171 
*END

*D_NET *1145 0.00191863
*CONN
*I *2687:A I *D sg13g2_inv_1
*I *3602:X O *D sg13g2_buf_1
*CAP
1 *2687:A 0.000548919
2 *3602:X 7.57186e-05
3 *1145:8 0.000624637
4 *2687:A *2700:A 0
5 *2687:A *2701:A 1.54118e-05
6 *2687:A *2702:A 0
7 *3273:CLK *2687:A 0
8 *3602:A *2687:A 4.78524e-05
9 *3604:A *2687:A 0.00017671
10 *3605:A *2687:A 0
11 *378:12 *2687:A 7.00275e-05
12 *708:69 *2687:A 0.000175524
13 *876:10 *1145:8 0.000183828
*RES
1 *3602:X *1145:8 40.8446 
2 *1145:8 *2687:A 45.2324 
*END

*D_NET *1146 0.000423729
*CONN
*I *2702:A I *D sg13g2_inv_1
*I *3603:X O *D sg13g2_buf_1
*CAP
1 *2702:A 0.000187939
2 *3603:X 0.000187939
3 *2687:A *2702:A 0
4 *2689:A *2702:A 0
5 *379:22 *2702:A 4.78521e-05
6 *708:69 *2702:A 0
*RES
1 *3603:X *2702:A 41.6171 
*END

*D_NET *1147 0.000487636
*CONN
*I *2701:A I *D sg13g2_inv_1
*I *3604:X O *D sg13g2_buf_1
*CAP
1 *2701:A 0.00018826
2 *3604:X 0.00018826
3 *2701:A *2700:A 0
4 *2687:A *2701:A 1.54118e-05
5 *378:12 *2701:A 4.78521e-05
6 *868:52 *2701:A 4.78521e-05
7 *868:114 *2701:A 0
*RES
1 *3604:X *2701:A 41.6171 
*END

*D_NET *1148 0.000886053
*CONN
*I *2700:A I *D sg13g2_inv_1
*I *3605:X O *D sg13g2_buf_1
*CAP
1 *2700:A 0.00034726
2 *3605:X 0.00034726
3 *2687:A *2700:A 0
4 *2701:A *2700:A 0
5 *3038:B *2700:A 4.7803e-05
6 *3607:A *2700:A 0
7 *377:10 *2700:A 0
8 *493:39 *2700:A 0
9 *811:20 *2700:A 0
10 *868:114 *2700:A 0.000143729
11 *886:88 *2700:A 0
*RES
1 *3605:X *2700:A 43.7286 
*END

*D_NET *1149 0.00361054
*CONN
*I *2775:B2 I *D sg13g2_a22oi_1
*I *3606:X O *D sg13g2_buf_1
*CAP
1 *2775:B2 0
2 *3606:X 0.000611114
3 *1149:14 0.000611114
4 *2746:A1 *1149:14 0.000390026
5 *410:14 *1149:14 0.000143253
6 *415:8 *1149:14 0.000659416
7 *417:10 *1149:14 0.000335499
8 *437:8 *1149:14 0.000125963
9 *757:51 *1149:14 0.000143099
10 *757:59 *1149:14 0
11 *829:41 *1149:14 0.00023464
12 *844:85 *1149:14 0.000178206
13 *845:39 *1149:14 0.000178206
14 *935:12 *1149:14 0
15 *1078:14 *1149:14 0
*RES
1 *3606:X *1149:14 48.6314 
2 *1149:14 *2775:B2 40 
*END

*D_NET *1150 0.00270808
*CONN
*I *2699:A I *D sg13g2_inv_1
*I *3607:X O *D sg13g2_buf_1
*CAP
1 *2699:A 3.4017e-05
2 *3607:X 0.000853661
3 *1150:12 0.000887678
4 *1150:12 *1151:8 0
5 *1150:12 *1166:22 1.54008e-05
6 *1150:12 *1166:37 0.000161035
7 *1150:12 *1177:16 7.34842e-05
8 *3034:D *1150:12 0.000179384
9 *3607:A *1150:12 0
10 *3609:A *2699:A 1.54008e-05
11 *376:10 *2699:A 1.54008e-05
12 *493:16 *1150:12 7.34842e-05
13 *764:21 *1150:12 0
14 *877:25 *1150:12 0
15 *895:88 *1150:12 0
16 *1117:12 *1150:12 0.000399133
17 *1124:16 *1150:12 0
*RES
1 *3607:X *1150:12 48.9919 
2 *1150:12 *2699:A 40.3193 
*END

*D_NET *1151 0.00437099
*CONN
*I *2698:A I *D sg13g2_inv_1
*I *3608:X O *D sg13g2_buf_1
*CAP
1 *2698:A 0.000279701
2 *3608:X 0.000456277
3 *1151:8 0.000735978
4 *1151:8 *2848:A 0.000214458
5 *1151:8 *2852:A1 0.000286828
6 *1151:8 *1168:14 0.000535558
7 s_axil_bresp[0] *2698:A 0.000499516
8 *375:8 *2698:A 0.000467114
9 *491:22 *1151:8 0.000660404
10 *895:88 *1151:8 0
11 *895:102 *1151:8 0.000235161
12 *1051:12 *2698:A 0
13 *1150:12 *1151:8 0
*RES
1 *3608:X *1151:8 46.5302 
2 *1151:8 *2698:A 43.3475 
*END

*D_NET *1152 0.00376918
*CONN
*I *2697:A I *D sg13g2_inv_1
*I *3609:X O *D sg13g2_buf_1
*CAP
1 *2697:A 0.000608549
2 *3609:X 0.000608618
3 *1152:14 0.00121717
4 *2849:B *1152:14 0.000371477
5 *3036:A *2697:A 0
6 *3037:A1 *2697:A 0
7 *3279:D *2697:A 0.000241089
8 *3515:A *2697:A 0
9 *326:8 *1152:14 0.000453571
10 *492:12 *1152:14 0.000112426
11 *621:54 *2697:A 8.00842e-05
12 *764:38 *1152:14 7.61954e-05
13 *811:20 *2697:A 0
14 *821:10 *1152:14 0
15 *821:21 *2697:A 0
16 *825:34 *2697:A 0
17 *895:73 *2697:A 0
*RES
1 *3609:X *1152:14 46.6847 
2 *1152:14 *2697:A 45.5105 
*END

*D_NET *1153 0.00869287
*CONN
*I *2676:A I *D sg13g2_inv_1
*I *3610:X O *D sg13g2_buf_1
*CAP
1 *2676:A 0
2 *3610:X 4.2882e-05
3 *1153:14 0.000791973
4 *1153:8 0.000834855
5 *1153:8 *1157:8 0
6 *1153:14 *1157:14 0.00363374
7 *3586:A *1153:8 0
8 *3610:A *1153:8 0
9 *1034:10 *1153:14 0
10 *1057:12 *1153:14 0.00338942
11 *1079:24 *1153:14 0
*RES
1 *3610:X *1153:8 40.3193 
2 *1153:8 *1153:14 38.0662 
3 *1153:14 *2676:A 20 
*END

*D_NET *1154 0.0015234
*CONN
*I *2696:A I *D sg13g2_inv_1
*I *3611:X O *D sg13g2_buf_1
*CAP
1 *2696:A 0.000406807
2 *3611:X 0.000406807
3 *2696:A *2695:A 0.000436014
4 *2849:B *2696:A 0
5 *3279:CLK *2696:A 0
6 *3372:A *2696:A 0
7 *372:16 *2696:A 0
8 *821:10 *2696:A 0.00027377
*RES
1 *3611:X *2696:A 44.7895 
*END

*D_NET *1155 0.00209587
*CONN
*I *2695:A I *D sg13g2_inv_1
*I *3612:X O *D sg13g2_buf_1
*CAP
1 *2695:A 0.000248606
2 *3612:X 0.000195379
3 *1155:10 0.000443985
4 *1155:10 *1164:10 0.000338353
5 *2696:A *2695:A 0.000436014
6 *2703:A *1155:10 7.94445e-05
7 *2849:B *2695:A 0
8 *3279:CLK *2695:A 0.000274644
9 *376:10 *1155:10 7.94445e-05
10 *764:38 *1155:10 0
*RES
1 *3612:X *1155:10 42.1218 
2 *1155:10 *2695:A 42.9149 
*END

*D_NET *1156 0.00427096
*CONN
*I *2675:A I *D sg13g2_inv_1
*I *3613:X O *D sg13g2_buf_1
*CAP
1 *2675:A 0
2 *3613:X 0.000135784
3 *1156:16 0.00108593
4 *1156:10 0.00122172
5 *1156:16 *1158:14 0
6 *1156:16 *1159:10 0.00135628
7 *3598:A *1156:10 0
8 *3613:A *1156:10 0
9 *349:8 *1156:16 0.000236057
10 *357:8 *1156:16 0.000235187
11 *1023:18 *1156:10 0
12 *1023:18 *1156:16 0
13 *1141:8 *1156:10 0
14 *1141:14 *1156:16 0
*RES
1 *3613:X *1156:10 41.2875 
2 *1156:10 *1156:16 31.5463 
3 *1156:16 *2675:A 20 
*END

*D_NET *1157 0.00777941
*CONN
*I *2674:A I *D sg13g2_inv_1
*I *3614:X O *D sg13g2_buf_1
*CAP
1 *2674:A 0
2 *3614:X 6.94173e-05
3 *1157:14 0.00134614
4 *1157:8 0.00141556
5 *1157:8 *1159:10 0
6 *353:8 *1157:14 0
7 *1012:18 *1157:14 0
8 *1023:12 *1157:14 0
9 *1023:18 *1157:14 0
10 *1034:10 *1157:14 0
11 *1057:12 *1157:14 0
12 *1112:16 *1157:14 0.00131456
13 *1153:8 *1157:8 0
14 *1153:14 *1157:14 0.00363374
*RES
1 *3614:X *1157:8 40.3508 
2 *1157:8 *1157:14 40.3219 
3 *1157:14 *2674:A 20 
*END

*D_NET *1158 0.00742377
*CONN
*I *2673:A I *D sg13g2_inv_1
*I *3615:X O *D sg13g2_buf_1
*CAP
1 *2673:A 0
2 *3615:X 0.000170581
3 *1158:14 0.000931192
4 *1158:8 0.00110177
5 *1158:14 *1159:10 0.00135794
6 *3613:A *1158:8 0.000241456
7 *3615:A *1158:8 0
8 *352:8 *1158:14 0
9 *357:8 *1158:14 0.000235971
10 *1023:18 *1158:14 0
11 *1079:24 *1158:14 0.00338486
12 *1141:14 *1158:14 0
13 *1156:16 *1158:14 0
*RES
1 *3615:X *1158:8 41.6171 
2 *1158:8 *1158:14 35.9959 
3 *1158:14 *2673:A 20 
*END

*D_NET *1159 0.00375058
*CONN
*I *2672:A I *D sg13g2_inv_1
*I *3616:X O *D sg13g2_buf_1
*CAP
1 *2672:A 0
2 *3616:X 0.000397319
3 *1159:10 0.000397319
4 s_axil_awready *1159:10 0.000241716
5 *1156:16 *1159:10 0.00135628
6 *1157:8 *1159:10 0
7 *1158:14 *1159:10 0.00135794
*RES
1 *3616:X *1159:10 47.9001 
2 *1159:10 *2672:A 40 
*END

*D_NET *1160 0.00760484
*CONN
*I *2779:B2 I *D sg13g2_a22oi_1
*I *3617:X O *D sg13g2_buf_1
*CAP
1 *2779:B2 2.13933e-05
2 *3617:X 0
3 *1160:18 2.13933e-05
4 *1160:14 0.00268651
5 *1160:12 0.00268651
6 *1160:10 0.0010787
7 *1160:6 0.0010787
8 *2779:B2 *1174:26 0
9 *440:10 *2779:B2 3.16237e-05
10 *717:20 *1160:14 0
11 *909:20 *1160:14 0
*RES
1 *3617:X *1160:6 40 
2 *1160:6 *1160:10 32.8647 
3 *1160:10 *1160:12 20 
4 *1160:12 *1160:14 33.2278 
5 *1160:14 *1160:18 40 
6 *1160:18 *2779:B2 40.2112 
*END

*D_NET *1161 0.0049994
*CONN
*I *2671:A I *D sg13g2_inv_1
*I *3618:X O *D sg13g2_buf_1
*CAP
1 *2671:A 0.000491744
2 *3618:X 0.000938952
3 *1161:10 0.0014307
4 *2671:A *1162:12 0.000143171
5 *2896:A *1161:10 0
6 *2901:A2 *1161:10 0
7 *3209:RESET_B *2671:A 0
8 *3211:RESET_B *2671:A 0
9 *363:16 *2671:A 0.000521532
10 *522:10 *1161:10 0
11 *524:8 *1161:10 0
12 *764:21 *1161:10 0.0014733
*RES
1 *3618:X *1161:10 49.7232 
2 *1161:10 *2671:A 45.2942 
*END

*D_NET *1162 0.0056056
*CONN
*I *2686:A I *D sg13g2_inv_1
*I *3619:X O *D sg13g2_buf_1
*CAP
1 *2686:A 0
2 *3619:X 0
3 *1162:12 0.00094733
4 *1162:6 0.00094733
5 *2671:A *1162:12 0.000143171
6 *3189:CLK *1162:12 0
7 *3209:RESET_B *1162:12 0
8 *3209:D *1162:12 8.00842e-05
9 *292:10 *1162:12 0.00126358
10 *363:16 *1162:12 0
11 *493:41 *1162:12 0
12 *736:25 *1162:12 0
13 *764:10 *1162:12 0
14 *764:19 *1162:12 0
15 *820:12 *1162:12 0
16 *889:79 *1162:12 0.00222411
*RES
1 *3619:X *1162:6 40 
2 *1162:6 *1162:12 33.802 
3 *1162:12 *2686:A 20 
*END

*D_NET *1163 0.00552692
*CONN
*I *2685:A I *D sg13g2_inv_1
*I *3620:X O *D sg13g2_buf_1
*CAP
1 *2685:A 0
2 *3620:X 0.000440485
3 *1163:16 0.000902916
4 *1163:12 0.0013434
5 *2891:B1 *1163:12 0.000143171
6 *2891:A1 *1163:12 0.000176133
7 *2895:B1 *1163:12 0
8 *358:8 *1163:16 0.00156668
9 *809:30 *1163:12 0.000175903
10 *809:55 *1163:12 0
11 *873:26 *1163:16 0.000778236
12 *873:32 *1163:16 0
13 *1023:18 *1163:16 0
14 *1113:18 *1163:12 0
*RES
1 *3620:X *1163:12 44.2642 
2 *1163:12 *1163:16 30.9798 
3 *1163:16 *2685:A 20 
*END

*D_NET *1164 0.0241711
*CONN
*I *3100:D I *D sg13g2_nand4_1
*I *2984:D I *D sg13g2_nand4_1
*I *3422:A I *D sg13g2_buf_1
*I *3621:X O *D sg13g2_buf_1
*CAP
1 *3100:D 0.000680278
2 *2984:D 0
3 *3422:A 0
4 *3621:X 6.34964e-05
5 *1164:42 0.00133066
6 *1164:29 0.00133831
7 *1164:22 0.00118846
8 *1164:12 0.00187639
9 *1164:10 0.00405002
10 *1164:8 0.00411352
11 *1164:10 *1180:12 0
12 *2850:B *1164:8 1.54556e-05
13 *2850:A *1164:8 0.000111838
14 *2968:A *3100:D 0
15 *3099:B1 *3100:D 0
16 *3112:B *1164:22 0.000112227
17 *3189:CLK *1164:22 0
18 *3405:A *1164:22 0.000240668
19 *3:18 *1164:42 0
20 *352:16 *3100:D 0
21 *492:22 *1164:10 0.0054919
22 *493:41 *1164:10 0
23 *692:10 *1164:22 0
24 *698:6 *3100:D 0.000176658
25 *705:6 *1164:29 0
26 *705:6 *1164:42 0
27 *705:12 *1164:22 0
28 *705:12 *1164:29 0
29 *714:48 *1164:8 9.63823e-05
30 *764:51 *1164:10 0
31 *809:112 *1164:10 7.34889e-05
32 *820:21 *1164:10 0
33 *856:94 *1164:29 1.54556e-05
34 *856:94 *1164:42 6.47875e-05
35 *861:26 *1164:22 0
36 *863:34 *1164:22 0
37 *863:34 *1164:29 0
38 *863:40 *1164:42 0
39 *866:66 *3100:D 0.00111607
40 *868:114 *1164:10 0.000287788
41 *881:10 *1164:22 8.01612e-05
42 *881:98 *1164:22 4.78343e-05
43 *883:70 *1164:42 0.00113488
44 *885:58 *1164:42 0.000125963
45 *1155:10 *1164:10 0.000338353
*RES
1 *3621:X *1164:8 40.7519 
2 *1164:8 *1164:10 40.3966 
3 *1164:10 *1164:12 20 
4 *1164:12 *1164:22 49.2415 
5 *1164:22 *3422:A 20 
6 *1164:12 *1164:29 6.592 
7 *1164:29 *2984:D 20 
8 *1164:29 *1164:42 47.5602 
9 *1164:42 *3100:D 27.8074 
*END

*D_NET *1165 0.0322265
*CONN
*I *3075:D I *D sg13g2_nand4_1
*I *3083:D I *D sg13g2_nand4_1
*I *3420:A I *D sg13g2_buf_1
*I *3622:X O *D sg13g2_buf_1
*CAP
1 *3075:D 2.18538e-05
2 *3083:D 0
3 *3420:A 0.000540989
4 *3622:X 5.80404e-05
5 *1165:57 0.000596884
6 *1165:49 0.000965592
7 *1165:41 0.00139857
8 *1165:24 0.001549
9 *1165:22 0.00321109
10 *1165:20 0.00321109
11 *1165:18 0.00380561
12 *1165:8 0.00386365
13 *1165:18 *1166:12 0.000290068
14 *1165:18 *1166:22 0
15 *2923:C *3420:A 0.000112399
16 *3065:B *1165:57 0
17 *3083:C *1165:57 0.000596756
18 *3193:RESET_B *1165:41 0
19 *3193:D *1165:41 0
20 *3215:RESET_B *1165:22 0
21 *3215:D *1165:22 0
22 *3520:A *1165:22 0
23 *3615:A *1165:22 0.000500057
24 *217:9 *1165:18 0
25 *225:13 *1165:18 0
26 *298:16 *1165:22 0.000696176
27 *358:18 *1165:22 0.00223602
28 *358:20 *1165:22 0
29 *361:18 *1165:49 0.00028128
30 *522:10 *1165:22 0
31 *725:10 *1165:41 0
32 *735:6 *1165:22 0
33 *736:25 *1165:22 0.000231335
34 *736:29 *1165:22 0
35 *736:35 *1165:22 0
36 *736:35 *1165:49 0.000435402
37 *741:22 *3075:D 3.23417e-05
38 *741:22 *1165:41 0.00134282
39 *790:18 *1165:57 0
40 *814:49 *1165:57 0
41 *821:88 *1165:18 0
42 *861:78 *1165:49 0
43 *864:36 *3420:A 0
44 *864:38 *1165:22 7.97045e-05
45 *878:49 *1165:49 0.00040317
46 *878:59 *1165:57 0.000501331
47 *878:66 *1165:49 4.77425e-05
48 *885:76 *3420:A 0.000182121
49 *888:18 *3075:D 4.77425e-05
50 *888:18 *1165:41 0.000144979
51 *889:64 *1165:22 0
52 *892:64 *3420:A 0.000500631
53 *1034:12 *1165:18 0.00050196
54 *1087:10 *1165:18 0.000288087
55 *1099:12 *1165:18 0
56 *1103:10 *1165:22 0
57 *1107:8 *1165:18 0.00103444
58 *1112:10 *1165:18 0
59 *1112:16 *1165:18 0
60 *1121:10 *1165:18 0
61 *1125:12 *1165:18 0.000341619
62 *1129:10 *1165:18 0.00172611
63 *1130:8 *1165:18 0.000449845
64 *1133:8 *1165:18 0
*RES
1 *3622:X *1165:8 40.5356 
2 *1165:8 *1165:18 42.4463 
3 *1165:18 *1165:20 20 
4 *1165:20 *1165:22 31.4665 
5 *1165:22 *1165:24 20 
6 *1165:24 *3420:A 46.0461 
7 *1165:24 *1165:41 31.0519 
8 *1165:41 *1165:49 44.2539 
9 *1165:49 *1165:57 46.4478 
10 *1165:57 *3083:D 20 
11 *1165:41 *3075:D 20.3193 
*END

*D_NET *1166 0.0157379
*CONN
*I *3046:D I *D sg13g2_nand4_1
*I *3050:D I *D sg13g2_nand4_1
*I *3418:A I *D sg13g2_buf_1
*I *3623:X O *D sg13g2_buf_1
*CAP
1 *3046:D 0.000128403
2 *3050:D 0
3 *3418:A 0
4 *3623:X 0.000204452
5 *1166:62 0.000939478
6 *1166:51 0.000935061
7 *1166:43 0.000646359
8 *1166:37 0.00111192
9 *1166:22 0.00260815
10 *1166:12 0.00222305
11 *1166:37 *1177:23 0.000867795
12 *3044:B *1166:62 0
13 *3050:C *1166:43 0
14 *3050:C *1166:51 4.77425e-05
15 *3050:C *1166:62 1.54008e-05
16 *3522:A *1166:22 0
17 *3525:A *1166:22 0
18 *3526:A *1166:22 0.000403263
19 *3527:A *1166:62 0
20 *3607:A *1166:22 8.00842e-05
21 *3607:A *1166:37 0.000176292
22 *227:9 *1166:22 0.00119345
23 *364:12 *1166:62 0
24 *377:10 *1166:43 0
25 *621:82 *1166:43 0.000112552
26 *636:10 *1166:43 0.000209856
27 *638:8 *1166:51 0.000232389
28 *639:10 *1166:51 0
29 *697:206 *1166:62 0
30 *697:218 *1166:62 0
31 *764:21 *1166:37 7.34889e-05
32 *868:63 *1166:62 0.00034053
33 *868:67 *1166:62 0.00141207
34 *868:82 *3046:D 0
35 *873:55 *1166:51 0
36 *877:44 *1166:62 0
37 *877:50 *1166:62 0
38 *886:52 *3046:D 1.54008e-05
39 *886:88 *1166:51 4.77425e-05
40 *1034:12 *1166:22 0.00124648
41 *1093:12 *1166:22 0
42 *1124:16 *1166:22 0
43 *1150:12 *1166:22 1.54008e-05
44 *1150:12 *1166:37 0.000161035
45 *1165:18 *1166:12 0.000290068
46 *1165:18 *1166:22 0
*RES
1 *3623:X *1166:12 42.9664 
2 *1166:12 *1166:22 42.6559 
3 *1166:22 *3418:A 20 
4 *1166:22 *1166:37 47.2615 
5 *1166:37 *1166:43 45.0779 
6 *1166:43 *1166:51 41.4111 
7 *1166:51 *3050:D 20 
8 *1166:51 *1166:62 30.2176 
9 *1166:62 *3046:D 40.9682 
*END

*D_NET *1167 0.0115918
*CONN
*I *3005:D I *D sg13g2_nand4_1
*I *3013:D I *D sg13g2_nand4_1
*I *3416:A I *D sg13g2_buf_1
*I *3624:X O *D sg13g2_buf_1
*CAP
1 *3005:D 0.000649673
2 *3013:D 0
3 *3416:A 0
4 *3624:X 0.00143756
5 *1167:31 0.00155376
6 *1167:29 0.00106946
7 *1167:16 0.000629088
8 *1167:8 0.00190128
9 *3005:D *1192:26 0
10 *1167:8 *1180:33 0
11 *2998:B1 *1167:16 0
12 *3001:B *1167:16 0
13 *3005:C *3005:D 0.000144417
14 *3009:C *1167:31 0
15 *3009:A *1167:31 0
16 *3013:B *3005:D 0
17 *3013:C *3005:D 1.54556e-05
18 *3013:C *1167:31 0.00046724
19 *3281:CLK *1167:8 0
20 *3287:CLK *1167:8 0
21 *3415:A *1167:16 8.00998e-05
22 *3528:A *1167:8 0
23 *372:16 *1167:8 0
24 *374:18 *1167:31 0
25 *376:10 *1167:8 0.00220805
26 *376:14 *1167:16 0
27 *616:10 *3005:D 0
28 *619:10 *1167:31 0
29 *709:73 *1167:8 0.000371965
30 *812:10 *1167:16 0
31 *875:15 *1167:16 8.01938e-05
32 *875:15 *1167:29 0.000194275
33 *875:15 *1167:31 0.000435113
34 *887:59 *3005:D 0
35 *887:59 *1167:31 0
36 *887:87 *1167:31 0
37 *887:93 *1167:16 0.000144441
38 *887:93 *1167:29 0.000209676
*RES
1 *3624:X *1167:8 35.413 
2 *1167:8 *1167:16 44.532 
3 *1167:16 *3416:A 20 
4 *1167:16 *1167:29 41.9982 
5 *1167:29 *1167:31 8.5387 
6 *1167:31 *3013:D 20 
7 *1167:31 *3005:D 24.1222 
*END

*D_NET *1168 0.00510787
*CONN
*I *2848:A I *D sg13g2_nand2_1
*I *2850:C I *D sg13g2_nand4_1
*I *2852:A1 I *D sg13g2_a21o_1
*I *3625:X O *D sg13g2_buf_1
*CAP
1 *2848:A 0.000197911
2 *2850:C 4.92458e-05
3 *2852:A1 0.000302383
4 *3625:X 0.000425689
5 *1168:14 0.000488778
6 *1168:12 0.00076075
7 *2850:A *2850:C 0
8 *2850:D *2850:C 7.68316e-05
9 *2854:A *1168:12 0
10 *3120:C *1168:12 0
11 *3120:A *1168:12 0
12 *3323:A *1168:12 0
13 *3612:A *2850:C 0
14 *3612:A *2852:A1 0.000208156
15 *3625:A *1168:12 0
16 *241:12 *2848:A 8.01776e-05
17 *282:12 *1168:12 2.18115e-05
18 *347:10 *1168:12 0.000209632
19 *491:10 *2848:A 0.000553002
20 *491:10 *1168:14 0.000342718
21 *493:16 *2850:C 0
22 *493:16 *2852:A1 0
23 *714:16 *1168:12 0
24 *714:29 *1168:12 0
25 *764:51 *2852:A1 0
26 *895:108 *1168:12 0.000177399
27 *1034:35 *2852:A1 0.000176541
28 *1151:8 *2848:A 0.000214458
29 *1151:8 *2852:A1 0.000286828
30 *1151:8 *1168:14 0.000535558
*RES
1 *3625:X *1168:12 44.4805 
2 *1168:12 *1168:14 2.575 
3 *1168:14 *2852:A1 43.1724 
4 *1168:14 *2850:C 40.5124 
5 *1168:12 *2848:A 42.8634 
*END

*D_NET *1169 0.0310474
*CONN
*I *3087:B1 I *D sg13g2_a21oi_1
*I *3707:A I *D sg13g2_buf_1
*I *2719:B2 I *D sg13g2_a22oi_1
*I *3305:Q O *D sg13g2_dfrbpq_1
*CAP
1 *3087:B1 0
2 *3707:A 0
3 *2719:B2 0
4 *3305:Q 7.45491e-05
5 *1169:39 0.000732579
6 *1169:33 0.00345257
7 *1169:31 0.00277104
8 *1169:22 4.78929e-05
9 *1169:16 0.00470878
10 *1169:14 0.0046575
11 *1169:8 0.000122215
12 *1169:39 *1181:70 0.000277197
13 *2719:A2 *1169:22 4.77425e-05
14 *2729:A1 *1169:22 0
15 *2729:B1 *1169:22 0
16 *3088:D *1169:8 0.00012079
17 *395:10 *1169:22 4.77425e-05
18 *571:61 *1169:8 0
19 *571:74 *1169:16 0
20 *671:101 *1169:14 0
21 *717:16 *1169:16 0.00827502
22 *717:20 *1169:33 0
23 *717:24 *1169:39 0
24 *720:58 *1169:33 0
25 *723:81 *1169:33 0
26 *728:26 *1169:33 0.00360373
27 *740:44 *1169:16 0.000112957
28 *740:67 *1169:16 0.000490772
29 *740:67 *1169:31 7.86588e-05
30 *752:21 *1169:16 0
31 *752:21 *1169:31 0
32 *752:37 *1169:33 0
33 *755:45 *1169:33 0
34 *756:30 *1169:16 0
35 *790:14 *1169:16 0
36 *839:70 *1169:22 0
37 *909:72 *1169:16 0.0014257
38 *933:16 *1169:39 0
*RES
1 *3305:Q *1169:8 20.9167 
2 *1169:8 *1169:14 40.3502 
3 *1169:14 *1169:16 56.1247 
4 *1169:16 *1169:22 40.5356 
5 *1169:22 *2719:B2 20 
6 *1169:16 *1169:31 20.5356 
7 *1169:31 *1169:33 35.947 
8 *1169:33 *1169:39 47.8898 
9 *1169:39 *3707:A 40 
10 *1169:8 *3087:B1 20 
*END

*D_NET *1170 0.0181212
*CONN
*I *2758:A1 I *D sg13g2_a21oi_1
*I *3708:A I *D sg13g2_buf_1
*I *3062:B1 I *D sg13g2_a21oi_1
*I *3293:Q O *D sg13g2_dfrbpq_1
*CAP
1 *2758:A1 0
2 *3708:A 0.00269618
3 *3062:B1 0.000320854
4 *3293:Q 0.000309203
5 *1170:35 0.00336132
6 *1170:29 0.00209502
7 *1170:8 0.00205994
8 *3708:A *3713:A 0.00076168
9 *3708:A *3715:A 0
10 *3708:A *1172:61 0.00175955
11 *3708:A *1172:69 0
12 *3708:A *1173:44 0
13 *3708:A *1174:68 0
14 *3708:A *1179:32 0
15 gpio_dir[20] *3708:A 0
16 gpio_dir[21] *3708:A 0
17 *2789:A1 *3708:A 0.000143638
18 *2789:B1 *3708:A 0.000208063
19 *3062:A1 *3062:B1 0
20 *3065:A *3062:B1 1.53311e-05
21 *3195:CLK *1170:35 0
22 *3293:D *3062:B1 4.76874e-05
23 *10:16 *3708:A 0.000112558
24 *446:12 *3708:A 0
25 *646:96 *3062:B1 0
26 *701:38 *1170:35 0
27 *710:46 *3062:B1 0
28 *713:82 *1170:35 0
29 *753:18 *1170:29 0.00120525
30 *754:47 *1170:29 0
31 *768:12 *1170:35 0
32 *768:16 *1170:35 0
33 *769:37 *1170:35 0
34 *776:8 *3708:A 0
35 *794:33 *3062:B1 0.000554356
36 *794:33 *1170:8 0.000831495
37 *832:74 *1170:35 0.00129744
38 *1016:10 *1170:35 0.00034162
*RES
1 *3293:Q *1170:8 44.0582 
2 *1170:8 *3062:B1 43.4608 
3 *1170:8 *1170:29 33.5342 
4 *1170:29 *1170:35 48.755 
5 *1170:35 *3708:A 46.2135 
6 *1170:29 *2758:A1 20 
*END

*D_NET *1171 0.00938398
*CONN
*I *2783:B2 I *D sg13g2_a22oi_1
*I *3626:X O *D sg13g2_buf_1
*CAP
1 *2783:B2 0.000780544
2 *3626:X 0.000486934
3 *1171:18 0.00160554
4 *1171:10 0.00131193
5 *2730:A2 *1171:10 0
6 *2744:A1 *1171:18 0
7 *2745:A2 *1171:18 0.000546029
8 *2783:B1 *2783:B2 0
9 *2803:A2 *2783:B2 0
10 *3462:A *2783:B2 8.00842e-05
11 *99:14 *2783:B2 0.000207882
12 *392:41 *2783:B2 0
13 *392:41 *1171:18 0.00112954
14 *434:14 *2783:B2 0
15 *460:20 *1171:18 0
16 *700:53 *2783:B2 0
17 *729:33 *2783:B2 0.000348027
18 *760:14 *1171:10 0.00139436
19 *760:14 *1171:18 0
20 *760:26 *2783:B2 0
21 *797:12 *1171:18 4.72458e-05
22 *804:12 *2783:B2 0.000543204
23 *840:26 *1171:18 0
24 *844:10 *1171:10 0.000289113
25 *844:12 *1171:10 7.51285e-05
26 *851:20 *2783:B2 0.000336166
27 *901:85 *1171:10 0
28 *901:85 *1171:18 2.17891e-05
29 *1071:18 *1171:10 0.000180459
*RES
1 *3626:X *1171:10 46.8495 
2 *1171:10 *1171:18 48.7035 
3 *1171:18 *2783:B2 48.5387 
*END

*D_NET *1172 0.0294568
*CONN
*I *3709:A I *D sg13g2_buf_1
*I *2762:A1 I *D sg13g2_a21oi_1
*I *3066:B1 I *D sg13g2_a21oi_1
*I *3295:Q O *D sg13g2_dfrbpq_1
*CAP
1 *3709:A 0
2 *2762:A1 2.31146e-05
3 *3066:B1 0.000260749
4 *3295:Q 0.000834326
5 *1172:69 0.000378261
6 *1172:61 0.00197479
7 *1172:49 0.00462883
8 *1172:30 0.00347154
9 *1172:28 0.00098971
10 *1172:49 *2774:A1 2.20966e-05
11 *1172:49 *1175:44 0.00134603
12 *1172:61 *1174:68 0.0025602
13 *1172:69 *3713:A 0.000241979
14 gpio_dir[21] *1172:69 1.54008e-05
15 gpio_dir[22] *1172:69 0.000499247
16 *2762:A2 *2762:A1 4.23522e-05
17 *3066:A1 *3066:B1 8.02763e-05
18 *3066:A2 *3066:B1 0
19 *3131:CLK *1172:28 0
20 *3708:A *1172:61 0.00175955
21 *3708:A *1172:69 0
22 *10:16 *1172:61 0
23 *252:10 *1172:30 0
24 *407:20 *1172:28 0.00030686
25 *429:10 *1172:49 0.000124575
26 *437:24 *1172:49 0
27 *443:18 *1172:49 0.00346215
28 *446:12 *1172:61 0.000530907
29 *721:44 *3066:B1 0
30 *721:44 *1172:28 0
31 *721:71 *1172:49 0
32 *722:45 *1172:49 0
33 *740:28 *3066:B1 0
34 *740:28 *1172:28 0.000394206
35 *766:16 *2762:A1 4.23522e-05
36 *795:8 *1172:30 0.000283565
37 *828:10 *1172:49 7.51285e-05
38 *828:25 *1172:49 0
39 *833:42 *1172:30 0
40 *833:42 *1172:49 0
41 *833:59 *1172:30 0
42 *834:23 *1172:49 0
43 *837:43 *1172:49 0
44 *839:25 *1172:49 0.00101051
45 *839:29 *1172:30 7.48178e-05
46 *839:29 *1172:49 0.00123903
47 *843:23 *1172:49 0
48 *899:12 *1172:49 0.000338638
49 *902:19 *1172:49 0.000497998
50 *902:45 *1172:49 0.00164033
51 *903:27 *1172:49 0
52 *909:66 *1172:30 7.30101e-05
53 *1070:14 *1172:69 0.000234224
*RES
1 *3295:Q *3066:B1 42.5647 
2 *3295:Q *1172:28 46.7053 
3 *1172:28 *1172:30 3.5638 
4 *1172:30 *2762:A1 40.2832 
5 *1172:30 *1172:49 42.4463 
6 *1172:49 *1172:61 38.9932 
7 *1172:61 *1172:69 44.4393 
8 *1172:69 *3709:A 20 
*END

*D_NET *1173 0.0238124
*CONN
*I *3710:A I *D sg13g2_buf_1
*I *2766:A1 I *D sg13g2_a21oi_1
*I *3070:B1 I *D sg13g2_a21oi_1
*I *3297:Q O *D sg13g2_dfrbpq_1
*CAP
1 *3710:A 0
2 *2766:A1 0.000118923
3 *3070:B1 0.00012197
4 *3297:Q 0
5 *1173:58 0.000591105
6 *1173:44 0.00199234
7 *1173:40 0.00518359
8 *1173:29 0.00403123
9 *1173:25 0.00136163
10 *1173:21 0.00251948
11 *1173:4 0.00140977
12 *1173:40 *1182:12 0
13 *1173:44 *3713:A 0.000435309
14 *1173:44 *3715:A 0
15 *1173:44 *3721:A 0
16 *1173:58 *3715:A 0
17 gpio_dir[22] *1173:44 0.000176427
18 *2766:A2 *2766:A1 0.000208225
19 *2766:B1 *2766:A1 0.000208225
20 *2841:B1 *1173:58 0
21 *3070:A1 *3070:B1 0
22 *3183:RESET_B *1173:58 8.00842e-05
23 *3183:D *1173:58 0
24 *3301:RESET_B *1173:25 0
25 *3301:D *1173:25 0
26 *3708:A *1173:44 0
27 *263:8 *1173:40 0
28 *389:24 *1173:40 0
29 *437:18 *1173:25 0.000985789
30 *446:12 *1173:40 0
31 *473:14 *1173:58 0.000447598
32 *488:24 *1173:58 0.000447597
33 *659:10 *3070:B1 0
34 *659:10 *1173:21 0
35 *697:129 *1173:21 0
36 *700:20 *1173:40 0
37 *700:69 *1173:40 0
38 *703:10 *1173:44 0.00014416
39 *712:16 *1173:21 0
40 *712:18 *1173:21 0
41 *712:22 *1173:21 0
42 *720:41 *1173:25 0
43 *730:8 *1173:21 0
44 *730:26 *1173:21 0
45 *740:16 *1173:21 0
46 *746:31 *1173:40 0.000182121
47 *751:48 *1173:58 0.000305521
48 *794:27 *1173:25 0.00208524
49 *819:96 *1173:21 0
50 *832:66 *1173:40 0.000340288
51 *832:94 *1173:40 0
52 *840:14 *1173:40 0
53 *909:72 *1173:21 7.31655e-05
54 *909:78 *3070:B1 0.000103553
55 *909:78 *1173:21 0.000259106
*RES
1 *3297:Q *1173:4 20 
2 *1173:4 *3070:B1 21.4523 
3 *1173:4 *1173:21 33.5239 
4 *1173:21 *1173:25 33.9462 
5 *1173:25 *1173:29 21.0918 
6 *1173:29 *2766:A1 41.4008 
7 *1173:29 *1173:40 31.9918 
8 *1173:40 *1173:44 32.6484 
9 *1173:44 *1173:58 47.0967 
10 *1173:58 *3710:A 20 
*END

*D_NET *1174 0.0252885
*CONN
*I *3711:A I *D sg13g2_buf_1
*I *3074:B1 I *D sg13g2_a21oi_1
*I *2771:B2 I *D sg13g2_a22oi_1
*I *3299:Q O *D sg13g2_dfrbpq_1
*CAP
1 *3711:A 0
2 *3074:B1 8.42216e-05
3 *2771:B2 0
4 *3299:Q 0
5 *1174:68 0.00309108
6 *1174:56 0.00392682
7 *1174:32 9.96867e-05
8 *1174:26 0.00259022
9 *1174:8 0.00316989
10 *1174:4 0.00143087
11 *1174:56 *1176:8 0
12 *1174:68 *1179:32 0
13 *2779:B1 *1174:26 0
14 *2779:B2 *1174:26 0
15 *2779:A2 *1174:26 3.15716e-05
16 *2875:A *1174:68 0
17 *3061:A *1174:26 8.0216e-05
18 *3061:B *1174:26 0.000533007
19 *3077:A *3074:B1 0
20 *3195:CLK *1174:68 0
21 *3291:D *1174:26 0.000240728
22 *3394:A *1174:26 0
23 *3708:A *1174:68 0
24 *10:16 *1174:68 0
25 *336:8 *1174:8 0
26 *392:30 *1174:26 4.77425e-05
27 *392:41 *1174:26 0.000240957
28 *440:10 *1174:26 0
29 *452:18 *1174:26 0.0017525
30 *646:109 *1174:8 0
31 *670:8 *1174:8 0
32 *713:90 *1174:56 0
33 *725:47 *1174:26 0.00140489
34 *726:46 *1174:68 0
35 *726:58 *1174:68 0
36 *734:27 *1174:26 0
37 *735:37 *1174:26 0
38 *735:49 *3074:B1 2.46067e-05
39 *736:35 *1174:26 0
40 *744:35 *1174:8 0.000286447
41 *744:47 *3074:B1 6.93714e-05
42 *746:25 *1174:56 0
43 *750:10 *1174:56 0
44 *750:26 *1174:68 0
45 *754:47 *1174:56 0
46 *770:49 *1174:32 0
47 *781:8 *1174:68 4.75229e-05
48 *797:35 *1174:8 0.00187634
49 *797:35 *1174:26 0.000605753
50 *798:24 *1174:56 0
51 *799:22 *1174:56 0
52 *804:12 *1174:32 0
53 *822:102 *1174:56 0
54 *822:102 *1174:68 0.00017663
55 *832:74 *1174:68 0
56 *848:8 *1174:26 4.76053e-05
57 *851:8 *1174:26 4.77425e-05
58 *851:20 *1174:32 7.48466e-05
59 *854:24 *1174:68 0.000200304
60 *854:65 *1174:68 0.000176098
61 *908:18 *1174:56 0.000370664
62 *1172:61 *1174:68 0.0025602
*RES
1 *3299:Q *1174:4 20 
2 *1174:4 *1174:8 28.755 
3 *1174:8 *1174:26 48.1705 
4 *1174:26 *1174:32 40.8446 
5 *1174:32 *2771:B2 20 
6 *1174:8 *3074:B1 40.8858 
7 *1174:4 *1174:56 49.0125 
8 *1174:56 *1174:68 30.4056 
9 *1174:68 *3711:A 20 
*END

*D_NET *1175 0.0218263
*CONN
*I *3712:A I *D sg13g2_buf_1
*I *2774:A1 I *D sg13g2_a21oi_1
*I *3078:B1 I *D sg13g2_a21oi_1
*I *3301:Q O *D sg13g2_dfrbpq_1
*CAP
1 *3712:A 0
2 *2774:A1 0.000106079
3 *3078:B1 0.000449074
4 *3301:Q 0.00042131
5 *1175:70 0.000562067
6 *1175:64 0.000789708
7 *1175:56 0.00176718
8 *1175:44 0.00455784
9 *1175:31 0.00356771
10 *1175:10 0.00131372
11 *1175:56 *2814:A1 0
12 *1175:56 *3714:A 0
13 *1175:56 *1187:43 0
14 *1175:56 *1187:51 0.000370089
15 *1175:70 *3714:A 0
16 gpio_dir[28] *1175:70 0.00017562
17 *2756:A1 *1175:44 0
18 *2788:B1 *1175:56 1.54008e-05
19 *2788:A2 *1175:56 0
20 *2835:B1 *1175:64 7.33256e-05
21 *3078:A1 *3078:B1 0
22 *3151:CLK *1175:10 0
23 *3171:D *1175:56 0.000128189
24 *3181:D *1175:70 0
25 *3301:CLK *3078:B1 0.000208955
26 *3330:A *1175:56 0
27 *258:10 *1175:44 0
28 *262:8 *1175:10 0
29 *264:10 *1175:56 7.97013e-05
30 *423:8 *1175:44 0
31 *437:24 *2774:A1 0
32 *438:8 *1175:44 0
33 *442:8 *1175:44 0.000181695
34 *443:18 *1175:44 0.00167273
35 *444:10 *1175:44 7.51285e-05
36 *482:10 *1175:70 0.000498797
37 *484:12 *1175:70 0
38 *718:22 *1175:56 0.000273798
39 *722:45 *2774:A1 0
40 *722:45 *3078:B1 0
41 *722:45 *1175:31 0
42 *724:12 *1175:31 0
43 *733:31 *3078:B1 0
44 *751:33 *1175:56 0
45 *751:48 *1175:70 0
46 *758:46 *1175:10 0
47 *768:12 *3078:B1 0
48 *768:12 *1175:10 0
49 *769:31 *1175:10 0
50 *772:25 *1175:44 0
51 *785:23 *1175:64 7.51285e-05
52 *794:27 *3078:B1 0
53 *800:27 *1175:44 0
54 *831:33 *1175:56 0.000304879
55 *831:43 *1175:56 0.000321304
56 *831:81 *1175:56 8.00842e-05
57 *832:24 *1175:56 0.000144389
58 *832:35 *1175:56 1.54008e-05
59 *834:14 *1175:44 0.000178327
60 *834:31 *1175:44 0.00113468
61 *834:41 *1175:44 0.00012816
62 *967:10 *1175:44 0.000287256
63 *970:10 *1175:44 0.00050048
64 *1172:49 *2774:A1 2.20966e-05
65 *1172:49 *1175:44 0.00134603
*RES
1 *3301:Q *1175:10 43.7904 
2 *1175:10 *3078:B1 44.4084 
3 *1175:10 *1175:31 44.6659 
4 *1175:31 *2774:A1 41.1639 
5 *1175:31 *1175:44 34.711 
6 *1175:44 *1175:56 35.3161 
7 *1175:56 *1175:64 42.8325 
8 *1175:64 *1175:70 45.2942 
9 *1175:70 *3712:A 20 
*END

*D_NET *1176 0.0169455
*CONN
*I *3713:A I *D sg13g2_buf_1
*I *2778:A1 I *D sg13g2_a21oi_1
*I *3082:B1 I *D sg13g2_a21oi_1
*I *3303:Q O *D sg13g2_dfrbpq_1
*CAP
1 *3713:A 0.000463018
2 *2778:A1 0
3 *3082:B1 9.6596e-05
4 *3303:Q 0.000354874
5 *1176:50 0.0019133
6 *1176:44 0.00160485
7 *1176:31 0.000279471
8 *1176:23 0.00130581
9 *1176:8 0.00163238
10 *1176:50 *1188:37 0
11 *2818:B1 *1176:50 0.000493412
12 *2831:A1 *1176:50 0.000371591
13 *3173:CLK *1176:50 0
14 *3708:A *3713:A 0.00076168
15 *446:12 *1176:31 0.000126146
16 *458:18 *1176:44 0.000442347
17 *668:12 *3082:B1 0
18 *710:61 *3082:B1 0
19 *713:90 *1176:8 0.000447598
20 *725:66 *1176:44 0.000442762
21 *747:52 *1176:50 0
22 *748:37 *1176:31 0
23 *748:37 *1176:44 0
24 *750:34 *1176:50 0.00128742
25 *753:28 *1176:50 0.00118634
26 *799:18 *3082:B1 0.000181335
27 *799:18 *1176:8 0.00129489
28 *832:35 *1176:50 0.00113525
29 *832:94 *1176:31 0.000127785
30 *909:32 *1176:23 0.000319364
31 *1172:69 *3713:A 0.000241979
32 *1173:44 *3713:A 0.000435309
33 *1174:56 *1176:8 0
*RES
1 *3303:Q *1176:8 46.0358 
2 *1176:8 *3082:B1 41.1639 
3 *1176:8 *1176:23 33.081 
4 *1176:23 *1176:31 41.3493 
5 *1176:31 *2778:A1 20 
6 *1176:31 *1176:44 42.6162 
7 *1176:44 *1176:50 38.0971 
8 *1176:50 *3713:A 45.7113 
*END

*D_NET *1177 0.019897
*CONN
*I *3714:A I *D sg13g2_buf_1
*I *2782:A1 I *D sg13g2_a21oi_1
*I *3021:B1 I *D sg13g2_a21oi_1
*I *3273:Q O *D sg13g2_dfrbpq_1
*CAP
1 *3714:A 0.0024373
2 *2782:A1 0
3 *3021:B1 0
4 *3273:Q 0
5 *1177:31 0.00254919
6 *1177:23 0.00474527
7 *1177:16 0.00055787
8 *1177:10 0.00533664
9 *1177:6 0.000145393
10 *3714:A *1179:63 0
11 *3714:A *1187:51 0
12 *3714:A *1187:59 0
13 gpio_dir[30] *3714:A 0.00020825
14 *2782:A2 *3714:A 0.000466559
15 *2782:A2 *1177:31 1.54008e-05
16 *2788:B1 *3714:A 4.76068e-05
17 *2838:A2 *3714:A 4.77425e-05
18 *2840:A2 *3714:A 0
19 *3171:RESET_B *3714:A 0.000176722
20 *3181:RESET_B *3714:A 0
21 *3181:D *3714:A 0.000531537
22 *3464:A *3714:A 8.00842e-05
23 *378:16 *1177:23 0
24 *444:10 *1177:31 0.000233942
25 *484:12 *3714:A 0
26 *486:12 *3714:A 0
27 *514:14 *1177:23 0
28 *708:82 *1177:16 0.000614793
29 *718:22 *3714:A 0
30 *764:21 *1177:16 0
31 *772:25 *1177:31 0
32 *831:43 *3714:A 0
33 *841:94 *3714:A 0
34 *870:39 *1177:23 0.000343813
35 *872:29 *1177:23 0
36 *907:100 *3714:A 0.000306035
37 *937:10 *3714:A 0.000111596
38 *1070:14 *3714:A 0
39 *1150:12 *1177:16 7.34842e-05
40 *1166:37 *1177:23 0.000867795
41 *1175:56 *3714:A 0
42 *1175:70 *3714:A 0
*RES
1 *3273:Q *1177:6 40 
2 *1177:6 *1177:10 21.6171 
3 *1177:10 *1177:16 45.5414 
4 *1177:16 *3021:B1 20 
5 *1177:10 *1177:23 56.1247 
6 *1177:23 *1177:31 41.4111 
7 *1177:31 *2782:A1 20 
8 *1177:31 *3714:A 42.9711 
*END

*D_NET *1178 0.0223655
*CONN
*I *3715:A I *D sg13g2_buf_1
*I *2786:A1 I *D sg13g2_a21oi_1
*I *3025:B1 I *D sg13g2_a21oi_1
*I *3275:Q O *D sg13g2_dfrbpq_1
*CAP
1 *3715:A 0.00207769
2 *2786:A1 0
3 *3025:B1 0.000218802
4 *3275:Q 0.000308522
5 *1178:39 0.0032876
6 *1178:37 0.00139383
7 *1178:31 0.00414949
8 *1178:25 0.00421629
9 *1178:10 0.000469514
10 *1178:8 0.000308522
11 *3715:A *3721:A 0.00117928
12 *1178:31 *1179:32 0
13 *1178:39 *1179:32 0
14 gpio_dir[22] *3715:A 0.000306887
15 *2786:A2 *3715:A 7.92691e-05
16 *2841:A1 *3715:A 0
17 *2862:A2 *1178:31 0
18 *2867:A *1178:31 0
19 *2872:A2 *1178:31 0.00051748
20 *2876:B1 *1178:39 0
21 *2906:C *1178:31 0
22 *2918:C *1178:25 0
23 *3183:RESET_B *3715:A 0
24 *3183:D *3715:A 0
25 *3195:CLK *1178:31 0
26 *3197:RESET_B *1178:31 0
27 *3201:RESET_B *1178:39 0
28 *3205:RESET_B *1178:31 0.000338306
29 *3277:CLK *1178:25 7.52149e-05
30 *3351:A *3715:A 0
31 *3369:A *1178:31 0.000371614
32 *3427:A *1178:31 0
33 *3512:A *1178:31 0
34 *3708:A *3715:A 0
35 *12:10 *3715:A 4.77425e-05
36 *285:10 *1178:31 0
37 *366:16 *3025:B1 0.000339525
38 *366:16 *1178:25 0.000226753
39 *445:10 *3715:A 1.54008e-05
40 *467:12 *3715:A 0
41 *496:68 *1178:31 0
42 *496:83 *1178:31 0.000209763
43 *498:10 *1178:31 8.02431e-05
44 *502:10 *1178:31 0.000339267
45 *703:10 *3715:A 0
46 *708:8 *1178:31 0
47 *708:19 *1178:31 0
48 *708:44 *1178:31 0.000499561
49 *708:59 *3025:B1 6.47875e-05
50 *708:59 *1178:25 0.000550926
51 *708:69 *3025:B1 0.000339294
52 *751:33 *3715:A 0
53 *751:33 *1178:39 0
54 *776:8 *3715:A 0.000111699
55 *799:22 *1178:37 0
56 *811:39 *1178:8 0
57 *822:87 *1178:31 0
58 *822:102 *1178:31 0.000242236
59 *824:46 *1178:31 0
60 *858:56 *1178:31 0
61 *858:67 *1178:31 0
62 *887:8 *1178:31 0
63 *888:22 *1178:31 0
64 *1173:44 *3715:A 0
65 *1173:58 *3715:A 0
*RES
1 *3275:Q *1178:8 43.3166 
2 *1178:8 *1178:10 20 
3 *1178:10 *3025:B1 22.6986 
4 *1178:10 *1178:25 43.4505 
5 *1178:25 *1178:31 38.8413 
6 *1178:31 *1178:37 41.8334 
7 *1178:37 *1178:39 10.4854 
8 *1178:39 *2786:A1 20 
9 *1178:39 *3715:A 39.8323 
*END

*D_NET *1179 0.0266535
*CONN
*I *3716:A I *D sg13g2_buf_1
*I *2790:A1 I *D sg13g2_a21oi_1
*I *3029:B1 I *D sg13g2_a21oi_1
*I *3277:Q O *D sg13g2_dfrbpq_1
*CAP
1 *3716:A 0
2 *2790:A1 0.000189675
3 *3029:B1 0
4 *3277:Q 0.000564174
5 *1179:63 0.00181365
6 *1179:53 0.00223557
7 *1179:34 0.000611591
8 *1179:32 0.00505421
9 *1179:26 0.00507786
10 *1179:12 0.000540525
11 *1179:32 *1187:43 0
12 *1179:63 *3717:A 0.000306095
13 *1179:63 *1187:59 0.000692747
14 *2789:B1 *1179:32 8.00842e-05
15 *2816:A2 *1179:63 0
16 *2837:B1 *1179:63 0
17 *2862:A1 *1179:32 0.000144181
18 *2862:A2 *1179:32 0
19 *2875:A *1179:32 0
20 *2875:B *1179:32 0.00079202
21 *2876:A1 *1179:32 0
22 *2876:B1 *1179:32 0
23 *2882:B1 *1179:32 0
24 *2882:A1 *1179:32 0
25 *2906:C *1179:12 0
26 *3197:RESET_B *1179:32 0
27 *3197:D *1179:32 0.000371445
28 *3257:D *1179:32 0
29 *3275:RESET_B *1179:12 0
30 *3275:RESET_B *1179:26 0
31 *3275:D *1179:12 0
32 *3397:A *1179:63 0
33 *3427:A *1179:32 0.000112018
34 *3708:A *1179:32 0
35 *3714:A *1179:63 0
36 *13:10 *1179:63 0
37 *366:16 *1179:12 0
38 *366:16 *1179:32 0
39 *379:22 *1179:32 0.000524843
40 *448:10 *2790:A1 1.54556e-05
41 *483:10 *1179:63 0.000361132
42 *486:12 *1179:63 0
43 *496:91 *1179:32 0.000338601
44 *502:10 *1179:32 0
45 *517:10 *1179:32 0.000176475
46 *596:18 *1179:32 0.000919204
47 *625:8 *1179:12 0.000450162
48 *697:297 *1179:63 0
49 *708:44 *1179:32 0
50 *773:23 *2790:A1 0.000605447
51 *773:23 *1179:53 0.00118834
52 *821:33 *1179:12 0.00044976
53 *831:56 *1179:32 4.77425e-05
54 *832:66 *2790:A1 0
55 *837:31 *2790:A1 0.000499383
56 *837:31 *1179:53 0.00116745
57 *841:94 *1179:63 0.000660241
58 *841:102 *1179:53 0.000277389
59 *843:27 *2790:A1 1.54008e-05
60 *843:38 *2790:A1 6.48152e-05
61 *858:56 *1179:32 0
62 *858:67 *1179:32 0
63 *888:22 *1179:32 0.000305825
64 *905:119 *1179:63 0
65 *906:8 *1179:63 0
66 *937:10 *1179:63 0
67 *1174:68 *1179:32 0
68 *1178:31 *1179:32 0
69 *1178:39 *1179:32 0
*RES
1 *3277:Q *1179:12 45.7778 
2 *1179:12 *3029:B1 40 
3 *3277:Q *1179:26 20.3502 
4 *1179:26 *1179:32 47.3757 
5 *1179:32 *1179:34 20 
6 *1179:34 *2790:A1 43.3578 
7 *1179:34 *1179:53 47.8074 
8 *1179:53 *1179:63 38.0559 
9 *1179:63 *3716:A 20 
*END

*D_NET *1180 0.0252724
*CONN
*I *3717:A I *D sg13g2_buf_1
*I *2794:A1 I *D sg13g2_a21oi_1
*I *3033:B1 I *D sg13g2_a21oi_1
*I *3279:Q O *D sg13g2_dfrbpq_1
*CAP
1 *3717:A 0.000895698
2 *2794:A1 0
3 *3033:B1 0
4 *3279:Q 2.8947e-05
5 *1180:66 0.00131447
6 *1180:60 0.00233666
7 *1180:37 0.00319981
8 *1180:33 0.00526328
9 *1180:12 0.000764097
10 *1180:6 0.00477439
11 *3717:A *3719:A 0
12 *3717:A *1186:53 0
13 *3717:A *1189:47 0.000395067
14 *1180:33 *3008:B1 4.78356e-05
15 *1180:33 *1183:14 0
16 *1180:33 *1183:31 0
17 *1180:33 *1190:25 0
18 *1180:37 *1190:25 0
19 *1180:60 *1183:56 0.00098423
20 *1180:60 *1186:45 0.000145283
21 *1180:60 *1190:31 0
22 *1180:66 *1183:56 0
23 *2794:A2 *1180:60 8.00842e-05
24 *2794:B1 *1180:37 3.72159e-05
25 *2794:B1 *1180:60 0.00011253
26 *2797:A1 *1180:37 0
27 *2797:B1 *1180:37 0.000112426
28 *2824:A1 *1180:60 0
29 *2999:A *1180:33 0.000209544
30 *3000:A2 *1180:33 0
31 *3008:A1 *1180:33 0.000242072
32 *3011:A *1180:33 1.54556e-05
33 *3161:D *1180:37 0
34 *3165:D *1180:60 8.0216e-05
35 *3263:D *1180:33 0
36 *3265:CLK *1180:37 0.00117976
37 *3271:D *1180:33 0
38 *3281:CLK *1180:33 0
39 *3287:CLK *1180:33 0
40 *3323:A *1180:6 1.54556e-05
41 *3331:A *1180:60 0
42 *3360:A *1180:33 0
43 *3397:A *3717:A 0
44 *3528:A *1180:33 0
45 *3630:A *1180:66 0
46 *22:10 *3717:A 0
47 *27:8 *3717:A 0
48 *267:10 *1180:37 0
49 *320:10 *1180:33 0
50 *376:10 *1180:33 0
51 *380:8 *1180:12 0
52 *476:20 *1180:60 0
53 *596:55 *1180:33 0.000306832
54 *596:62 *1180:33 0
55 *596:71 *1180:33 0
56 *596:82 *1180:33 0
57 *702:10 *1180:37 0
58 *704:33 *1180:60 0.00101669
59 *704:39 *1180:60 0
60 *709:73 *1180:33 0
61 *714:29 *1180:12 0
62 *714:48 *1180:6 0
63 *714:48 *1180:12 0
64 *714:48 *1180:33 0
65 *719:37 *1180:37 0
66 *719:47 *1180:60 0
67 *719:47 *1180:66 0.000272878
68 *791:27 *3717:A 0
69 *821:10 *1180:12 0.000668652
70 *823:78 *1180:37 1.54008e-05
71 *824:88 *1180:33 0
72 *831:6 *1180:37 0
73 *831:12 *1180:60 0
74 *841:51 *1180:60 0.00011224
75 *843:12 *1180:60 0.000112683
76 *843:23 *1180:60 0.000226446
77 *1115:18 *1180:12 0
78 *1164:10 *1180:12 0
79 *1167:8 *1180:33 0
80 *1179:63 *3717:A 0.000306095
*RES
1 *3279:Q *1180:6 20.3193 
2 *1180:6 *1180:12 47.519 
3 *1180:12 *3033:B1 20 
4 *1180:6 *1180:33 38.3508 
5 *1180:33 *1180:37 13.8638 
6 *1180:37 *2794:A1 20 
7 *1180:37 *1180:60 39.7966 
8 *1180:60 *1180:66 43.5638 
9 *1180:66 *3717:A 49.5687 
*END

*D_NET *1181 0.0255952
*CONN
*I *3718:A I *D sg13g2_buf_1
*I *2722:A1 I *D sg13g2_a21oi_1
*I *3091:B1 I *D sg13g2_a21oi_1
*I *3307:Q O *D sg13g2_dfrbpq_1
*CAP
1 *3718:A 0
2 *2722:A1 0
3 *3091:B1 0.000253239
4 *3307:Q 0.00029703
5 *1181:70 0.000311798
6 *1181:64 0.00303865
7 *1181:62 0.00272685
8 *1181:55 0.000357652
9 *1181:47 0.000971647
10 *1181:43 0.0025475
11 *1181:31 0.00480341
12 *1181:8 0.00342017
13 *2709:A *1181:31 0
14 *2738:B1 *1181:43 0
15 *2741:A1 *1181:43 0.000339507
16 *2767:B1 *1181:43 0
17 *2767:A2 *1181:43 0.000144251
18 *2769:A2 *1181:43 0
19 *2934:A1 *1181:31 0
20 *2934:B1 *1181:31 0
21 *2937:B *1181:31 0
22 *2941:B *1181:31 0
23 *3093:B1 *3091:B1 4.77425e-05
24 *3129:RESET_B *1181:43 0.000272762
25 *3145:CLK *1181:31 0
26 *3145:CLK *1181:43 0
27 *3231:RESET_B *1181:31 0
28 *3233:RESET_B *1181:31 0.000296627
29 *3233:D *1181:31 0
30 *3438:A *1181:43 0.000176482
31 *3448:A *1181:55 4.78524e-05
32 *359:20 *1181:31 0.00108281
33 *360:30 *3091:B1 4.77866e-05
34 *386:10 *1181:31 4.76068e-05
35 *410:14 *1181:43 0.00160792
36 *571:103 *1181:31 4.77425e-05
37 *675:8 *3091:B1 0
38 *712:51 *1181:31 0
39 *717:24 *1181:70 0
40 *722:39 *1181:31 0
41 *724:27 *1181:64 0
42 *727:24 *1181:55 0
43 *730:26 *1181:31 0
44 *731:33 *1181:43 0
45 *757:27 *1181:31 0
46 *757:51 *1181:43 8.00842e-05
47 *757:59 *1181:47 0.000110743
48 *766:22 *1181:31 0.000629703
49 *817:75 *3091:B1 0.000606694
50 *817:75 *1181:8 0.00085026
51 *834:49 *1181:43 0
52 *839:87 *1181:55 7.34121e-05
53 *850:31 *1181:43 0
54 *856:67 *3091:B1 0
55 *856:67 *1181:8 0
56 *893:16 *1181:43 0
57 *899:12 *1181:43 8.00842e-05
58 *899:21 *1181:43 0
59 *899:29 *1181:31 0
60 *899:29 *1181:43 0
61 *957:16 *1181:64 0
62 *1025:8 *1181:55 0
63 *1025:16 *1181:47 0
64 *1035:14 *1181:55 0
65 *1047:16 *1181:47 0
66 *1169:39 *1181:70 0.000277197
*RES
1 *3307:Q *1181:8 44.0582 
2 *1181:8 *3091:B1 43.1415 
3 *1181:8 *1181:31 49.7773 
4 *1181:31 *1181:43 39.7663 
5 *1181:43 *1181:47 26.1594 
6 *1181:47 *1181:55 43.3887 
7 *1181:55 *2722:A1 20 
8 *1181:47 *1181:62 20 
9 *1181:62 *1181:64 31.2502 
10 *1181:64 *1181:70 43.5638 
11 *1181:70 *3718:A 40 
*END

*D_NET *1182 0.0131839
*CONN
*I *2787:B2 I *D sg13g2_a22oi_1
*I *3627:X O *D sg13g2_buf_1
*CAP
1 *2787:B2 8.67135e-05
2 *3627:X 0.00156993
3 *1182:12 0.00373858
4 *1182:10 0.00365187
5 *1182:8 0.00156993
6 *2725:A1 *1182:8 0
7 *2750:A1 *1182:12 0
8 *3123:RESET_B *1182:8 0
9 *3123:CLK *1182:12 0
10 *3571:A *1182:8 0
11 *430:8 *1182:12 0.0012474
12 *432:10 *1182:12 0
13 *697:165 *1182:12 0
14 *697:167 *1182:12 0
15 *699:24 *1182:12 0
16 *699:26 *1182:12 0
17 *699:28 *1182:12 0
18 *700:8 *1182:12 0
19 *700:12 *1182:12 0
20 *700:20 *1182:12 0
21 *725:66 *1182:12 0
22 *731:33 *1182:12 0.000500312
23 *741:32 *2787:B2 0
24 *770:20 *2787:B2 0
25 *923:10 *1182:8 0
26 *934:10 *1182:8 0
27 *1035:14 *1182:8 0
28 *1045:10 *1182:12 0
29 *1063:20 *1182:8 0.000819187
30 *1067:16 *1182:8 0
31 *1078:28 *1182:8 0
32 *1173:40 *1182:12 0
*RES
1 *3627:X *1182:8 36.3679 
2 *1182:8 *1182:10 20 
3 *1182:10 *1182:12 34.9582 
4 *1182:12 *2787:B2 40.7519 
*END

*D_NET *1183 0.0261658
*CONN
*I *3719:A I *D sg13g2_buf_1
*I *2798:A1 I *D sg13g2_a21oi_1
*I *3037:B1 I *D sg13g2_a21oi_1
*I *3281:Q O *D sg13g2_dfrbpq_1
*CAP
1 *3719:A 7.19341e-05
2 *2798:A1 0
3 *3037:B1 0
4 *3281:Q 6.68694e-05
5 *1183:56 0.00178342
6 *1183:50 0.00255945
7 *1183:33 0.00104082
8 *1183:31 0.00470732
9 *1183:14 0.000850832
10 *1183:6 0.00543218
11 *1183:31 *1186:8 0
12 *1183:31 *1186:25 0
13 *1183:31 *1186:39 0.000866648
14 *1183:31 *1190:25 0.00202336
15 *1183:31 *1190:31 0
16 *1183:33 *1190:31 0
17 *1183:50 *2810:A1 8.03091e-05
18 *1183:50 *1190:31 0
19 *1183:56 *1184:46 0.00121018
20 *1183:56 *1186:45 0.00175912
21 *1183:56 *1186:53 0
22 *2798:B1 *1183:50 0.000467118
23 *2810:B1 *1183:50 0.000144045
24 *3161:RESET_B *1183:31 0.000662413
25 *3165:RESET_B *1183:50 0
26 *3175:CLK *1183:56 1.65559e-05
27 *3261:D *1183:31 0
28 *3263:RESET_B *1183:31 0
29 *3263:D *1183:31 0.000177378
30 *3269:RESET_B *1183:31 2.21754e-05
31 *3271:RESET_B *1183:31 0.000274638
32 *3630:A *1183:56 0
33 *3717:A *3719:A 0
34 *22:10 *3719:A 0.0001122
35 *375:8 *1183:14 0
36 *375:8 *1183:31 0
37 *463:8 *1183:50 7.51285e-05
38 *636:10 *1183:14 0
39 *638:8 *1183:14 0
40 *645:8 *1183:14 0
41 *702:35 *1183:31 0
42 *709:27 *1183:14 0
43 *709:42 *1183:14 0
44 *719:47 *1183:56 0
45 *841:30 *1183:33 0.000209297
46 *841:30 *1183:50 1.54008e-05
47 *841:39 *1183:50 0.000257395
48 *841:69 *1183:50 0
49 *843:127 *1183:31 0.000167206
50 *1098:8 *1183:14 0.00012816
51 *1180:33 *1183:14 0
52 *1180:33 *1183:31 0
53 *1180:60 *1183:56 0.00098423
54 *1180:66 *1183:56 0
*RES
1 *3281:Q *1183:6 20.8446 
2 *1183:6 *1183:14 49.0125 
3 *1183:14 *3037:B1 20 
4 *1183:6 *1183:31 48.3585 
5 *1183:31 *1183:33 1.8334 
6 *1183:33 *2798:A1 20 
7 *1183:33 *1183:50 48.3842 
8 *1183:50 *1183:56 39.2404 
9 *1183:56 *3719:A 40.7519 
*END

*D_NET *1184 0.0172789
*CONN
*I *3720:A I *D sg13g2_buf_1
*I *2802:A1 I *D sg13g2_a21oi_1
*I *3041:B1 I *D sg13g2_a21oi_1
*I *3283:Q O *D sg13g2_dfrbpq_1
*CAP
1 *3720:A 0.000114854
2 *2802:A1 0
3 *3041:B1 0.000666858
4 *3283:Q 0.000209909
5 *1184:46 0.00160489
6 *1184:31 5.08425e-05
7 *1184:23 0.00603978
8 *1184:21 0.0044989
9 *1184:8 0.000876767
10 *3041:B1 *3049:B1 0
11 *3720:A *1186:53 0
12 *1184:8 *3049:B1 0
13 *1184:46 *1186:53 0.000993993
14 *3041:A1 *3041:B1 7.51285e-05
15 *3049:A2 *3041:B1 0.000234224
16 *24:10 *1184:46 0.000130635
17 *269:8 *1184:31 7.34121e-05
18 *377:10 *3041:B1 8.00842e-05
19 *459:10 *1184:31 7.33256e-05
20 *825:38 *3041:B1 0.000234224
21 *825:53 *3041:B1 4.77425e-05
22 *831:12 *1184:31 4.77425e-05
23 *841:51 *1184:31 1.54008e-05
24 *979:12 *1184:23 0
25 *990:33 *1184:23 0
26 *1183:56 *1184:46 0.00121018
*RES
1 *3283:Q *1184:8 42.3278 
2 *1184:8 *3041:B1 47.313 
3 *1184:8 *1184:21 20 
4 *1184:21 *1184:23 46.1749 
5 *1184:23 *1184:31 40.6695 
6 *1184:31 *2802:A1 20 
7 *1184:23 *1184:46 40.806 
8 *1184:46 *3720:A 40.9682 
*END

*D_NET *1185 0.0178691
*CONN
*I *3045:B1 I *D sg13g2_a21oi_1
*I *2807:B2 I *D sg13g2_a22oi_1
*I *3721:A I *D sg13g2_buf_1
*I *3285:Q O *D sg13g2_dfrbpq_1
*CAP
1 *3045:B1 0.00034726
2 *2807:B2 0
3 *3721:A 0.000740516
4 *3285:Q 0.000458244
5 *1185:34 0.00117861
6 *1185:28 0.00573997
7 *1185:18 0.00562245
8 *1185:10 0.00112608
9 *2807:A2 *1185:28 3.15716e-05
10 *2808:A1 *1185:34 0
11 *2863:A *1185:28 0
12 *2880:B1 *1185:28 0
13 *3045:A1 *3045:B1 0
14 *3159:RESET_B *1185:28 0
15 *3159:D *1185:28 0
16 *3195:RESET_B *1185:28 0
17 *3195:D *1185:28 0
18 *3285:RESET_B *3045:B1 0
19 *3513:A *3045:B1 0
20 *3715:A *3721:A 0.00117928
21 *329:8 *1185:18 0
22 *379:22 *1185:10 0
23 *392:18 *1185:34 0.00134997
24 *496:68 *1185:28 0
25 *697:194 *1185:28 0
26 *697:202 *3045:B1 0
27 *697:202 *1185:18 0
28 *697:202 *1185:28 0
29 *708:8 *3045:B1 0
30 *708:19 *3045:B1 0
31 *708:19 *1185:10 0
32 *708:19 *1185:18 0
33 *743:14 *1185:28 0
34 *743:29 *1185:28 4.78359e-05
35 *746:31 *1185:28 0
36 *747:28 *1185:28 4.73078e-05
37 *781:27 *1185:34 0
38 *832:54 *1185:28 0
39 *832:66 *1185:28 0
40 *854:24 *1185:34 0
41 *1173:44 *3721:A 0
*RES
1 *3285:Q *1185:10 44.8101 
2 *1185:10 *1185:18 23.3372 
3 *1185:18 *1185:28 47.0813 
4 *1185:28 *1185:34 46.283 
5 *1185:34 *3721:A 27.8898 
6 *1185:28 *2807:B2 20 
7 *1185:10 *3045:B1 43.096 
*END

*D_NET *1186 0.0230708
*CONN
*I *2810:A1 I *D sg13g2_a21oi_1
*I *3722:A I *D sg13g2_buf_1
*I *3049:B1 I *D sg13g2_a21oi_1
*I *3287:Q O *D sg13g2_dfrbpq_1
*CAP
1 *2810:A1 4.16911e-05
2 *3722:A 0
3 *3049:B1 0.000789707
4 *3287:Q 3.13392e-05
5 *1186:53 0.00053728
6 *1186:45 0.00173062
7 *1186:39 0.0039695
8 *1186:25 0.00493258
9 *1186:8 0.00301916
10 *1186:45 *1190:31 0.000823343
11 *1186:45 *1190:50 0.00113035
12 *2713:A *1186:39 0
13 *2796:B1 *1186:39 0
14 *2796:A2 *1186:39 0
15 *2801:A1 *1186:39 4.78028e-05
16 *3041:B1 *3049:B1 0
17 *3121:RESET_B *1186:39 0
18 *3121:D *1186:39 0
19 *3261:RESET_B *1186:25 0
20 *3261:D *1186:25 0
21 *3263:RESET_B *1186:25 0
22 *3269:RESET_B *1186:25 0
23 *3271:RESET_B *1186:25 0
24 *3717:A *1186:53 0
25 *3720:A *1186:53 0
26 *20:8 *1186:53 0
27 *25:10 *1186:53 0
28 *27:8 *1186:53 0.000130676
29 *375:8 *1186:25 0.000219036
30 *375:12 *1186:25 0
31 *453:10 *1186:39 0.000112552
32 *459:10 *1186:39 0.000338569
33 *463:8 *1186:39 0
34 *702:35 *1186:39 0.000305975
35 *702:69 *1186:25 0
36 *702:69 *1186:39 0
37 *704:55 *1186:39 0
38 *780:16 *1186:39 0
39 *791:27 *1186:53 0
40 *835:12 *1186:39 0.000371965
41 *837:23 *1186:39 0
42 *841:58 *2810:A1 8.03091e-05
43 *843:127 *1186:39 0.00059756
44 *905:62 *1186:39 1.54285e-05
45 *932:10 *3049:B1 0
46 *1180:60 *1186:45 0.000145283
47 *1183:31 *1186:8 0
48 *1183:31 *1186:25 0
49 *1183:31 *1186:39 0.000866648
50 *1183:50 *2810:A1 8.03091e-05
51 *1183:56 *1186:45 0.00175912
52 *1183:56 *1186:53 0
53 *1184:8 *3049:B1 0
54 *1184:46 *1186:53 0.000993993
*RES
1 *3287:Q *1186:8 40.3193 
2 *1186:8 *3049:B1 48.0134 
3 *1186:8 *1186:25 41.6086 
4 *1186:25 *1186:39 47.0066 
5 *1186:39 *1186:45 34.1728 
6 *1186:45 *1186:53 46.4787 
7 *1186:53 *3722:A 20 
8 *1186:39 *2810:A1 40.5356 
*END

*D_NET *1187 0.0182447
*CONN
*I *2814:A1 I *D sg13g2_a21oi_1
*I *3723:A I *D sg13g2_buf_1
*I *2988:B1 I *D sg13g2_a21oi_1
*I *3257:Q O *D sg13g2_dfrbpq_1
*CAP
1 *2814:A1 2.4247e-05
2 *3723:A 0.000790374
3 *2988:B1 0.000283078
4 *3257:Q 0.000545752
5 *1187:65 0.00116274
6 *1187:59 0.000925043
7 *1187:51 0.000975089
8 *1187:43 0.00354738
9 *1187:10 0.00343229
10 *1187:8 0.000545752
11 *3723:A *3724:A 0
12 *3723:A *3728:A 0
13 *3723:A *1189:47 0
14 *1187:65 *1188:37 0
15 *2785:A1 *1187:43 8.01118e-05
16 *2814:A2 *2814:A1 5.05102e-05
17 *2814:A2 *1187:51 5.06087e-05
18 *2814:A2 *1187:59 0.000234224
19 *2874:B1 *1187:43 0.000371619
20 *2876:A1 *1187:43 0
21 *2876:B1 *1187:43 0
22 *2879:A *1187:43 8.03091e-05
23 *2879:B *1187:43 1.23813e-05
24 *2882:A1 *1187:43 0
25 *3013:B *1187:8 0
26 *3157:RESET_B *1187:43 0
27 *3157:CLK *1187:43 0
28 *3171:RESET_B *1187:51 0
29 *3175:D *3723:A 0.000240449
30 *3201:D *1187:43 0
31 *3203:RESET_B *1187:43 0
32 *3203:D *1187:43 0.000144942
33 *3257:RESET_B *1187:43 0
34 *3257:CLK *1187:8 0.000391949
35 *3714:A *1187:51 0
36 *3714:A *1187:59 0
37 *25:10 *3723:A 0
38 *264:10 *1187:43 8.00995e-05
39 *315:12 *2988:B1 0
40 *378:22 *1187:43 8.03692e-05
41 *468:8 *1187:59 0.000287256
42 *486:12 *1187:59 1.54008e-05
43 *597:12 *2988:B1 4.78195e-05
44 *697:278 *1187:43 0
45 *697:282 *1187:43 0
46 *697:301 *1187:51 0
47 *718:41 *3723:A 0.000596652
48 *751:33 *1187:43 0
49 *778:26 *1187:8 0
50 *831:33 *1187:43 0.000709425
51 *831:33 *1187:51 0.00018128
52 *831:43 *1187:43 8.00951e-05
53 *841:71 *1187:59 2.20966e-05
54 *842:16 *1187:65 0.00119254
55 *858:75 *2988:B1 0
56 *858:75 *1187:43 0
57 *870:79 *1187:43 0
58 *872:23 *1187:8 0
59 *875:59 *2988:B1 0
60 *875:59 *1187:43 0
61 *1175:56 *2814:A1 0
62 *1175:56 *1187:43 0
63 *1175:56 *1187:51 0.000370089
64 *1179:32 *1187:43 0
65 *1179:63 *1187:59 0.000692747
*RES
1 *3257:Q *1187:8 44.7998 
2 *1187:8 *1187:10 20 
3 *1187:10 *2988:B1 22.7501 
4 *1187:10 *1187:43 30.9515 
5 *1187:43 *1187:51 44.0067 
6 *1187:51 *1187:59 45.9843 
7 *1187:59 *1187:65 45.5414 
8 *1187:65 *3723:A 27.5311 
9 *1187:51 *2814:A1 20.3193 
*END

*D_NET *1188 0.0195693
*CONN
*I *3724:A I *D sg13g2_buf_1
*I *2818:A1 I *D sg13g2_a21oi_1
*I *2992:B1 I *D sg13g2_a21oi_1
*I *3259:Q O *D sg13g2_dfrbpq_1
*CAP
1 *3724:A 0.000767681
2 *2818:A1 0
3 *2992:B1 0
4 *3259:Q 0
5 *1188:37 0.00175776
6 *1188:31 0.00546624
7 *1188:12 0.000684077
8 *1188:4 0.00362487
9 *3724:A *3728:A 0
10 *1188:31 *1191:20 0.000887401
11 *1188:37 *1191:30 0
12 *1188:37 *1192:42 0
13 *2805:A1 *1188:31 0.000112651
14 *2824:B1 *1188:31 6.88666e-05
15 *2831:A1 *1188:37 0
16 *2835:B1 *1188:37 0
17 *2992:A1 *1188:12 0
18 *3175:RESET_B *3724:A 3.23694e-05
19 *3175:RESET_B *1188:31 0.000306701
20 *3259:RESET_B *1188:12 0.000112695
21 *3259:D *1188:12 0
22 *3265:RESET_B *1188:31 0.000176531
23 *3630:A *3724:A 0
24 *3723:A *3724:A 0
25 *23:8 *3724:A 4.79124e-05
26 *458:32 *1188:31 0
27 *474:10 *3724:A 0.000370166
28 *474:10 *1188:31 0.000177334
29 *476:20 *1188:37 0
30 *479:10 *1188:37 0.000498051
31 *480:10 *1188:37 0
32 *602:16 *1188:12 1.54008e-05
33 *697:278 *1188:12 0
34 *701:29 *1188:12 0
35 *719:37 *1188:31 0.00148555
36 *719:47 *1188:31 0
37 *797:39 *1188:12 0
38 *798:24 *1188:12 0.00108168
39 *832:35 *1188:37 0
40 *842:16 *1188:37 0
41 *843:98 *1188:37 0
42 *854:10 *1188:37 0.000690661
43 *854:14 *1188:37 0.000977865
44 *908:87 *1188:12 0
45 *990:22 *1188:31 4.77425e-05
46 *1033:8 *1188:37 0.000179079
47 *1056:14 *1188:37 0
48 *1176:50 *1188:37 0
49 *1187:65 *1188:37 0
*RES
1 *3259:Q *1188:4 20 
2 *1188:4 *1188:12 47.5293 
3 *1188:12 *2992:B1 20 
4 *1188:4 *1188:31 28.3456 
5 *1188:31 *1188:37 39.2095 
6 *1188:37 *2818:A1 40 
7 *1188:31 *3724:A 24.9924 
*END

*D_NET *1189 0.0141477
*CONN
*I *2996:B1 I *D sg13g2_a21oi_1
*I *3725:A I *D sg13g2_buf_1
*I *2822:A1 I *D sg13g2_a21oi_1
*I *3261:Q O *D sg13g2_dfrbpq_1
*CAP
1 *2996:B1 0
2 *3725:A 0
3 *2822:A1 0
4 *3261:Q 7.39508e-05
5 *1189:47 0.000757573
6 *1189:30 0.00107559
7 *1189:22 0.00375847
8 *1189:20 0.00375034
9 *1189:14 0.00126527
10 *1189:8 0.00102934
11 *1189:14 *3000:B1 0
12 *1189:14 *1190:8 0
13 *1189:47 *3727:A 0
14 *2822:A2 *1189:30 0.00046614
15 *2822:A2 *1189:47 1.54008e-05
16 *2825:A1 *1189:47 0.00049157
17 *3010:A1 *1189:14 0
18 *3175:D *1189:47 0
19 *3717:A *1189:47 0.000395067
20 *3723:A *1189:47 0
21 *27:8 *1189:47 0
22 *318:8 *1189:14 0
23 *464:10 *1189:30 7.33225e-05
24 *493:54 *1189:22 0
25 *596:33 *1189:20 0
26 *603:8 *1189:14 0.000337906
27 *603:8 *1189:20 0
28 *718:41 *1189:47 0.00024139
29 *784:27 *1189:30 0
30 *789:8 *1189:47 7.90177e-05
31 *813:10 *1189:20 0
32 *823:21 *1189:20 0
33 *832:18 *1189:30 0.000337373
34 *990:16 *1189:22 0
35 *990:33 *1189:22 0
*RES
1 *3261:Q *1189:8 40.7519 
2 *1189:8 *1189:14 30.4957 
3 *1189:14 *1189:20 42.575 
4 *1189:20 *1189:22 42.0652 
5 *1189:22 *1189:30 43.4814 
6 *1189:30 *2822:A1 20 
7 *1189:30 *1189:47 48.2297 
8 *1189:47 *3725:A 20 
9 *1189:14 *2996:B1 20 
*END

*D_NET *1190 0.0205383
*CONN
*I *3726:A I *D sg13g2_buf_1
*I *2826:A1 I *D sg13g2_a21oi_1
*I *3000:B1 I *D sg13g2_a21oi_1
*I *3263:Q O *D sg13g2_dfrbpq_1
*CAP
1 *3726:A 0
2 *2826:A1 0
3 *3000:B1 0.000253579
4 *3263:Q 0.00055299
5 *1190:50 0.00101209
6 *1190:39 0.000277876
7 *1190:31 0.00382728
8 *1190:25 0.0043107
9 *1190:8 0.00257996
10 *2794:A2 *1190:31 0.000144992
11 *2798:B1 *1190:31 0.000724589
12 *2810:B1 *1190:31 0.000128945
13 *2813:A1 *1190:31 0
14 *2813:A2 *1190:31 0
15 *2826:B1 *1190:39 0.000106798
16 *3000:A1 *3000:B1 0
17 *3161:RESET_B *1190:31 0
18 *3161:D *1190:31 0.000208824
19 *3165:D *1190:31 8.0216e-05
20 *3185:D *1190:50 0
21 *3265:CLK *1190:25 0
22 *3265:CLK *1190:31 0
23 *3630:A *1190:50 0
24 *464:10 *1190:39 0
25 *603:8 *3000:B1 0
26 *702:10 *1190:31 0
27 *823:21 *3000:B1 0.000126358
28 *824:88 *1190:25 0.00108365
29 *825:59 *3000:B1 0
30 *832:101 *1190:39 0.000289307
31 *841:26 *1190:31 4.7154e-05
32 *841:69 *1190:31 0
33 *842:8 *1190:50 0.000193714
34 *842:12 *1190:50 0.000596783
35 *843:12 *1190:31 0
36 *843:23 *1190:31 1.54008e-05
37 *843:127 *1190:31 0
38 *843:127 *1190:50 0
39 *1180:33 *1190:25 0
40 *1180:37 *1190:25 0
41 *1180:60 *1190:31 0
42 *1183:31 *1190:25 0.00202336
43 *1183:31 *1190:31 0
44 *1183:33 *1190:31 0
45 *1183:50 *1190:31 0
46 *1186:45 *1190:31 0.000823343
47 *1186:45 *1190:50 0.00113035
48 *1189:14 *3000:B1 0
49 *1189:14 *1190:8 0
*RES
1 *3263:Q *1190:8 46.283 
2 *1190:8 *3000:B1 42.6471 
3 *1190:8 *1190:25 40.0129 
4 *1190:25 *1190:31 24.9019 
5 *1190:31 *1190:39 43.0179 
6 *1190:39 *2826:A1 20 
7 *1190:31 *1190:50 31.33 
8 *1190:50 *3726:A 40 
*END

*D_NET *1191 0.0165377
*CONN
*I *3004:B1 I *D sg13g2_a21oi_1
*I *3727:A I *D sg13g2_buf_1
*I *2831:B2 I *D sg13g2_a22oi_1
*I *3265:Q O *D sg13g2_dfrbpq_1
*CAP
1 *3004:B1 0.00017581
2 *3727:A 0.000426653
3 *2831:B2 2.52938e-05
4 *3265:Q 0.000532172
5 *1191:30 0.00114925
6 *1191:26 0.00213323
7 *1191:20 0.00348402
8 *1191:10 0.0030772
9 *1191:8 0.000532172
10 *1191:20 *1192:36 0.000628197
11 *1191:30 *1192:42 0.00129707
12 *2805:A1 *1191:20 0
13 *2825:A1 *3727:A 0
14 *2825:A1 *1191:26 0
15 *3004:A1 *3004:B1 8.00842e-05
16 *3265:RESET_B *1191:20 0.000283753
17 *3397:A *3727:A 0
18 *3397:A *1191:26 0
19 *393:12 *1191:20 0.000403858
20 *393:31 *1191:20 0.000596273
21 *458:32 *1191:20 1.54008e-05
22 *476:20 *1191:30 0
23 *479:10 *2831:B2 4.78688e-05
24 *718:14 *3004:B1 0
25 *718:14 *1191:20 0
26 *718:22 *1191:26 0
27 *791:12 *3727:A 0
28 *791:12 *1191:26 0
29 *791:27 *3727:A 0
30 *795:26 *1191:8 0
31 *823:78 *1191:8 0
32 *823:91 *3004:B1 0.000161763
33 *823:91 *1191:8 0
34 *823:91 *1191:20 0
35 *832:24 *1191:26 0.000181192
36 *832:101 *1191:26 0.000371223
37 *854:14 *1191:30 0
38 *854:65 *2831:B2 4.77863e-05
39 *908:87 *1191:8 0
40 *1188:31 *1191:20 0.000887401
41 *1188:37 *1191:30 0
42 *1189:47 *3727:A 0
*RES
1 *3265:Q *1191:8 45.2942 
2 *1191:8 *1191:10 20 
3 *1191:10 *1191:20 47.7276 
4 *1191:20 *1191:26 25.9225 
5 *1191:26 *1191:30 30.4854 
6 *1191:30 *2831:B2 40.3193 
7 *1191:26 *3727:A 23.7801 
8 *1191:10 *3004:B1 21.9673 
*END

*D_NET *1192 0.0211551
*CONN
*I *3008:B1 I *D sg13g2_a21oi_1
*I *3728:A I *D sg13g2_buf_1
*I *2835:B2 I *D sg13g2_a22oi_1
*I *3267:Q O *D sg13g2_dfrbpq_1
*CAP
1 *3008:B1 3.00371e-05
2 *3728:A 0.000482687
3 *2835:B2 0
4 *3267:Q 0.000717395
5 *1192:42 0.000633321
6 *1192:36 0.00183671
7 *1192:32 0.00309785
8 *1192:26 0.00416396
9 *1192:10 0.00253424
10 *3005:B *1192:26 0
11 *3005:D *1192:26 0
12 *3007:A *1192:26 0.00024211
13 *3007:B *1192:26 0
14 *3171:CLK *1192:32 0
15 *3175:RESET_B *1192:36 0.000339042
16 *3267:CLK *1192:10 0
17 *3436:A *1192:26 0.000533952
18 *3532:A *1192:26 0.000208785
19 *3723:A *3728:A 0
20 *3724:A *3728:A 0
21 *320:10 *3008:B1 1.54556e-05
22 *320:10 *1192:10 0.000554164
23 *476:20 *1192:42 0
24 *616:10 *1192:26 0
25 *619:10 *1192:26 0.0001813
26 *620:8 *1192:26 0.000443995
27 *701:29 *1192:32 0
28 *704:8 *1192:32 0
29 *711:64 *1192:10 0
30 *711:64 *1192:26 0
31 *718:14 *1192:26 0.000186542
32 *718:14 *1192:32 0
33 *718:14 *1192:36 0
34 *718:41 *3728:A 0.000354634
35 *718:41 *1192:36 0.000467191
36 *781:27 *1192:32 0
37 *813:41 *1192:26 0
38 *813:49 *1192:26 0
39 *823:43 *1192:26 0
40 *824:88 *3008:B1 0
41 *832:18 *1192:32 0.00137148
42 *854:10 *1192:42 0.000712295
43 *854:14 *1192:42 7.48466e-05
44 *908:87 *1192:26 0
45 *979:22 *1192:32 0
46 *1180:33 *3008:B1 4.78356e-05
47 *1188:37 *1192:42 0
48 *1191:20 *1192:36 0.000628197
49 *1191:30 *1192:42 0.00129707
*RES
1 *3267:Q *1192:10 49.3215 
2 *1192:10 *1192:26 38.9211 
3 *1192:26 *1192:32 41.4652 
4 *1192:32 *1192:36 27.2409 
5 *1192:36 *1192:42 48.2606 
6 *1192:42 *2835:B2 20 
7 *1192:36 *3728:A 24.3466 
8 *1192:10 *3008:B1 40.3193 
*END
