*SPEF "ieee 1481-1999"
*DESIGN "peripherals_macro"
*DATE "21:58:44 Thursday September 17, 2026"
*VENDOR "The OpenROAD Project"
*PROGRAM "OpenROAD"
*VERSION "dcf36133a369abc8f3c5e5738cd4d82e4903c0e0"
*DESIGN_FLOW "NAME_SCOPE LOCAL" "PIN_CAP NONE"
*DIVIDER /
*DELIMITER :
*BUS_DELIMITER []
*T_UNIT 1 NS
*C_UNIT 1 PF
*R_UNIT 1 OHM
*L_UNIT 1 HENRY

*NAME_MAP
*3 clk_i
*4 gpio_dir[0]
*5 gpio_dir[10]
*6 gpio_dir[11]
*7 gpio_dir[12]
*8 gpio_dir[13]
*9 gpio_dir[14]
*10 gpio_dir[15]
*11 gpio_dir[16]
*12 gpio_dir[17]
*13 gpio_dir[18]
*14 gpio_dir[19]
*15 gpio_dir[1]
*16 gpio_dir[20]
*17 gpio_dir[21]
*18 gpio_dir[22]
*19 gpio_dir[23]
*20 gpio_dir[24]
*21 gpio_dir[25]
*22 gpio_dir[26]
*23 gpio_dir[27]
*24 gpio_dir[28]
*25 gpio_dir[29]
*26 gpio_dir[2]
*27 gpio_dir[30]
*28 gpio_dir[31]
*29 gpio_dir[3]
*30 gpio_dir[4]
*31 gpio_dir[5]
*32 gpio_dir[6]
*33 gpio_dir[7]
*34 gpio_dir[8]
*35 gpio_dir[9]
*36 gpio_in[0]
*37 gpio_in[10]
*38 gpio_in[11]
*39 gpio_in[12]
*40 gpio_in[13]
*41 gpio_in[14]
*42 gpio_in[15]
*43 gpio_in[16]
*44 gpio_in[17]
*45 gpio_in[18]
*46 gpio_in[19]
*47 gpio_in[1]
*48 gpio_in[20]
*49 gpio_in[21]
*50 gpio_in[22]
*51 gpio_in[23]
*52 gpio_in[24]
*53 gpio_in[25]
*54 gpio_in[26]
*55 gpio_in[27]
*56 gpio_in[28]
*57 gpio_in[29]
*58 gpio_in[2]
*59 gpio_in[30]
*60 gpio_in[31]
*61 gpio_in[3]
*62 gpio_in[4]
*63 gpio_in[5]
*64 gpio_in[6]
*65 gpio_in[7]
*66 gpio_in[8]
*67 gpio_in[9]
*68 gpio_out[0]
*69 gpio_out[10]
*70 gpio_out[11]
*71 gpio_out[12]
*72 gpio_out[13]
*73 gpio_out[14]
*74 gpio_out[15]
*75 gpio_out[16]
*76 gpio_out[17]
*77 gpio_out[18]
*78 gpio_out[19]
*79 gpio_out[1]
*80 gpio_out[20]
*81 gpio_out[21]
*82 gpio_out[22]
*83 gpio_out[23]
*84 gpio_out[24]
*85 gpio_out[25]
*86 gpio_out[26]
*87 gpio_out[27]
*88 gpio_out[28]
*89 gpio_out[29]
*90 gpio_out[2]
*91 gpio_out[30]
*92 gpio_out[31]
*93 gpio_out[3]
*94 gpio_out[4]
*95 gpio_out[5]
*96 gpio_out[6]
*97 gpio_out[7]
*98 gpio_out[8]
*99 gpio_out[9]
*100 rst_ni
*101 s_axil_araddr[0]
*102 s_axil_araddr[10]
*103 s_axil_araddr[11]
*104 s_axil_araddr[12]
*105 s_axil_araddr[13]
*106 s_axil_araddr[14]
*107 s_axil_araddr[15]
*108 s_axil_araddr[16]
*109 s_axil_araddr[17]
*110 s_axil_araddr[18]
*111 s_axil_araddr[19]
*112 s_axil_araddr[1]
*113 s_axil_araddr[20]
*114 s_axil_araddr[21]
*115 s_axil_araddr[22]
*116 s_axil_araddr[23]
*117 s_axil_araddr[24]
*118 s_axil_araddr[25]
*119 s_axil_araddr[26]
*120 s_axil_araddr[27]
*121 s_axil_araddr[28]
*122 s_axil_araddr[29]
*123 s_axil_araddr[2]
*124 s_axil_araddr[30]
*125 s_axil_araddr[31]
*126 s_axil_araddr[3]
*127 s_axil_araddr[4]
*128 s_axil_araddr[5]
*129 s_axil_araddr[6]
*130 s_axil_araddr[7]
*131 s_axil_araddr[8]
*132 s_axil_araddr[9]
*133 s_axil_arready
*134 s_axil_arvalid
*135 s_axil_awaddr[0]
*136 s_axil_awaddr[10]
*137 s_axil_awaddr[11]
*138 s_axil_awaddr[12]
*139 s_axil_awaddr[13]
*140 s_axil_awaddr[14]
*141 s_axil_awaddr[15]
*142 s_axil_awaddr[16]
*143 s_axil_awaddr[17]
*144 s_axil_awaddr[18]
*145 s_axil_awaddr[19]
*146 s_axil_awaddr[1]
*147 s_axil_awaddr[20]
*148 s_axil_awaddr[21]
*149 s_axil_awaddr[22]
*150 s_axil_awaddr[23]
*151 s_axil_awaddr[24]
*152 s_axil_awaddr[25]
*153 s_axil_awaddr[26]
*154 s_axil_awaddr[27]
*155 s_axil_awaddr[28]
*156 s_axil_awaddr[29]
*157 s_axil_awaddr[2]
*158 s_axil_awaddr[30]
*159 s_axil_awaddr[31]
*160 s_axil_awaddr[3]
*161 s_axil_awaddr[4]
*162 s_axil_awaddr[5]
*163 s_axil_awaddr[6]
*164 s_axil_awaddr[7]
*165 s_axil_awaddr[8]
*166 s_axil_awaddr[9]
*167 s_axil_awready
*168 s_axil_awvalid
*169 s_axil_bready
*170 net
*171 net275
*172 s_axil_bvalid
*173 s_axil_rdata[0]
*174 s_axil_rdata[10]
*175 s_axil_rdata[11]
*176 s_axil_rdata[12]
*177 s_axil_rdata[13]
*178 s_axil_rdata[14]
*179 s_axil_rdata[15]
*180 s_axil_rdata[16]
*181 s_axil_rdata[17]
*182 s_axil_rdata[18]
*183 s_axil_rdata[19]
*184 s_axil_rdata[1]
*185 s_axil_rdata[20]
*186 s_axil_rdata[21]
*187 s_axil_rdata[22]
*188 s_axil_rdata[23]
*189 s_axil_rdata[24]
*190 s_axil_rdata[25]
*191 s_axil_rdata[26]
*192 s_axil_rdata[27]
*193 s_axil_rdata[28]
*194 s_axil_rdata[29]
*195 s_axil_rdata[2]
*196 s_axil_rdata[30]
*197 s_axil_rdata[31]
*198 s_axil_rdata[3]
*199 s_axil_rdata[4]
*200 s_axil_rdata[5]
*201 s_axil_rdata[6]
*202 s_axil_rdata[7]
*203 s_axil_rdata[8]
*204 s_axil_rdata[9]
*205 s_axil_rready
*206 net276
*207 net277
*208 s_axil_rvalid
*209 s_axil_wdata[0]
*210 s_axil_wdata[10]
*211 s_axil_wdata[11]
*212 s_axil_wdata[12]
*213 s_axil_wdata[13]
*214 s_axil_wdata[14]
*215 s_axil_wdata[15]
*216 s_axil_wdata[16]
*217 s_axil_wdata[17]
*218 s_axil_wdata[18]
*219 s_axil_wdata[19]
*220 s_axil_wdata[1]
*221 s_axil_wdata[20]
*222 s_axil_wdata[21]
*223 s_axil_wdata[22]
*224 s_axil_wdata[23]
*225 s_axil_wdata[24]
*226 s_axil_wdata[25]
*227 s_axil_wdata[26]
*228 s_axil_wdata[27]
*229 s_axil_wdata[28]
*230 s_axil_wdata[29]
*231 s_axil_wdata[2]
*232 s_axil_wdata[30]
*233 s_axil_wdata[31]
*234 s_axil_wdata[3]
*235 s_axil_wdata[4]
*236 s_axil_wdata[5]
*237 s_axil_wdata[6]
*238 s_axil_wdata[7]
*239 s_axil_wdata[8]
*240 s_axil_wdata[9]
*241 s_axil_wready
*242 s_axil_wstrb[0]
*243 s_axil_wstrb[1]
*244 s_axil_wstrb[2]
*245 s_axil_wstrb[3]
*246 s_axil_wvalid
*247 _0000_
*248 _0001_
*249 _0002_
*250 _0003_
*251 _0004_
*252 _0005_
*253 _0006_
*254 _0007_
*255 _0008_
*256 _0009_
*257 _0010_
*258 _0011_
*259 _0012_
*260 _0013_
*261 _0014_
*262 _0015_
*263 _0016_
*264 _0017_
*265 _0018_
*266 _0019_
*267 _0020_
*268 _0021_
*269 _0022_
*270 _0023_
*271 _0024_
*272 _0025_
*273 _0026_
*274 _0027_
*275 _0028_
*276 _0029_
*277 _0030_
*278 _0031_
*279 _0032_
*280 _0033_
*281 _0034_
*282 _0035_
*283 _0036_
*284 _0037_
*285 _0038_
*286 _0039_
*287 _0040_
*288 _0041_
*289 _0042_
*290 _0043_
*291 _0044_
*292 _0045_
*293 _0046_
*294 _0047_
*295 _0048_
*296 _0049_
*297 _0050_
*298 _0051_
*299 _0052_
*300 _0053_
*301 _0054_
*302 _0055_
*303 _0056_
*304 _0057_
*305 _0058_
*306 _0059_
*307 _0060_
*308 _0061_
*309 _0062_
*310 _0063_
*311 _0064_
*312 _0065_
*313 _0066_
*314 _0067_
*315 _0068_
*316 _0069_
*317 _0070_
*318 _0071_
*319 _0072_
*320 _0073_
*321 _0074_
*322 _0075_
*323 _0076_
*324 _0077_
*325 _0078_
*326 _0079_
*327 _0080_
*328 _0081_
*329 _0082_
*330 _0083_
*331 _0084_
*332 _0085_
*333 _0086_
*334 _0087_
*335 _0088_
*336 _0089_
*337 _0090_
*338 _0091_
*339 _0092_
*340 _0093_
*341 _0094_
*342 _0095_
*343 _0096_
*344 _0097_
*345 _0098_
*346 _0099_
*347 _0100_
*348 _0101_
*349 _0102_
*350 _0103_
*351 _0104_
*352 _0105_
*353 _0106_
*354 _0107_
*355 _0108_
*356 _0109_
*357 _0110_
*358 _0111_
*359 _0112_
*360 _0113_
*361 _0114_
*362 _0115_
*363 _0116_
*364 _0117_
*365 _0118_
*366 _0119_
*367 _0120_
*368 _0121_
*369 _0122_
*370 _0123_
*371 _0124_
*372 _0125_
*373 _0126_
*374 _0127_
*375 _0128_
*376 _0129_
*377 _0130_
*378 _0131_
*379 _0132_
*380 _0133_
*381 _0134_
*382 _0135_
*383 _0136_
*384 _0137_
*385 _0138_
*386 _0139_
*387 _0140_
*388 _0141_
*389 _0142_
*390 _0143_
*391 _0144_
*392 _0145_
*393 _0146_
*394 _0147_
*395 _0148_
*396 _0149_
*397 _0150_
*398 _0151_
*399 _0152_
*400 _0153_
*401 _0154_
*402 _0155_
*403 _0156_
*404 _0157_
*405 _0158_
*406 _0159_
*407 _0160_
*408 _0161_
*409 _0162_
*410 _0163_
*411 _0164_
*412 _0165_
*413 _0166_
*414 _0167_
*415 _0168_
*416 _0169_
*417 _0170_
*418 _0171_
*419 _0172_
*420 _0173_
*421 _0174_
*422 _0175_
*423 _0176_
*424 _0177_
*425 _0178_
*426 _0179_
*427 _0180_
*428 _0181_
*429 _0182_
*430 _0183_
*431 _0184_
*432 _0185_
*433 _0186_
*434 _0187_
*435 _0188_
*436 _0189_
*437 _0190_
*438 _0191_
*439 _0192_
*440 _0193_
*441 _0194_
*442 _0195_
*443 _0196_
*444 _0197_
*445 _0198_
*446 _0199_
*447 _0200_
*448 _0201_
*449 _0202_
*450 _0203_
*451 _0204_
*452 _0205_
*453 _0206_
*454 _0207_
*455 _0208_
*456 _0209_
*457 _0210_
*458 _0211_
*459 _0212_
*460 _0213_
*461 _0214_
*462 _0215_
*463 _0216_
*464 _0217_
*465 _0218_
*466 _0219_
*467 _0220_
*468 _0221_
*469 _0222_
*470 _0223_
*471 _0224_
*472 _0225_
*473 _0226_
*474 _0227_
*475 _0228_
*476 _0229_
*477 _0230_
*478 _0231_
*479 _0232_
*480 _0233_
*481 _0234_
*482 _0235_
*483 _0236_
*484 _0237_
*485 _0238_
*486 _0239_
*487 _0240_
*488 _0241_
*489 _0242_
*490 _0243_
*491 _0244_
*492 _0245_
*493 _0246_
*494 _0247_
*495 _0248_
*496 _0249_
*497 _0250_
*498 _0251_
*499 _0252_
*500 _0253_
*501 _0254_
*502 _0255_
*503 _0256_
*504 _0257_
*505 _0258_
*506 _0259_
*507 _0260_
*508 _0261_
*509 _0262_
*510 _0263_
*511 _0264_
*512 _0265_
*513 _0266_
*514 _0267_
*515 _0268_
*516 _0269_
*517 _0270_
*518 _0271_
*519 _0272_
*520 _0273_
*521 _0274_
*522 _0275_
*523 _0276_
*524 _0277_
*525 _0278_
*526 _0279_
*527 _0280_
*528 _0281_
*529 _0282_
*530 _0283_
*531 _0284_
*532 _0285_
*533 _0286_
*534 _0287_
*535 _0288_
*536 _0289_
*537 _0290_
*538 _0291_
*539 _0292_
*540 _0293_
*541 _0294_
*542 _0295_
*543 _0296_
*544 _0297_
*545 _0298_
*546 _0299_
*547 _0300_
*548 _0301_
*549 _0302_
*550 _0303_
*551 _0304_
*552 _0305_
*553 _0306_
*554 _0307_
*555 _0308_
*556 _0309_
*557 _0310_
*558 _0311_
*559 _0312_
*560 _0313_
*561 _0314_
*562 _0315_
*563 _0316_
*564 _0317_
*565 _0318_
*566 _0319_
*567 _0320_
*568 _0321_
*569 _0322_
*570 _0323_
*571 _0324_
*572 _0325_
*573 _0326_
*574 _0327_
*575 _0328_
*576 _0329_
*577 _0330_
*578 _0331_
*579 _0332_
*580 _0333_
*581 _0334_
*582 _0335_
*583 _0336_
*584 _0337_
*585 _0338_
*586 _0339_
*587 _0340_
*588 _0341_
*589 _0342_
*590 _0343_
*591 _0344_
*592 _0345_
*593 _0346_
*594 _0347_
*595 _0348_
*596 _0349_
*597 _0350_
*598 _0351_
*599 _0352_
*600 _0353_
*601 _0354_
*602 _0355_
*603 _0356_
*604 _0357_
*605 _0358_
*606 _0359_
*607 _0360_
*608 _0361_
*609 _0362_
*610 _0363_
*611 _0364_
*612 _0365_
*613 _0366_
*614 _0367_
*615 _0368_
*616 _0369_
*617 _0370_
*618 _0371_
*619 _0372_
*620 _0373_
*621 _0374_
*622 _0375_
*623 _0376_
*624 _0377_
*625 _0378_
*626 _0379_
*627 _0380_
*628 _0381_
*629 _0382_
*630 _0383_
*631 _0384_
*632 _0385_
*633 _0386_
*634 _0387_
*635 _0388_
*636 _0389_
*637 _0390_
*638 _0391_
*639 _0392_
*640 _0393_
*641 _0394_
*642 _0395_
*643 _0396_
*644 _0397_
*645 _0398_
*646 _0399_
*647 _0400_
*648 _0401_
*649 _0402_
*650 _0403_
*651 _0404_
*652 _0405_
*653 _0406_
*654 _0407_
*655 _0408_
*656 _0409_
*657 _0410_
*658 _0411_
*659 _0412_
*660 _0413_
*661 _0414_
*662 _0415_
*663 _0416_
*664 _0417_
*665 _0418_
*666 _0419_
*667 _0420_
*668 _0421_
*669 _0422_
*670 _0423_
*671 _0424_
*672 _0425_
*673 _0426_
*674 _0427_
*675 _0428_
*676 _0429_
*677 _0430_
*678 _0431_
*679 _0432_
*680 _0433_
*681 _0434_
*682 _0435_
*683 _0436_
*684 _0437_
*685 _0438_
*686 _0439_
*687 _0440_
*688 _0441_
*689 _0442_
*690 _0443_
*691 _0444_
*692 _0445_
*693 _0446_
*694 _0447_
*695 _0448_
*696 _0449_
*697 clknet_0_clk_i
*698 clknet_4_0_0_clk_i
*699 clknet_4_10_0_clk_i
*700 clknet_4_11_0_clk_i
*701 clknet_4_12_0_clk_i
*702 clknet_4_13_0_clk_i
*703 clknet_4_14_0_clk_i
*704 clknet_4_15_0_clk_i
*705 clknet_4_1_0_clk_i
*706 clknet_4_2_0_clk_i
*707 clknet_4_3_0_clk_i
*708 clknet_4_4_0_clk_i
*709 clknet_4_5_0_clk_i
*710 clknet_4_6_0_clk_i
*711 clknet_4_7_0_clk_i
*712 clknet_4_8_0_clk_i
*713 clknet_4_9_0_clk_i
*714 i_gpio\.aw_en
*715 net1
*716 net10
*717 net100
*718 net101
*719 net102
*720 net103
*721 net104
*722 net105
*723 net106
*724 net107
*725 net108
*726 net109
*727 net11
*728 net110
*729 net111
*730 net112
*731 net113
*732 net114
*733 net115
*734 net116
*735 net117
*736 net118
*737 net119
*738 net12
*739 net120
*740 net121
*741 net122
*742 net123
*743 net124
*744 net125
*745 net126
*746 net127
*747 net128
*748 net129
*749 net13
*750 net130
*751 net131
*752 net132
*753 net133
*754 net134
*755 net135
*756 net136
*757 net137
*758 net138
*759 net139
*760 net14
*761 net140
*762 net141
*763 net142
*764 net143
*765 net144
*766 net145
*767 net146
*768 net147
*769 net148
*770 net149
*771 net15
*772 net150
*773 net151
*774 net152
*775 net153
*776 net154
*777 net155
*778 net156
*779 net157
*780 net158
*781 net159
*782 net16
*783 net160
*784 net161
*785 net162
*786 net163
*787 net164
*788 net165
*789 net166
*790 net167
*791 net168
*792 net169
*793 net17
*794 net170
*795 net171
*796 net172
*797 net173
*798 net174
*799 net175
*800 net176
*801 net177
*802 net178
*803 net179
*804 net18
*805 net180
*806 net181
*807 net182
*808 net183
*809 net184
*810 net185
*811 net186
*812 net187
*813 net188
*814 net189
*815 net19
*816 net190
*817 net191
*818 net192
*819 net193
*820 net194
*821 net195
*822 net196
*823 net197
*824 net198
*825 net199
*826 net2
*827 net20
*828 net200
*829 net201
*830 net202
*831 net203
*832 net204
*833 net205
*834 net206
*835 net207
*836 net208
*837 net209
*838 net21
*839 net210
*840 net211
*841 net212
*842 net213
*843 net214
*844 net215
*845 net216
*846 net217
*847 net218
*848 net219
*849 net22
*850 net220
*851 net221
*852 net222
*853 net223
*854 net224
*855 net225
*856 net226
*857 net227
*858 net228
*859 net229
*860 net23
*861 net230
*862 net231
*863 net232
*864 net233
*865 net234
*866 net235
*867 net236
*868 net237
*869 net238
*870 net239
*871 net24
*872 net240
*873 net241
*874 net242
*875 net243
*876 net244
*877 net245
*878 net246
*879 net247
*880 net248
*881 net249
*882 net25
*883 net250
*884 net251
*885 net252
*886 net253
*887 net254
*888 net255
*889 net256
*890 net257
*891 net258
*892 net259
*893 net26
*894 net260
*895 net261
*896 net262
*897 net263
*898 net264
*899 net265
*900 net266
*901 net267
*902 net268
*903 net269
*904 net27
*905 net270
*906 net271
*907 net272
*908 net273
*909 net274
*910 net278
*911 net279
*912 net28
*913 net280
*914 net281
*915 net282
*916 net283
*917 net284
*918 net285
*919 net286
*920 net287
*921 net288
*922 net289
*923 net29
*924 net290
*925 net291
*926 net292
*927 net293
*928 net294
*929 net295
*930 net296
*931 net297
*932 net298
*933 net299
*934 net3
*935 net30
*936 net300
*937 net301
*938 net302
*939 net303
*940 net304
*941 net305
*942 net306
*943 net307
*944 net308
*945 net309
*946 net31
*947 net310
*948 net311
*949 net312
*950 net313
*951 net314
*952 net315
*953 net316
*954 net317
*955 net318
*956 net319
*957 net32
*958 net320
*959 net321
*960 net322
*961 net323
*962 net324
*963 net325
*964 net326
*965 net327
*966 net328
*967 net329
*968 net33
*969 net330
*970 net331
*971 net332
*972 net333
*973 net334
*974 net335
*975 net336
*976 net337
*977 net338
*978 net339
*979 net34
*980 net340
*981 net341
*982 net342
*983 net343
*984 net344
*985 net345
*986 net346
*987 net347
*988 net348
*989 net349
*990 net35
*991 net350
*992 net351
*993 net352
*994 net353
*995 net354
*996 net355
*997 net356
*998 net357
*999 net358
*1000 net359
*1001 net36
*1002 net360
*1003 net361
*1004 net362
*1005 net363
*1006 net364
*1007 net365
*1008 net366
*1009 net367
*1010 net368
*1011 net369
*1012 net37
*1013 net370
*1014 net371
*1015 net372
*1016 net373
*1017 net374
*1018 net375
*1019 net376
*1020 net377
*1021 net378
*1022 net379
*1023 net38
*1024 net380
*1025 net381
*1026 net382
*1027 net383
*1028 net384
*1029 net385
*1030 net386
*1031 net387
*1032 net388
*1033 net389
*1034 net39
*1035 net390
*1036 net391
*1037 net392
*1038 net393
*1039 net394
*1040 net395
*1041 net396
*1042 net397
*1043 net398
*1044 net399
*1045 net4
*1046 net40
*1047 net400
*1048 net401
*1049 net402
*1050 net403
*1051 net404
*1052 net405
*1053 net406
*1054 net407
*1055 net408
*1056 net409
*1057 net41
*1058 net410
*1059 net411
*1060 net412
*1061 net413
*1062 net414
*1063 net415
*1064 net416
*1065 net417
*1066 net418
*1067 net419
*1068 net42
*1069 net420
*1070 net421
*1071 net422
*1072 net423
*1073 net424
*1074 net425
*1075 net426
*1076 net427
*1077 net428
*1078 net429
*1079 net43
*1080 net430
*1081 net431
*1082 net432
*1083 net433
*1084 net434
*1085 net435
*1086 net436
*1087 net437
*1088 net44
*1089 net45
*1090 net46
*1091 net47
*1092 net48
*1093 net49
*1094 net5
*1095 net50
*1096 net51
*1097 net52
*1098 net53
*1099 net54
*1100 net55
*1101 net56
*1102 net57
*1103 net58
*1104 net59
*1105 net6
*1106 net60
*1107 net61
*1108 net62
*1109 net63
*1110 net64
*1111 net65
*1112 net66
*1113 net67
*1114 net68
*1115 net69
*1116 net7
*1117 net70
*1118 net71
*1119 net72
*1120 net73
*1121 net74
*1122 net75
*1123 net76
*1124 net77
*1125 net78
*1126 net79
*1127 net8
*1128 net80
*1129 net81
*1130 net82
*1131 net83
*1132 net84
*1133 net85
*1134 net86
*1135 net87
*1136 net88
*1137 net89
*1138 net9
*1139 net90
*1140 net91
*1141 net92
*1142 net93
*1143 net94
*1144 net95
*1145 net96
*1146 net97
*1147 net98
*1148 net99
*1149 FILLER_0_0
*1150 FILLER_0_102
*1151 FILLER_0_109
*1152 FILLER_0_116
*1153 FILLER_0_123
*1154 FILLER_0_130
*1155 FILLER_0_14
*1156 FILLER_0_21
*1157 FILLER_0_28
*1158 FILLER_0_30
*1159 FILLER_0_337
*1160 FILLER_0_39
*1161 FILLER_0_46
*1162 FILLER_0_53
*1163 FILLER_0_60
*1164 FILLER_0_67
*1165 FILLER_0_7
*1166 FILLER_0_74
*1167 FILLER_0_81
*1168 FILLER_0_88
*1169 FILLER_0_95
*1170 FILLER_10_0
*1171 FILLER_10_104
*1172 FILLER_10_111
*1173 FILLER_10_118
*1174 FILLER_10_125
*1175 FILLER_10_14
*1176 FILLER_10_140
*1177 FILLER_10_144
*1178 FILLER_10_151
*1179 FILLER_10_158
*1180 FILLER_10_165
*1181 FILLER_10_172
*1182 FILLER_10_179
*1183 FILLER_10_186
*1184 FILLER_10_193
*1185 FILLER_10_200
*1186 FILLER_10_207
*1187 FILLER_10_21
*1188 FILLER_10_214
*1189 FILLER_10_224
*1190 FILLER_10_237
*1191 FILLER_10_239
*1192 FILLER_10_259
*1193 FILLER_10_28
*1194 FILLER_10_301
*1195 FILLER_10_308
*1196 FILLER_10_315
*1197 FILLER_10_322
*1198 FILLER_10_329
*1199 FILLER_10_336
*1200 FILLER_10_343
*1201 FILLER_10_35
*1202 FILLER_10_42
*1203 FILLER_10_50
*1204 FILLER_10_57
*1205 FILLER_10_61
*1206 FILLER_10_69
*1207 FILLER_10_7
*1208 FILLER_10_76
*1209 FILLER_10_83
*1210 FILLER_10_90
*1211 FILLER_10_97
*1212 FILLER_11_0
*1213 FILLER_11_103
*1214 FILLER_11_110
*1215 FILLER_11_117
*1216 FILLER_11_124
*1217 FILLER_11_131
*1218 FILLER_11_138
*1219 FILLER_11_14
*1220 FILLER_11_145
*1221 FILLER_11_152
*1222 FILLER_11_159
*1223 FILLER_11_166
*1224 FILLER_11_191
*1225 FILLER_11_198
*1226 FILLER_11_21
*1227 FILLER_11_210
*1228 FILLER_11_216
*1229 FILLER_11_243
*1230 FILLER_11_250
*1231 FILLER_11_257
*1232 FILLER_11_264
*1233 FILLER_11_28
*1234 FILLER_11_312
*1235 FILLER_11_319
*1236 FILLER_11_326
*1237 FILLER_11_333
*1238 FILLER_11_340
*1239 FILLER_11_35
*1240 FILLER_11_42
*1241 FILLER_11_50
*1242 FILLER_11_58
*1243 FILLER_11_68
*1244 FILLER_11_7
*1245 FILLER_11_75
*1246 FILLER_11_82
*1247 FILLER_11_89
*1248 FILLER_11_96
*1249 FILLER_12_0
*1250 FILLER_12_110
*1251 FILLER_12_117
*1252 FILLER_12_128
*1253 FILLER_12_134
*1254 FILLER_12_14
*1255 FILLER_12_141
*1256 FILLER_12_148
*1257 FILLER_12_155
*1258 FILLER_12_159
*1259 FILLER_12_192
*1260 FILLER_12_204
*1261 FILLER_12_21
*1262 FILLER_12_213
*1263 FILLER_12_220
*1264 FILLER_12_224
*1265 FILLER_12_256
*1266 FILLER_12_263
*1267 FILLER_12_270
*1268 FILLER_12_277
*1269 FILLER_12_28
*1270 FILLER_12_283
*1271 FILLER_12_287
*1272 FILLER_12_315
*1273 FILLER_12_322
*1274 FILLER_12_329
*1275 FILLER_12_336
*1276 FILLER_12_343
*1277 FILLER_12_35
*1278 FILLER_12_39
*1279 FILLER_12_7
*1280 FILLER_12_73
*1281 FILLER_12_83
*1282 FILLER_12_90
*1283 FILLER_12_97
*1284 FILLER_13_0
*1285 FILLER_13_118
*1286 FILLER_13_14
*1287 FILLER_13_152
*1288 FILLER_13_156
*1289 FILLER_13_189
*1290 FILLER_13_196
*1291 FILLER_13_21
*1292 FILLER_13_227
*1293 FILLER_13_238
*1294 FILLER_13_245
*1295 FILLER_13_252
*1296 FILLER_13_259
*1297 FILLER_13_268
*1298 FILLER_13_275
*1299 FILLER_13_279
*1300 FILLER_13_28
*1301 FILLER_13_284
*1302 FILLER_13_291
*1303 FILLER_13_293
*1304 FILLER_13_298
*1305 FILLER_13_305
*1306 FILLER_13_312
*1307 FILLER_13_319
*1308 FILLER_13_326
*1309 FILLER_13_333
*1310 FILLER_13_340
*1311 FILLER_13_35
*1312 FILLER_13_42
*1313 FILLER_13_49
*1314 FILLER_13_56
*1315 FILLER_13_60
*1316 FILLER_13_7
*1317 FILLER_13_76
*1318 FILLER_13_83
*1319 FILLER_13_90
*1320 FILLER_13_97
*1321 FILLER_14_0
*1322 FILLER_14_107
*1323 FILLER_14_135
*1324 FILLER_14_14
*1325 FILLER_14_142
*1326 FILLER_14_149
*1327 FILLER_14_156
*1328 FILLER_14_163
*1329 FILLER_14_171
*1330 FILLER_14_178
*1331 FILLER_14_185
*1332 FILLER_14_192
*1333 FILLER_14_199
*1334 FILLER_14_206
*1335 FILLER_14_21
*1336 FILLER_14_213
*1337 FILLER_14_220
*1338 FILLER_14_227
*1339 FILLER_14_234
*1340 FILLER_14_239
*1341 FILLER_14_246
*1342 FILLER_14_250
*1343 FILLER_14_266
*1344 FILLER_14_274
*1345 FILLER_14_276
*1346 FILLER_14_28
*1347 FILLER_14_289
*1348 FILLER_14_296
*1349 FILLER_14_303
*1350 FILLER_14_310
*1351 FILLER_14_317
*1352 FILLER_14_324
*1353 FILLER_14_331
*1354 FILLER_14_338
*1355 FILLER_14_345
*1356 FILLER_14_35
*1357 FILLER_14_42
*1358 FILLER_14_49
*1359 FILLER_14_68
*1360 FILLER_14_7
*1361 FILLER_14_70
*1362 FILLER_15_0
*1363 FILLER_15_108
*1364 FILLER_15_112
*1365 FILLER_15_117
*1366 FILLER_15_124
*1367 FILLER_15_131
*1368 FILLER_15_138
*1369 FILLER_15_14
*1370 FILLER_15_150
*1371 FILLER_15_162
*1372 FILLER_15_169
*1373 FILLER_15_176
*1374 FILLER_15_183
*1375 FILLER_15_190
*1376 FILLER_15_197
*1377 FILLER_15_201
*1378 FILLER_15_21
*1379 FILLER_15_211
*1380 FILLER_15_218
*1381 FILLER_15_225
*1382 FILLER_15_229
*1383 FILLER_15_234
*1384 FILLER_15_244
*1385 FILLER_15_251
*1386 FILLER_15_258
*1387 FILLER_15_262
*1388 FILLER_15_268
*1389 FILLER_15_275
*1390 FILLER_15_279
*1391 FILLER_15_28
*1392 FILLER_15_285
*1393 FILLER_15_309
*1394 FILLER_15_340
*1395 FILLER_15_35
*1396 FILLER_15_42
*1397 FILLER_15_67
*1398 FILLER_15_7
*1399 FILLER_15_74
*1400 FILLER_15_89
*1401 FILLER_15_96
*1402 FILLER_15_98
*1403 FILLER_16_0
*1404 FILLER_16_103
*1405 FILLER_16_110
*1406 FILLER_16_117
*1407 FILLER_16_124
*1408 FILLER_16_136
*1409 FILLER_16_14
*1410 FILLER_16_142
*1411 FILLER_16_146
*1412 FILLER_16_160
*1413 FILLER_16_166
*1414 FILLER_16_173
*1415 FILLER_16_180
*1416 FILLER_16_187
*1417 FILLER_16_189
*1418 FILLER_16_21
*1419 FILLER_16_217
*1420 FILLER_16_224
*1421 FILLER_16_260
*1422 FILLER_16_267
*1423 FILLER_16_274
*1424 FILLER_16_28
*1425 FILLER_16_281
*1426 FILLER_16_306
*1427 FILLER_16_337
*1428 FILLER_16_344
*1429 FILLER_16_346
*1430 FILLER_16_35
*1431 FILLER_16_68
*1432 FILLER_16_7
*1433 FILLER_16_75
*1434 FILLER_16_82
*1435 FILLER_16_89
*1436 FILLER_16_96
*1437 FILLER_17_0
*1438 FILLER_17_106
*1439 FILLER_17_113
*1440 FILLER_17_14
*1441 FILLER_17_141
*1442 FILLER_17_148
*1443 FILLER_17_156
*1444 FILLER_17_184
*1445 FILLER_17_191
*1446 FILLER_17_199
*1447 FILLER_17_207
*1448 FILLER_17_21
*1449 FILLER_17_214
*1450 FILLER_17_221
*1451 FILLER_17_228
*1452 FILLER_17_235
*1453 FILLER_17_250
*1454 FILLER_17_257
*1455 FILLER_17_28
*1456 FILLER_17_288
*1457 FILLER_17_295
*1458 FILLER_17_299
*1459 FILLER_17_309
*1460 FILLER_17_313
*1461 FILLER_17_323
*1462 FILLER_17_330
*1463 FILLER_17_337
*1464 FILLER_17_344
*1465 FILLER_17_346
*1466 FILLER_17_35
*1467 FILLER_17_39
*1468 FILLER_17_45
*1469 FILLER_17_52
*1470 FILLER_17_56
*1471 FILLER_17_62
*1472 FILLER_17_7
*1473 FILLER_17_71
*1474 FILLER_17_78
*1475 FILLER_17_82
*1476 FILLER_18_0
*1477 FILLER_18_122
*1478 FILLER_18_14
*1479 FILLER_18_150
*1480 FILLER_18_157
*1481 FILLER_18_164
*1482 FILLER_18_171
*1483 FILLER_18_178
*1484 FILLER_18_182
*1485 FILLER_18_21
*1486 FILLER_18_216
*1487 FILLER_18_218
*1488 FILLER_18_223
*1489 FILLER_18_241
*1490 FILLER_18_245
*1491 FILLER_18_250
*1492 FILLER_18_265
*1493 FILLER_18_28
*1494 FILLER_18_280
*1495 FILLER_18_287
*1496 FILLER_18_294
*1497 FILLER_18_300
*1498 FILLER_18_304
*1499 FILLER_18_310
*1500 FILLER_18_317
*1501 FILLER_18_328
*1502 FILLER_18_335
*1503 FILLER_18_342
*1504 FILLER_18_346
*1505 FILLER_18_35
*1506 FILLER_18_42
*1507 FILLER_18_49
*1508 FILLER_18_7
*1509 FILLER_18_81
*1510 FILLER_18_85
*1511 FILLER_19_0
*1512 FILLER_19_108
*1513 FILLER_19_115
*1514 FILLER_19_122
*1515 FILLER_19_129
*1516 FILLER_19_136
*1517 FILLER_19_14
*1518 FILLER_19_143
*1519 FILLER_19_149
*1520 FILLER_19_163
*1521 FILLER_19_173
*1522 FILLER_19_180
*1523 FILLER_19_187
*1524 FILLER_19_193
*1525 FILLER_19_200
*1526 FILLER_19_206
*1527 FILLER_19_208
*1528 FILLER_19_21
*1529 FILLER_19_218
*1530 FILLER_19_225
*1531 FILLER_19_232
*1532 FILLER_19_239
*1533 FILLER_19_246
*1534 FILLER_19_253
*1535 FILLER_19_260
*1536 FILLER_19_264
*1537 FILLER_19_271
*1538 FILLER_19_278
*1539 FILLER_19_28
*1540 FILLER_19_285
*1541 FILLER_19_297
*1542 FILLER_19_309
*1543 FILLER_19_316
*1544 FILLER_19_345
*1545 FILLER_19_35
*1546 FILLER_19_42
*1547 FILLER_19_49
*1548 FILLER_19_63
*1549 FILLER_19_7
*1550 FILLER_19_73
*1551 FILLER_19_80
*1552 FILLER_19_87
*1553 FILLER_19_99
*1554 FILLER_1_0
*1555 FILLER_1_100
*1556 FILLER_1_102
*1557 FILLER_1_106
*1558 FILLER_1_113
*1559 FILLER_1_120
*1560 FILLER_1_14
*1561 FILLER_1_157
*1562 FILLER_1_21
*1563 FILLER_1_28
*1564 FILLER_1_346
*1565 FILLER_1_35
*1566 FILLER_1_42
*1567 FILLER_1_49
*1568 FILLER_1_56
*1569 FILLER_1_63
*1570 FILLER_1_67
*1571 FILLER_1_7
*1572 FILLER_1_80
*1573 FILLER_1_93
*1574 FILLER_20_0
*1575 FILLER_20_102
*1576 FILLER_20_109
*1577 FILLER_20_116
*1578 FILLER_20_123
*1579 FILLER_20_130
*1580 FILLER_20_137
*1581 FILLER_20_139
*1582 FILLER_20_14
*1583 FILLER_20_167
*1584 FILLER_20_173
*1585 FILLER_20_180
*1586 FILLER_20_187
*1587 FILLER_20_194
*1588 FILLER_20_196
*1589 FILLER_20_21
*1590 FILLER_20_224
*1591 FILLER_20_231
*1592 FILLER_20_238
*1593 FILLER_20_245
*1594 FILLER_20_249
*1595 FILLER_20_255
*1596 FILLER_20_272
*1597 FILLER_20_279
*1598 FILLER_20_28
*1599 FILLER_20_287
*1600 FILLER_20_294
*1601 FILLER_20_305
*1602 FILLER_20_312
*1603 FILLER_20_317
*1604 FILLER_20_32
*1605 FILLER_20_324
*1606 FILLER_20_331
*1607 FILLER_20_333
*1608 FILLER_20_61
*1609 FILLER_20_63
*1610 FILLER_20_7
*1611 FILLER_20_74
*1612 FILLER_20_81
*1613 FILLER_20_88
*1614 FILLER_20_95
*1615 FILLER_21_0
*1616 FILLER_21_104
*1617 FILLER_21_111
*1618 FILLER_21_115
*1619 FILLER_21_122
*1620 FILLER_21_129
*1621 FILLER_21_136
*1622 FILLER_21_14
*1623 FILLER_21_143
*1624 FILLER_21_154
*1625 FILLER_21_160
*1626 FILLER_21_167
*1627 FILLER_21_174
*1628 FILLER_21_184
*1629 FILLER_21_191
*1630 FILLER_21_198
*1631 FILLER_21_205
*1632 FILLER_21_21
*1633 FILLER_21_212
*1634 FILLER_21_219
*1635 FILLER_21_226
*1636 FILLER_21_232
*1637 FILLER_21_242
*1638 FILLER_21_249
*1639 FILLER_21_251
*1640 FILLER_21_279
*1641 FILLER_21_28
*1642 FILLER_21_286
*1643 FILLER_21_288
*1644 FILLER_21_298
*1645 FILLER_21_305
*1646 FILLER_21_307
*1647 FILLER_21_335
*1648 FILLER_21_342
*1649 FILLER_21_35
*1650 FILLER_21_37
*1651 FILLER_21_69
*1652 FILLER_21_7
*1653 FILLER_21_76
*1654 FILLER_21_83
*1655 FILLER_21_90
*1656 FILLER_21_97
*1657 FILLER_22_0
*1658 FILLER_22_102
*1659 FILLER_22_109
*1660 FILLER_22_126
*1661 FILLER_22_133
*1662 FILLER_22_14
*1663 FILLER_22_140
*1664 FILLER_22_147
*1665 FILLER_22_154
*1666 FILLER_22_161
*1667 FILLER_22_168
*1668 FILLER_22_175
*1669 FILLER_22_190
*1670 FILLER_22_21
*1671 FILLER_22_217
*1672 FILLER_22_221
*1673 FILLER_22_249
*1674 FILLER_22_256
*1675 FILLER_22_261
*1676 FILLER_22_268
*1677 FILLER_22_275
*1678 FILLER_22_28
*1679 FILLER_22_282
*1680 FILLER_22_289
*1681 FILLER_22_296
*1682 FILLER_22_306
*1683 FILLER_22_308
*1684 FILLER_22_336
*1685 FILLER_22_338
*1686 FILLER_22_35
*1687 FILLER_22_42
*1688 FILLER_22_46
*1689 FILLER_22_51
*1690 FILLER_22_58
*1691 FILLER_22_65
*1692 FILLER_22_7
*1693 FILLER_22_72
*1694 FILLER_22_88
*1695 FILLER_22_95
*1696 FILLER_23_0
*1697 FILLER_23_102
*1698 FILLER_23_106
*1699 FILLER_23_139
*1700 FILLER_23_14
*1701 FILLER_23_146
*1702 FILLER_23_174
*1703 FILLER_23_181
*1704 FILLER_23_188
*1705 FILLER_23_195
*1706 FILLER_23_197
*1707 FILLER_23_21
*1708 FILLER_23_230
*1709 FILLER_23_237
*1710 FILLER_23_244
*1711 FILLER_23_251
*1712 FILLER_23_258
*1713 FILLER_23_274
*1714 FILLER_23_28
*1715 FILLER_23_284
*1716 FILLER_23_291
*1717 FILLER_23_298
*1718 FILLER_23_305
*1719 FILLER_23_312
*1720 FILLER_23_318
*1721 FILLER_23_325
*1722 FILLER_23_332
*1723 FILLER_23_35
*1724 FILLER_23_42
*1725 FILLER_23_49
*1726 FILLER_23_56
*1727 FILLER_23_63
*1728 FILLER_23_67
*1729 FILLER_23_7
*1730 FILLER_23_81
*1731 FILLER_23_88
*1732 FILLER_23_95
*1733 FILLER_24_0
*1734 FILLER_24_114
*1735 FILLER_24_126
*1736 FILLER_24_133
*1737 FILLER_24_14
*1738 FILLER_24_140
*1739 FILLER_24_166
*1740 FILLER_24_175
*1741 FILLER_24_182
*1742 FILLER_24_189
*1743 FILLER_24_193
*1744 FILLER_24_199
*1745 FILLER_24_206
*1746 FILLER_24_21
*1747 FILLER_24_212
*1748 FILLER_24_219
*1749 FILLER_24_226
*1750 FILLER_24_233
*1751 FILLER_24_240
*1752 FILLER_24_244
*1753 FILLER_24_250
*1754 FILLER_24_257
*1755 FILLER_24_264
*1756 FILLER_24_266
*1757 FILLER_24_272
*1758 FILLER_24_276
*1759 FILLER_24_28
*1760 FILLER_24_292
*1761 FILLER_24_298
*1762 FILLER_24_305
*1763 FILLER_24_312
*1764 FILLER_24_319
*1765 FILLER_24_326
*1766 FILLER_24_333
*1767 FILLER_24_337
*1768 FILLER_24_35
*1769 FILLER_24_42
*1770 FILLER_24_49
*1771 FILLER_24_56
*1772 FILLER_24_60
*1773 FILLER_24_67
*1774 FILLER_24_7
*1775 FILLER_24_74
*1776 FILLER_25_0
*1777 FILLER_25_104
*1778 FILLER_25_111
*1779 FILLER_25_118
*1780 FILLER_25_125
*1781 FILLER_25_132
*1782 FILLER_25_136
*1783 FILLER_25_14
*1784 FILLER_25_150
*1785 FILLER_25_157
*1786 FILLER_25_164
*1787 FILLER_25_171
*1788 FILLER_25_178
*1789 FILLER_25_183
*1790 FILLER_25_195
*1791 FILLER_25_202
*1792 FILLER_25_209
*1793 FILLER_25_21
*1794 FILLER_25_216
*1795 FILLER_25_223
*1796 FILLER_25_230
*1797 FILLER_25_232
*1798 FILLER_25_242
*1799 FILLER_25_249
*1800 FILLER_25_256
*1801 FILLER_25_262
*1802 FILLER_25_269
*1803 FILLER_25_28
*1804 FILLER_25_282
*1805 FILLER_25_317
*1806 FILLER_25_346
*1807 FILLER_25_35
*1808 FILLER_25_42
*1809 FILLER_25_49
*1810 FILLER_25_56
*1811 FILLER_25_58
*1812 FILLER_25_64
*1813 FILLER_25_7
*1814 FILLER_25_71
*1815 FILLER_25_78
*1816 FILLER_25_97
*1817 FILLER_26_0
*1818 FILLER_26_106
*1819 FILLER_26_113
*1820 FILLER_26_120
*1821 FILLER_26_127
*1822 FILLER_26_14
*1823 FILLER_26_156
*1824 FILLER_26_163
*1825 FILLER_26_170
*1826 FILLER_26_177
*1827 FILLER_26_181
*1828 FILLER_26_187
*1829 FILLER_26_21
*1830 FILLER_26_218
*1831 FILLER_26_225
*1832 FILLER_26_227
*1833 FILLER_26_255
*1834 FILLER_26_262
*1835 FILLER_26_269
*1836 FILLER_26_28
*1837 FILLER_26_298
*1838 FILLER_26_305
*1839 FILLER_26_312
*1840 FILLER_26_316
*1841 FILLER_26_335
*1842 FILLER_26_35
*1843 FILLER_26_42
*1844 FILLER_26_7
*1845 FILLER_26_76
*1846 FILLER_26_78
*1847 FILLER_27_0
*1848 FILLER_27_102
*1849 FILLER_27_109
*1850 FILLER_27_117
*1851 FILLER_27_124
*1852 FILLER_27_14
*1853 FILLER_27_159
*1854 FILLER_27_166
*1855 FILLER_27_173
*1856 FILLER_27_180
*1857 FILLER_27_187
*1858 FILLER_27_194
*1859 FILLER_27_200
*1860 FILLER_27_209
*1861 FILLER_27_21
*1862 FILLER_27_216
*1863 FILLER_27_223
*1864 FILLER_27_230
*1865 FILLER_27_238
*1866 FILLER_27_245
*1867 FILLER_27_249
*1868 FILLER_27_255
*1869 FILLER_27_257
*1870 FILLER_27_262
*1871 FILLER_27_268
*1872 FILLER_27_275
*1873 FILLER_27_28
*1874 FILLER_27_280
*1875 FILLER_27_287
*1876 FILLER_27_294
*1877 FILLER_27_299
*1878 FILLER_27_306
*1879 FILLER_27_313
*1880 FILLER_27_346
*1881 FILLER_27_35
*1882 FILLER_27_42
*1883 FILLER_27_53
*1884 FILLER_27_55
*1885 FILLER_27_60
*1886 FILLER_27_67
*1887 FILLER_27_7
*1888 FILLER_27_74
*1889 FILLER_27_81
*1890 FILLER_27_88
*1891 FILLER_27_95
*1892 FILLER_28_0
*1893 FILLER_28_103
*1894 FILLER_28_105
*1895 FILLER_28_119
*1896 FILLER_28_125
*1897 FILLER_28_132
*1898 FILLER_28_136
*1899 FILLER_28_14
*1900 FILLER_28_141
*1901 FILLER_28_153
*1902 FILLER_28_155
*1903 FILLER_28_165
*1904 FILLER_28_173
*1905 FILLER_28_175
*1906 FILLER_28_185
*1907 FILLER_28_192
*1908 FILLER_28_194
*1909 FILLER_28_21
*1910 FILLER_28_227
*1911 FILLER_28_234
*1912 FILLER_28_250
*1913 FILLER_28_257
*1914 FILLER_28_28
*1915 FILLER_28_286
*1916 FILLER_28_293
*1917 FILLER_28_300
*1918 FILLER_28_307
*1919 FILLER_28_314
*1920 FILLER_28_334
*1921 FILLER_28_338
*1922 FILLER_28_35
*1923 FILLER_28_42
*1924 FILLER_28_50
*1925 FILLER_28_58
*1926 FILLER_28_62
*1927 FILLER_28_68
*1928 FILLER_28_7
*1929 FILLER_28_75
*1930 FILLER_28_82
*1931 FILLER_28_89
*1932 FILLER_28_96
*1933 FILLER_29_0
*1934 FILLER_29_101
*1935 FILLER_29_108
*1936 FILLER_29_136
*1937 FILLER_29_14
*1938 FILLER_29_140
*1939 FILLER_29_162
*1940 FILLER_29_169
*1941 FILLER_29_198
*1942 FILLER_29_205
*1943 FILLER_29_21
*1944 FILLER_29_212
*1945 FILLER_29_219
*1946 FILLER_29_226
*1947 FILLER_29_260
*1948 FILLER_29_267
*1949 FILLER_29_274
*1950 FILLER_29_28
*1951 FILLER_29_281
*1952 FILLER_29_288
*1953 FILLER_29_295
*1954 FILLER_29_302
*1955 FILLER_29_306
*1956 FILLER_29_310
*1957 FILLER_29_315
*1958 FILLER_29_322
*1959 FILLER_29_328
*1960 FILLER_29_335
*1961 FILLER_29_35
*1962 FILLER_29_39
*1963 FILLER_29_68
*1964 FILLER_29_7
*1965 FILLER_29_75
*1966 FILLER_29_82
*1967 FILLER_29_86
*1968 FILLER_2_0
*1969 FILLER_2_105
*1970 FILLER_2_131
*1971 FILLER_2_139
*1972 FILLER_2_14
*1973 FILLER_2_146
*1974 FILLER_2_148
*1975 FILLER_2_21
*1976 FILLER_2_234
*1977 FILLER_2_28
*1978 FILLER_2_289
*1979 FILLER_2_35
*1980 FILLER_2_42
*1981 FILLER_2_49
*1982 FILLER_2_56
*1983 FILLER_2_65
*1984 FILLER_2_7
*1985 FILLER_2_77
*1986 FILLER_30_0
*1987 FILLER_30_110
*1988 FILLER_30_118
*1989 FILLER_30_125
*1990 FILLER_30_132
*1991 FILLER_30_139
*1992 FILLER_30_14
*1993 FILLER_30_146
*1994 FILLER_30_174
*1995 FILLER_30_181
*1996 FILLER_30_188
*1997 FILLER_30_195
*1998 FILLER_30_202
*1999 FILLER_30_21
*2000 FILLER_30_214
*2001 FILLER_30_221
*2002 FILLER_30_228
*2003 FILLER_30_235
*2004 FILLER_30_237
*2005 FILLER_30_242
*2006 FILLER_30_249
*2007 FILLER_30_256
*2008 FILLER_30_263
*2009 FILLER_30_277
*2010 FILLER_30_28
*2011 FILLER_30_284
*2012 FILLER_30_291
*2013 FILLER_30_321
*2014 FILLER_30_328
*2015 FILLER_30_335
*2016 FILLER_30_35
*2017 FILLER_30_42
*2018 FILLER_30_49
*2019 FILLER_30_56
*2020 FILLER_30_63
*2021 FILLER_30_7
*2022 FILLER_30_70
*2023 FILLER_30_77
*2024 FILLER_31_0
*2025 FILLER_31_101
*2026 FILLER_31_108
*2027 FILLER_31_115
*2028 FILLER_31_122
*2029 FILLER_31_137
*2030 FILLER_31_14
*2031 FILLER_31_144
*2032 FILLER_31_151
*2033 FILLER_31_158
*2034 FILLER_31_165
*2035 FILLER_31_172
*2036 FILLER_31_179
*2037 FILLER_31_191
*2038 FILLER_31_198
*2039 FILLER_31_202
*2040 FILLER_31_21
*2041 FILLER_31_235
*2042 FILLER_31_242
*2043 FILLER_31_249
*2044 FILLER_31_256
*2045 FILLER_31_263
*2046 FILLER_31_270
*2047 FILLER_31_272
*2048 FILLER_31_28
*2049 FILLER_31_282
*2050 FILLER_31_289
*2051 FILLER_31_306
*2052 FILLER_31_334
*2053 FILLER_31_341
*2054 FILLER_31_35
*2055 FILLER_31_42
*2056 FILLER_31_46
*2057 FILLER_31_51
*2058 FILLER_31_58
*2059 FILLER_31_62
*2060 FILLER_31_7
*2061 FILLER_32_0
*2062 FILLER_32_101
*2063 FILLER_32_108
*2064 FILLER_32_115
*2065 FILLER_32_117
*2066 FILLER_32_14
*2067 FILLER_32_150
*2068 FILLER_32_157
*2069 FILLER_32_164
*2070 FILLER_32_171
*2071 FILLER_32_202
*2072 FILLER_32_209
*2073 FILLER_32_21
*2074 FILLER_32_217
*2075 FILLER_32_223
*2076 FILLER_32_230
*2077 FILLER_32_237
*2078 FILLER_32_244
*2079 FILLER_32_251
*2080 FILLER_32_268
*2081 FILLER_32_28
*2082 FILLER_32_296
*2083 FILLER_32_313
*2084 FILLER_32_320
*2085 FILLER_32_322
*2086 FILLER_32_328
*2087 FILLER_32_335
*2088 FILLER_32_35
*2089 FILLER_32_7
*2090 FILLER_32_74
*2091 FILLER_32_94
*2092 FILLER_33_0
*2093 FILLER_33_106
*2094 FILLER_33_115
*2095 FILLER_33_122
*2096 FILLER_33_124
*2097 FILLER_33_133
*2098 FILLER_33_139
*2099 FILLER_33_14
*2100 FILLER_33_151
*2101 FILLER_33_157
*2102 FILLER_33_164
*2103 FILLER_33_185
*2104 FILLER_33_187
*2105 FILLER_33_192
*2106 FILLER_33_194
*2107 FILLER_33_200
*2108 FILLER_33_207
*2109 FILLER_33_21
*2110 FILLER_33_214
*2111 FILLER_33_221
*2112 FILLER_33_228
*2113 FILLER_33_230
*2114 FILLER_33_236
*2115 FILLER_33_243
*2116 FILLER_33_28
*2117 FILLER_33_281
*2118 FILLER_33_288
*2119 FILLER_33_295
*2120 FILLER_33_302
*2121 FILLER_33_306
*2122 FILLER_33_318
*2123 FILLER_33_346
*2124 FILLER_33_35
*2125 FILLER_33_42
*2126 FILLER_33_49
*2127 FILLER_33_56
*2128 FILLER_33_63
*2129 FILLER_33_67
*2130 FILLER_33_7
*2131 FILLER_33_73
*2132 FILLER_33_78
*2133 FILLER_33_85
*2134 FILLER_33_92
*2135 FILLER_33_99
*2136 FILLER_34_0
*2137 FILLER_34_127
*2138 FILLER_34_134
*2139 FILLER_34_14
*2140 FILLER_34_168
*2141 FILLER_34_175
*2142 FILLER_34_21
*2143 FILLER_34_212
*2144 FILLER_34_219
*2145 FILLER_34_253
*2146 FILLER_34_257
*2147 FILLER_34_272
*2148 FILLER_34_276
*2149 FILLER_34_28
*2150 FILLER_34_287
*2151 FILLER_34_294
*2152 FILLER_34_301
*2153 FILLER_34_308
*2154 FILLER_34_314
*2155 FILLER_34_320
*2156 FILLER_34_328
*2157 FILLER_34_335
*2158 FILLER_34_35
*2159 FILLER_34_42
*2160 FILLER_34_49
*2161 FILLER_34_56
*2162 FILLER_34_63
*2163 FILLER_34_7
*2164 FILLER_34_70
*2165 FILLER_34_77
*2166 FILLER_34_84
*2167 FILLER_34_91
*2168 FILLER_34_98
*2169 FILLER_35_11
*2170 FILLER_35_122
*2171 FILLER_35_129
*2172 FILLER_35_136
*2173 FILLER_35_162
*2174 FILLER_35_169
*2175 FILLER_35_173
*2176 FILLER_35_18
*2177 FILLER_35_181
*2178 FILLER_35_206
*2179 FILLER_35_213
*2180 FILLER_35_220
*2181 FILLER_35_224
*2182 FILLER_35_234
*2183 FILLER_35_240
*2184 FILLER_35_247
*2185 FILLER_35_25
*2186 FILLER_35_257
*2187 FILLER_35_264
*2188 FILLER_35_271
*2189 FILLER_35_278
*2190 FILLER_35_285
*2191 FILLER_35_292
*2192 FILLER_35_294
*2193 FILLER_35_32
*2194 FILLER_35_332
*2195 FILLER_35_39
*2196 FILLER_35_4
*2197 FILLER_35_46
*2198 FILLER_35_48
*2199 FILLER_35_53
*2200 FILLER_35_60
*2201 FILLER_35_67
*2202 FILLER_35_74
*2203 FILLER_35_81
*2204 FILLER_35_88
*2205 FILLER_36_0
*2206 FILLER_36_116
*2207 FILLER_36_123
*2208 FILLER_36_130
*2209 FILLER_36_137
*2210 FILLER_36_14
*2211 FILLER_36_144
*2212 FILLER_36_151
*2213 FILLER_36_158
*2214 FILLER_36_171
*2215 FILLER_36_178
*2216 FILLER_36_188
*2217 FILLER_36_194
*2218 FILLER_36_201
*2219 FILLER_36_208
*2220 FILLER_36_21
*2221 FILLER_36_215
*2222 FILLER_36_222
*2223 FILLER_36_229
*2224 FILLER_36_235
*2225 FILLER_36_242
*2226 FILLER_36_28
*2227 FILLER_36_289
*2228 FILLER_36_306
*2229 FILLER_36_312
*2230 FILLER_36_346
*2231 FILLER_36_35
*2232 FILLER_36_42
*2233 FILLER_36_7
*2234 FILLER_36_80
*2235 FILLER_36_84
*2236 FILLER_37_0
*2237 FILLER_37_111
*2238 FILLER_37_118
*2239 FILLER_37_125
*2240 FILLER_37_127
*2241 FILLER_37_137
*2242 FILLER_37_14
*2243 FILLER_37_143
*2244 FILLER_37_150
*2245 FILLER_37_157
*2246 FILLER_37_164
*2247 FILLER_37_166
*2248 FILLER_37_171
*2249 FILLER_37_178
*2250 FILLER_37_182
*2251 FILLER_37_191
*2252 FILLER_37_198
*2253 FILLER_37_205
*2254 FILLER_37_21
*2255 FILLER_37_212
*2256 FILLER_37_245
*2257 FILLER_37_252
*2258 FILLER_37_256
*2259 FILLER_37_267
*2260 FILLER_37_272
*2261 FILLER_37_278
*2262 FILLER_37_28
*2263 FILLER_37_285
*2264 FILLER_37_292
*2265 FILLER_37_299
*2266 FILLER_37_306
*2267 FILLER_37_310
*2268 FILLER_37_316
*2269 FILLER_37_320
*2270 FILLER_37_331
*2271 FILLER_37_338
*2272 FILLER_37_35
*2273 FILLER_37_39
*2274 FILLER_37_67
*2275 FILLER_37_7
*2276 FILLER_37_83
*2277 FILLER_37_96
*2278 FILLER_38_0
*2279 FILLER_38_101
*2280 FILLER_38_106
*2281 FILLER_38_113
*2282 FILLER_38_117
*2283 FILLER_38_14
*2284 FILLER_38_155
*2285 FILLER_38_168
*2286 FILLER_38_175
*2287 FILLER_38_179
*2288 FILLER_38_186
*2289 FILLER_38_190
*2290 FILLER_38_198
*2291 FILLER_38_205
*2292 FILLER_38_21
*2293 FILLER_38_214
*2294 FILLER_38_221
*2295 FILLER_38_232
*2296 FILLER_38_239
*2297 FILLER_38_246
*2298 FILLER_38_253
*2299 FILLER_38_260
*2300 FILLER_38_267
*2301 FILLER_38_274
*2302 FILLER_38_28
*2303 FILLER_38_281
*2304 FILLER_38_288
*2305 FILLER_38_295
*2306 FILLER_38_302
*2307 FILLER_38_309
*2308 FILLER_38_316
*2309 FILLER_38_323
*2310 FILLER_38_330
*2311 FILLER_38_337
*2312 FILLER_38_35
*2313 FILLER_38_42
*2314 FILLER_38_44
*2315 FILLER_38_49
*2316 FILLER_38_56
*2317 FILLER_38_7
*2318 FILLER_38_78
*2319 FILLER_38_85
*2320 FILLER_38_92
*2321 FILLER_38_99
*2322 FILLER_39_0
*2323 FILLER_39_103
*2324 FILLER_39_110
*2325 FILLER_39_117
*2326 FILLER_39_123
*2327 FILLER_39_132
*2328 FILLER_39_139
*2329 FILLER_39_14
*2330 FILLER_39_146
*2331 FILLER_39_178
*2332 FILLER_39_185
*2333 FILLER_39_192
*2334 FILLER_39_196
*2335 FILLER_39_21
*2336 FILLER_39_224
*2337 FILLER_39_231
*2338 FILLER_39_238
*2339 FILLER_39_245
*2340 FILLER_39_252
*2341 FILLER_39_259
*2342 FILLER_39_270
*2343 FILLER_39_277
*2344 FILLER_39_28
*2345 FILLER_39_284
*2346 FILLER_39_291
*2347 FILLER_39_301
*2348 FILLER_39_308
*2349 FILLER_39_317
*2350 FILLER_39_331
*2351 FILLER_39_35
*2352 FILLER_39_42
*2353 FILLER_39_49
*2354 FILLER_39_56
*2355 FILLER_39_63
*2356 FILLER_39_7
*2357 FILLER_39_75
*2358 FILLER_39_82
*2359 FILLER_39_89
*2360 FILLER_39_96
*2361 FILLER_3_0
*2362 FILLER_3_112
*2363 FILLER_3_123
*2364 FILLER_3_138
*2365 FILLER_3_14
*2366 FILLER_3_145
*2367 FILLER_3_21
*2368 FILLER_3_222
*2369 FILLER_3_243
*2370 FILLER_3_261
*2371 FILLER_3_28
*2372 FILLER_3_282
*2373 FILLER_3_337
*2374 FILLER_3_341
*2375 FILLER_3_35
*2376 FILLER_3_42
*2377 FILLER_3_49
*2378 FILLER_3_7
*2379 FILLER_40_0
*2380 FILLER_40_105
*2381 FILLER_40_109
*2382 FILLER_40_127
*2383 FILLER_40_134
*2384 FILLER_40_14
*2385 FILLER_40_141
*2386 FILLER_40_143
*2387 FILLER_40_149
*2388 FILLER_40_153
*2389 FILLER_40_159
*2390 FILLER_40_166
*2391 FILLER_40_171
*2392 FILLER_40_178
*2393 FILLER_40_185
*2394 FILLER_40_192
*2395 FILLER_40_196
*2396 FILLER_40_21
*2397 FILLER_40_213
*2398 FILLER_40_215
*2399 FILLER_40_221
*2400 FILLER_40_228
*2401 FILLER_40_234
*2402 FILLER_40_238
*2403 FILLER_40_245
*2404 FILLER_40_28
*2405 FILLER_40_317
*2406 FILLER_40_345
*2407 FILLER_40_35
*2408 FILLER_40_42
*2409 FILLER_40_49
*2410 FILLER_40_57
*2411 FILLER_40_64
*2412 FILLER_40_66
*2413 FILLER_40_7
*2414 FILLER_40_83
*2415 FILLER_40_91
*2416 FILLER_40_98
*2417 FILLER_41_0
*2418 FILLER_41_134
*2419 FILLER_41_14
*2420 FILLER_41_146
*2421 FILLER_41_160
*2422 FILLER_41_164
*2423 FILLER_41_190
*2424 FILLER_41_21
*2425 FILLER_41_218
*2426 FILLER_41_252
*2427 FILLER_41_28
*2428 FILLER_41_284
*2429 FILLER_41_290
*2430 FILLER_41_297
*2431 FILLER_41_304
*2432 FILLER_41_306
*2433 FILLER_41_344
*2434 FILLER_41_346
*2435 FILLER_41_35
*2436 FILLER_41_42
*2437 FILLER_41_46
*2438 FILLER_41_7
*2439 FILLER_41_81
*2440 FILLER_41_95
*2441 FILLER_42_0
*2442 FILLER_42_116
*2443 FILLER_42_124
*2444 FILLER_42_14
*2445 FILLER_42_181
*2446 FILLER_42_188
*2447 FILLER_42_192
*2448 FILLER_42_21
*2449 FILLER_42_229
*2450 FILLER_42_234
*2451 FILLER_42_253
*2452 FILLER_42_259
*2453 FILLER_42_261
*2454 FILLER_42_28
*2455 FILLER_42_287
*2456 FILLER_42_294
*2457 FILLER_42_301
*2458 FILLER_42_308
*2459 FILLER_42_321
*2460 FILLER_42_35
*2461 FILLER_42_42
*2462 FILLER_42_49
*2463 FILLER_42_56
*2464 FILLER_42_63
*2465 FILLER_42_7
*2466 FILLER_42_78
*2467 FILLER_43_0
*2468 FILLER_43_14
*2469 FILLER_43_21
*2470 FILLER_43_28
*2471 FILLER_43_297
*2472 FILLER_43_304
*2473 FILLER_43_311
*2474 FILLER_43_318
*2475 FILLER_43_325
*2476 FILLER_43_332
*2477 FILLER_43_334
*2478 FILLER_43_35
*2479 FILLER_43_42
*2480 FILLER_43_49
*2481 FILLER_43_56
*2482 FILLER_43_7
*2483 FILLER_4_0
*2484 FILLER_4_100
*2485 FILLER_4_107
*2486 FILLER_4_114
*2487 FILLER_4_14
*2488 FILLER_4_147
*2489 FILLER_4_149
*2490 FILLER_4_190
*2491 FILLER_4_199
*2492 FILLER_4_21
*2493 FILLER_4_215
*2494 FILLER_4_239
*2495 FILLER_4_253
*2496 FILLER_4_28
*2497 FILLER_4_304
*2498 FILLER_4_315
*2499 FILLER_4_329
*2500 FILLER_4_336
*2501 FILLER_4_343
*2502 FILLER_4_35
*2503 FILLER_4_42
*2504 FILLER_4_46
*2505 FILLER_4_7
*2506 FILLER_4_82
*2507 FILLER_4_89
*2508 FILLER_5_0
*2509 FILLER_5_101
*2510 FILLER_5_108
*2511 FILLER_5_112
*2512 FILLER_5_122
*2513 FILLER_5_124
*2514 FILLER_5_129
*2515 FILLER_5_136
*2516 FILLER_5_14
*2517 FILLER_5_143
*2518 FILLER_5_150
*2519 FILLER_5_157
*2520 FILLER_5_163
*2521 FILLER_5_170
*2522 FILLER_5_172
*2523 FILLER_5_178
*2524 FILLER_5_184
*2525 FILLER_5_191
*2526 FILLER_5_198
*2527 FILLER_5_21
*2528 FILLER_5_210
*2529 FILLER_5_214
*2530 FILLER_5_219
*2531 FILLER_5_237
*2532 FILLER_5_263
*2533 FILLER_5_28
*2534 FILLER_5_318
*2535 FILLER_5_325
*2536 FILLER_5_332
*2537 FILLER_5_339
*2538 FILLER_5_346
*2539 FILLER_5_35
*2540 FILLER_5_42
*2541 FILLER_5_49
*2542 FILLER_5_53
*2543 FILLER_5_64
*2544 FILLER_5_7
*2545 FILLER_5_78
*2546 FILLER_5_85
*2547 FILLER_5_89
*2548 FILLER_5_94
*2549 FILLER_6_0
*2550 FILLER_6_105
*2551 FILLER_6_112
*2552 FILLER_6_119
*2553 FILLER_6_126
*2554 FILLER_6_133
*2555 FILLER_6_14
*2556 FILLER_6_140
*2557 FILLER_6_147
*2558 FILLER_6_151
*2559 FILLER_6_158
*2560 FILLER_6_165
*2561 FILLER_6_172
*2562 FILLER_6_183
*2563 FILLER_6_195
*2564 FILLER_6_202
*2565 FILLER_6_209
*2566 FILLER_6_21
*2567 FILLER_6_216
*2568 FILLER_6_254
*2569 FILLER_6_261
*2570 FILLER_6_28
*2571 FILLER_6_289
*2572 FILLER_6_306
*2573 FILLER_6_313
*2574 FILLER_6_320
*2575 FILLER_6_327
*2576 FILLER_6_334
*2577 FILLER_6_341
*2578 FILLER_6_345
*2579 FILLER_6_35
*2580 FILLER_6_42
*2581 FILLER_6_49
*2582 FILLER_6_56
*2583 FILLER_6_63
*2584 FILLER_6_7
*2585 FILLER_6_70
*2586 FILLER_6_77
*2587 FILLER_6_84
*2588 FILLER_6_91
*2589 FILLER_6_98
*2590 FILLER_7_0
*2591 FILLER_7_118
*2592 FILLER_7_125
*2593 FILLER_7_127
*2594 FILLER_7_133
*2595 FILLER_7_14
*2596 FILLER_7_140
*2597 FILLER_7_147
*2598 FILLER_7_154
*2599 FILLER_7_188
*2600 FILLER_7_195
*2601 FILLER_7_202
*2602 FILLER_7_206
*2603 FILLER_7_21
*2604 FILLER_7_214
*2605 FILLER_7_216
*2606 FILLER_7_267
*2607 FILLER_7_274
*2608 FILLER_7_276
*2609 FILLER_7_28
*2610 FILLER_7_280
*2611 FILLER_7_289
*2612 FILLER_7_298
*2613 FILLER_7_305
*2614 FILLER_7_312
*2615 FILLER_7_319
*2616 FILLER_7_326
*2617 FILLER_7_333
*2618 FILLER_7_340
*2619 FILLER_7_35
*2620 FILLER_7_42
*2621 FILLER_7_49
*2622 FILLER_7_56
*2623 FILLER_7_63
*2624 FILLER_7_7
*2625 FILLER_7_73
*2626 FILLER_7_80
*2627 FILLER_7_91
*2628 FILLER_7_98
*2629 FILLER_8_0
*2630 FILLER_8_139
*2631 FILLER_8_14
*2632 FILLER_8_154
*2633 FILLER_8_156
*2634 FILLER_8_193
*2635 FILLER_8_199
*2636 FILLER_8_206
*2637 FILLER_8_21
*2638 FILLER_8_213
*2639 FILLER_8_217
*2640 FILLER_8_222
*2641 FILLER_8_254
*2642 FILLER_8_261
*2643 FILLER_8_268
*2644 FILLER_8_28
*2645 FILLER_8_316
*2646 FILLER_8_323
*2647 FILLER_8_330
*2648 FILLER_8_337
*2649 FILLER_8_344
*2650 FILLER_8_346
*2651 FILLER_8_35
*2652 FILLER_8_42
*2653 FILLER_8_49
*2654 FILLER_8_7
*2655 FILLER_9_0
*2656 FILLER_9_100
*2657 FILLER_9_115
*2658 FILLER_9_127
*2659 FILLER_9_14
*2660 FILLER_9_155
*2661 FILLER_9_162
*2662 FILLER_9_166
*2663 FILLER_9_171
*2664 FILLER_9_175
*2665 FILLER_9_185
*2666 FILLER_9_192
*2667 FILLER_9_199
*2668 FILLER_9_206
*2669 FILLER_9_21
*2670 FILLER_9_213
*2671 FILLER_9_217
*2672 FILLER_9_231
*2673 FILLER_9_238
*2674 FILLER_9_245
*2675 FILLER_9_252
*2676 FILLER_9_265
*2677 FILLER_9_272
*2678 FILLER_9_28
*2679 FILLER_9_291
*2680 FILLER_9_296
*2681 FILLER_9_303
*2682 FILLER_9_310
*2683 FILLER_9_317
*2684 FILLER_9_324
*2685 FILLER_9_331
*2686 FILLER_9_338
*2687 FILLER_9_345
*2688 FILLER_9_35
*2689 FILLER_9_39
*2690 FILLER_9_7
*2691 FILLER_9_77
*2692 FILLER_9_84
*2693 FILLER_9_89
*2694 FILLER_9_96
*2695 _0551_
*2696 _0552_
*2697 _0553_
*2698 _0554_
*2699 _0555_
*2700 _0556_
*2701 _0557_
*2702 _0558_
*2703 _0559_
*2704 _0560_
*2705 _0561_
*2706 _0562_
*2707 _0563_
*2708 _0564_
*2709 _0565_
*2710 _0566_
*2711 _0567_
*2712 _0568_
*2713 _0569_
*2714 _0570_
*2715 _0571_
*2716 _0572_
*2717 _0573_
*2718 _0574_
*2719 _0575_
*2720 _0576_
*2721 _0577_
*2722 _0578_
*2723 _0579_
*2724 _0580_
*2725 _0581_
*2726 _0582_
*2727 _0583_
*2728 _0584_
*2729 _0585_
*2730 _0586_
*2731 _0587_
*2732 _0588_
*2733 _0589_
*2734 _0590_
*2735 _0591_
*2736 _0592_
*2737 _0593_
*2738 _0594_
*2739 _0595_
*2740 _0596_
*2741 _0597_
*2742 _0598_
*2743 _0599_
*2744 _0600_
*2745 _0601_
*2746 _0602_
*2747 _0603_
*2748 _0604_
*2749 _0605_
*2750 _0606_
*2751 _0607_
*2752 _0608_
*2753 _0609_
*2754 _0610_
*2755 _0611_
*2756 _0612_
*2757 _0613_
*2758 _0614_
*2759 _0615_
*2760 _0616_
*2761 _0617_
*2762 _0618_
*2763 _0619_
*2764 _0620_
*2765 _0621_
*2766 _0622_
*2767 _0623_
*2768 _0624_
*2769 _0625_
*2770 _0626_
*2771 _0627_
*2772 _0628_
*2773 _0629_
*2774 _0630_
*2775 _0631_
*2776 _0632_
*2777 _0633_
*2778 _0634_
*2779 _0635_
*2780 _0636_
*2781 _0637_
*2782 _0638_
*2783 _0639_
*2784 _0640_
*2785 _0641_
*2786 _0642_
*2787 _0643_
*2788 _0644_
*2789 _0645_
*2790 _0646_
*2791 _0647_
*2792 _0648_
*2793 _0649_
*2794 _0650_
*2795 _0651_
*2796 _0652_
*2797 _0653_
*2798 _0654_
*2799 _0655_
*2800 _0656_
*2801 _0657_
*2802 _0658_
*2803 _0659_
*2804 _0660_
*2805 _0661_
*2806 _0662_
*2807 _0663_
*2808 _0664_
*2809 _0665_
*2810 _0666_
*2811 _0667_
*2812 _0668_
*2813 _0669_
*2814 _0670_
*2815 _0671_
*2816 _0672_
*2817 _0673_
*2818 _0674_
*2819 _0675_
*2820 _0676_
*2821 _0677_
*2822 _0678_
*2823 _0679_
*2824 _0680_
*2825 _0681_
*2826 _0682_
*2827 _0683_
*2828 _0684_
*2829 _0685_
*2830 _0686_
*2831 _0687_
*2832 _0688_
*2833 _0689_
*2834 _0690_
*2835 _0691_
*2836 _0692_
*2837 _0693_
*2838 _0694_
*2839 _0695_
*2840 _0696_
*2841 _0697_
*2842 _0698_
*2843 _0699_
*2844 _0700_
*2845 _0701_
*2846 _0702_
*2847 _0703_
*2848 _0704_
*2849 _0705_
*2850 _0706_
*2851 _0707_
*2852 _0708_
*2853 _0709_
*2854 _0710_
*2855 _0711_
*2856 _0712_
*2857 _0713_
*2858 _0714_
*2859 _0715_
*2860 _0716_
*2861 _0717_
*2862 _0718_
*2863 _0719_
*2864 _0720_
*2865 _0721_
*2866 _0722_
*2867 _0723_
*2868 _0724_
*2869 _0725_
*2870 _0726_
*2871 _0727_
*2872 _0728_
*2873 _0729_
*2874 _0730_
*2875 _0731_
*2876 _0732_
*2877 _0733_
*2878 _0734_
*2879 _0735_
*2880 _0736_
*2881 _0737_
*2882 _0738_
*2883 _0739_
*2884 _0740_
*2885 _0741_
*2886 _0742_
*2887 _0743_
*2888 _0744_
*2889 _0745_
*2890 _0746_
*2891 _0747_
*2892 _0748_
*2893 _0749_
*2894 _0750_
*2895 _0751_
*2896 _0752_
*2897 _0753_
*2898 _0754_
*2899 _0755_
*2900 _0756_
*2901 _0757_
*2902 _0758_
*2903 _0759_
*2904 _0760_
*2905 _0761_
*2906 _0762_
*2907 _0763_
*2908 _0764_
*2909 _0765_
*2910 _0766_
*2911 _0767_
*2912 _0768_
*2913 _0769_
*2914 _0770_
*2915 _0771_
*2916 _0772_
*2917 _0773_
*2918 _0774_
*2919 _0775_
*2920 _0776_
*2921 _0777_
*2922 _0778_
*2923 _0779_
*2924 _0780_
*2925 _0781_
*2926 _0782_
*2927 _0783_
*2928 _0784_
*2929 _0785_
*2930 _0786_
*2931 _0787_
*2932 _0788_
*2933 _0789_
*2934 _0790_
*2935 _0791_
*2936 _0792_
*2937 _0793_
*2938 _0794_
*2939 _0795_
*2940 _0796_
*2941 _0797_
*2942 _0798_
*2943 _0799_
*2944 _0800_
*2945 _0801_
*2946 _0802_
*2947 _0803_
*2948 _0804_
*2949 _0805_
*2950 _0806_
*2951 _0807_
*2952 _0808_
*2953 _0809_
*2954 _0810_
*2955 _0811_
*2956 _0812_
*2957 _0813_
*2958 _0814_
*2959 _0815_
*2960 _0816_
*2961 _0817_
*2962 _0818_
*2963 _0819_
*2964 _0820_
*2965 _0821_
*2966 _0822_
*2967 _0823_
*2968 _0824_
*2969 _0825_
*2970 _0826_
*2971 _0827_
*2972 _0828_
*2973 _0829_
*2974 _0830_
*2975 _0831_
*2976 _0832_
*2977 _0833_
*2978 _0834_
*2979 _0835_
*2980 _0836_
*2981 _0837_
*2982 _0838_
*2983 _0839_
*2984 _0840_
*2985 _0841_
*2986 _0842_
*2987 _0843_
*2988 _0844_
*2989 _0845_
*2990 _0846_
*2991 _0847_
*2992 _0848_
*2993 _0849_
*2994 _0850_
*2995 _0851_
*2996 _0852_
*2997 _0853_
*2998 _0854_
*2999 _0855_
*3000 _0856_
*3001 _0857_
*3002 _0858_
*3003 _0859_
*3004 _0860_
*3005 _0861_
*3006 _0862_
*3007 _0863_
*3008 _0864_
*3009 _0865_
*3010 _0866_
*3011 _0867_
*3012 _0868_
*3013 _0869_
*3014 _0870_
*3015 _0871_
*3016 _0872_
*3017 _0873_
*3018 _0874_
*3019 _0875_
*3020 _0876_
*3021 _0877_
*3022 _0878_
*3023 _0879_
*3024 _0880_
*3025 _0881_
*3026 _0882_
*3027 _0883_
*3028 _0884_
*3029 _0885_
*3030 _0886_
*3031 _0887_
*3032 _0888_
*3033 _0889_
*3034 _0890_
*3035 _0891_
*3036 _0892_
*3037 _0893_
*3038 _0894_
*3039 _0895_
*3040 _0896_
*3041 _0897_
*3042 _0898_
*3043 _0899_
*3044 _0900_
*3045 _0901_
*3046 _0902_
*3047 _0903_
*3048 _0904_
*3049 _0905_
*3050 _0906_
*3051 _0907_
*3052 _0908_
*3053 _0909_
*3054 _0910_
*3055 _0911_
*3056 _0912_
*3057 _0913_
*3058 _0914_
*3059 _0915_
*3060 _0916_
*3061 _0917_
*3062 _0918_
*3063 _0919_
*3064 _0920_
*3065 _0921_
*3066 _0922_
*3067 _0923_
*3068 _0924_
*3069 _0925_
*3070 _0926_
*3071 _0927_
*3072 _0928_
*3073 _0929_
*3074 _0930_
*3075 _0931_
*3076 _0932_
*3077 _0933_
*3078 _0934_
*3079 _0935_
*3080 _0936_
*3081 _0937_
*3082 _0938_
*3083 _0939_
*3084 _0940_
*3085 _0941_
*3086 _0942_
*3087 _0943_
*3088 _0944_
*3089 _0945_
*3090 _0946_
*3091 _0947_
*3092 _0948_
*3093 _0949_
*3094 _0950_
*3095 _0951_
*3096 _0952_
*3097 _0953_
*3098 _0954_
*3099 _0955_
*3100 _0956_
*3101 _0957_
*3102 _0958_
*3103 _0959_
*3104 _0960_
*3105 _0961_
*3106 _0962_
*3107 _0963_
*3108 _0964_
*3109 _0965_
*3110 _0966_
*3111 _0967_
*3112 _0968_
*3113 _0969_
*3114 _0970_
*3115 _0971_
*3116 _0972_
*3117 _0973_
*3118 _0974_
*3119 _0975_
*3120 _0976_
*3121 _0977_
*3122 _0978_
*3123 _0979_
*3124 _0980_
*3125 _0981_
*3126 _0982_
*3127 _0983_
*3128 _0984_
*3129 _0985_
*3130 _0986_
*3131 _0987_
*3132 _0988_
*3133 _0989_
*3134 _0990_
*3135 _0991_
*3136 _0992_
*3137 _0993_
*3138 _0994_
*3139 _0995_
*3140 _0996_
*3141 _0997_
*3142 _0998_
*3143 _0999_
*3144 _1000_
*3145 _1001_
*3146 _1001__378
*3147 _1002_
*3148 _1002__349
*3149 _1003_
*3150 _1003__347
*3151 _1004_
*3152 _1004__345
*3153 _1005_
*3154 _1005__343
*3155 _1006_
*3156 _1006__341
*3157 _1007_
*3158 _1007__339
*3159 _1008_
*3160 _1008__337
*3161 _1009_
*3162 _1009__335
*3163 _1010_
*3164 _1010__333
*3165 _1011_
*3166 _1011__331
*3167 _1012_
*3168 _1012__329
*3169 _1013_
*3170 _1013__327
*3171 _1014_
*3172 _1014__325
*3173 _1015_
*3174 _1015__323
*3175 _1016_
*3176 _1016__321
*3177 _1017_
*3178 _1017__319
*3179 _1018_
*3180 _1018__317
*3181 _1019_
*3182 _1019__315
*3183 _1020_
*3184 _1020__313
*3185 _1021_
*3186 _1021__311
*3187 _1022_
*3188 _1022__309
*3189 _1023_
*3190 _1023__307
*3191 _1024_
*3192 _1024__305
*3193 _1025_
*3194 _1025__303
*3195 _1026_
*3196 _1026__301
*3197 _1027_
*3198 _1027__299
*3199 _1028_
*3200 _1028__297
*3201 _1029_
*3202 _1029__295
*3203 _1030_
*3204 _1030__293
*3205 _1031_
*3206 _1031__291
*3207 _1032_
*3208 _1032__289
*3209 _1033_
*3210 _1033__287
*3211 _1034_
*3212 _1034__285
*3213 _1035_
*3214 _1035__283
*3215 _1036_
*3216 _1036__282
*3217 _1037_
*3218 _1037__280
*3219 _1038_
*3220 _1038__278
*3221 _1039_
*3222 _1039__377
*3223 _1040_
*3224 _1040__375
*3225 _1041_
*3226 _1041__373
*3227 _1042_
*3228 _1042__371
*3229 _1043_
*3230 _1043__369
*3231 _1044_
*3232 _1044__367
*3233 _1045_
*3234 _1045__365
*3235 _1046_
*3236 _1046__363
*3237 _1047_
*3238 _1047__361
*3239 _1048_
*3240 _1048__359
*3241 _1049_
*3242 _1049__357
*3243 _1050_
*3244 _1050__355
*3245 _1051_
*3246 _1051__353
*3247 _1052_
*3248 _1052__351
*3249 _1053_
*3250 _1053__348
*3251 _1054_
*3252 _1054__344
*3253 _1055_
*3254 _1055__340
*3255 _1056_
*3256 _1056__336
*3257 _1057_
*3258 _1057__332
*3259 _1058_
*3260 _1058__328
*3261 _1059_
*3262 _1059__324
*3263 _1060_
*3264 _1060__320
*3265 _1061_
*3266 _1061__316
*3267 _1062_
*3268 _1062__312
*3269 _1063_
*3270 _1063__308
*3271 _1064_
*3272 _1064__304
*3273 _1065_
*3274 _1065__300
*3275 _1066_
*3276 _1066__296
*3277 _1067_
*3278 _1067__292
*3279 _1068_
*3280 _1068__288
*3281 _1069_
*3282 _1069__284
*3283 _1070_
*3284 _1070__279
*3285 _1071_
*3286 _1071__376
*3287 _1072_
*3288 _1072__372
*3289 _1073_
*3290 _1073__368
*3291 _1074_
*3292 _1074__364
*3293 _1075_
*3294 _1075__360
*3295 _1076_
*3296 _1076__356
*3297 _1077_
*3298 _1077__352
*3299 _1078_
*3300 _1078__346
*3301 _1079_
*3302 _1079__338
*3303 _1080_
*3304 _1080__330
*3305 _1081_
*3306 _1081__322
*3307 _1082_
*3308 _1082__314
*3309 _1083_
*3310 _1083__306
*3311 _1084_
*3312 _1084__298
*3313 _1085_
*3314 _1085__290
*3315 _1086_
*3316 _1086__281
*3317 _1087_
*3318 _1087__374
*3319 _1088_
*3320 _1088__366
*3321 _1089_
*3322 _1089__358
*3323 _1090_
*3324 _1090__350
*3325 _1091_
*3326 _1091__334
*3327 _1092_
*3328 _1092__318
*3329 _1093_
*3330 _1093__302
*3331 _1094_
*3332 _1094__286
*3333 _1095_
*3334 _1095__370
*3335 _1096_
*3336 _1096__354
*3337 _1097_
*3338 _1097__326
*3339 _1098_
*3340 _1098__294
*3341 _1099_
*3342 _1099__362
*3343 _1100_
*3344 _1100__310
*3345 _1101_
*3346 _1101__342
*3347 _1207_
*3348 clkbuf_0_clk_i
*3349 clkbuf_4_0_0_clk_i
*3350 clkbuf_4_10_0_clk_i
*3351 clkbuf_4_11_0_clk_i
*3352 clkbuf_4_12_0_clk_i
*3353 clkbuf_4_13_0_clk_i
*3354 clkbuf_4_14_0_clk_i
*3355 clkbuf_4_15_0_clk_i
*3356 clkbuf_4_1_0_clk_i
*3357 clkbuf_4_2_0_clk_i
*3358 clkbuf_4_3_0_clk_i
*3359 clkbuf_4_4_0_clk_i
*3360 clkbuf_4_5_0_clk_i
*3361 clkbuf_4_6_0_clk_i
*3362 clkbuf_4_7_0_clk_i
*3363 clkbuf_4_8_0_clk_i
*3364 clkbuf_4_9_0_clk_i
*3365 clkload0
*3366 clkload1
*3367 clkload10
*3368 clkload2
*3369 clkload3
*3370 clkload4
*3371 clkload5
*3372 clkload6
*3373 clkload7
*3374 clkload8
*3375 clkload9
*3376 fanout179
*3377 fanout180
*3378 fanout181
*3379 fanout182
*3380 fanout183
*3381 fanout184
*3382 fanout185
*3383 fanout186
*3384 fanout187
*3385 fanout188
*3386 fanout189
*3387 fanout190
*3388 fanout191
*3389 fanout192
*3390 fanout193
*3391 fanout194
*3392 fanout195
*3393 fanout196
*3394 fanout197
*3395 fanout198
*3396 fanout199
*3397 fanout200
*3398 fanout201
*3399 fanout202
*3400 fanout203
*3401 fanout204
*3402 fanout205
*3403 fanout206
*3404 fanout207
*3405 fanout208
*3406 fanout209
*3407 fanout210
*3408 fanout211
*3409 fanout212
*3410 fanout213
*3411 fanout214
*3412 fanout215
*3413 fanout216
*3414 fanout217
*3415 fanout218
*3416 fanout219
*3417 fanout220
*3418 fanout221
*3419 fanout222
*3420 fanout223
*3421 fanout224
*3422 fanout225
*3423 fanout226
*3424 fanout227
*3425 fanout228
*3426 fanout229
*3427 fanout230
*3428 fanout231
*3429 fanout232
*3430 fanout233
*3431 fanout234
*3432 fanout235
*3433 fanout236
*3434 fanout237
*3435 fanout238
*3436 fanout239
*3437 fanout240
*3438 fanout241
*3439 fanout242
*3440 fanout243
*3441 fanout244
*3442 fanout245
*3443 fanout246
*3444 fanout247
*3445 fanout248
*3446 fanout249
*3447 fanout250
*3448 fanout251
*3449 fanout252
*3450 fanout253
*3451 fanout254
*3452 fanout255
*3453 fanout256
*3454 fanout257
*3455 fanout258
*3456 fanout259
*3457 fanout260
*3458 fanout261
*3459 fanout262
*3460 fanout263
*3461 fanout264
*3462 fanout265
*3463 fanout266
*3464 fanout267
*3465 fanout268
*3466 fanout269
*3467 fanout270
*3468 fanout271
*3469 fanout272
*3470 fanout273
*3471 fanout274
*3472 hold379
*3473 hold380
*3474 hold381
*3475 hold382
*3476 hold383
*3477 hold384
*3478 hold385
*3479 hold386
*3480 hold387
*3481 hold388
*3482 hold389
*3483 hold390
*3484 hold391
*3485 hold392
*3486 hold393
*3487 hold394
*3488 hold395
*3489 hold396
*3490 hold397
*3491 hold398
*3492 hold399
*3493 hold400
*3494 hold401
*3495 hold402
*3496 hold403
*3497 hold404
*3498 hold405
*3499 hold406
*3500 hold407
*3501 hold408
*3502 hold409
*3503 hold410
*3504 hold411
*3505 hold412
*3506 hold413
*3507 hold414
*3508 hold415
*3509 hold416
*3510 hold417
*3511 hold418
*3512 hold419
*3513 hold420
*3514 hold421
*3515 hold422
*3516 hold423
*3517 hold424
*3518 hold425
*3519 hold426
*3520 hold427
*3521 hold428
*3522 hold429
*3523 hold430
*3524 hold431
*3525 hold432
*3526 hold433
*3527 hold434
*3528 hold435
*3529 hold436
*3530 hold437
*3531 input1
*3532 input10
*3533 input11
*3534 input12
*3535 input13
*3536 input14
*3537 input15
*3538 input16
*3539 input17
*3540 input18
*3541 input19
*3542 input2
*3543 input20
*3544 input21
*3545 input22
*3546 input23
*3547 input24
*3548 input25
*3549 input26
*3550 input27
*3551 input28
*3552 input29
*3553 input3
*3554 input30
*3555 input31
*3556 input32
*3557 input33
*3558 input34
*3559 input35
*3560 input36
*3561 input37
*3562 input38
*3563 input39
*3564 input4
*3565 input40
*3566 input41
*3567 input42
*3568 input43
*3569 input44
*3570 input45
*3571 input46
*3572 input47
*3573 input48
*3574 input49
*3575 input5
*3576 input50
*3577 input51
*3578 input52
*3579 input53
*3580 input54
*3581 input55
*3582 input56
*3583 input57
*3584 input58
*3585 input59
*3586 input6
*3587 input60
*3588 input61
*3589 input62
*3590 input63
*3591 input64
*3592 input65
*3593 input66
*3594 input67
*3595 input68
*3596 input69
*3597 input7
*3598 input70
*3599 input71
*3600 input72
*3601 input73
*3602 input74
*3603 input75
*3604 input76
*3605 input77
*3606 input8
*3607 input9
*3608 output100
*3609 output101
*3610 output102
*3611 output103
*3612 output104
*3613 output105
*3614 output106
*3615 output107
*3616 output108
*3617 output109
*3618 output110
*3619 output111
*3620 output112
*3621 output113
*3622 output114
*3623 output115
*3624 output116
*3625 output117
*3626 output118
*3627 output119
*3628 output120
*3629 output121
*3630 output122
*3631 output123
*3632 output124
*3633 output125
*3634 output126
*3635 output127
*3636 output128
*3637 output129
*3638 output130
*3639 output131
*3640 output132
*3641 output133
*3642 output134
*3643 output135
*3644 output136
*3645 output137
*3646 output138
*3647 output139
*3648 output140
*3649 output141
*3650 output142
*3651 output143
*3652 output144
*3653 output145
*3654 output146
*3655 output147
*3656 output148
*3657 output149
*3658 output150
*3659 output151
*3660 output152
*3661 output153
*3662 output154
*3663 output155
*3664 output156
*3665 output157
*3666 output158
*3667 output159
*3668 output160
*3669 output161
*3670 output162
*3671 output163
*3672 output164
*3673 output165
*3674 output166
*3675 output167
*3676 output168
*3677 output169
*3678 output170
*3679 output171
*3680 output172
*3681 output173
*3682 output174
*3683 output175
*3684 output176
*3685 output177
*3686 output178
*3687 output78
*3688 output79
*3689 output80
*3690 output81
*3691 output82
*3692 output83
*3693 output84
*3694 output85
*3695 output86
*3696 output87
*3697 output88
*3698 output89
*3699 output90
*3700 output91
*3701 output92
*3702 output93
*3703 output94
*3704 output95
*3705 output96
*3706 output97
*3707 output98
*3708 output99
*3709 peripherals_macro
*3710 peripherals_macro_275
*3711 peripherals_macro_276
*3712 peripherals_macro_277

*PORTS
clk_i I
gpio_dir[0] O
gpio_dir[10] O
gpio_dir[11] O
gpio_dir[12] O
gpio_dir[13] O
gpio_dir[14] O
gpio_dir[15] O
gpio_dir[16] O
gpio_dir[17] O
gpio_dir[18] O
gpio_dir[19] O
gpio_dir[1] O
gpio_dir[20] O
gpio_dir[21] O
gpio_dir[22] O
gpio_dir[23] O
gpio_dir[24] O
gpio_dir[25] O
gpio_dir[26] O
gpio_dir[27] O
gpio_dir[28] O
gpio_dir[29] O
gpio_dir[2] O
gpio_dir[30] O
gpio_dir[31] O
gpio_dir[3] O
gpio_dir[4] O
gpio_dir[5] O
gpio_dir[6] O
gpio_dir[7] O
gpio_dir[8] O
gpio_dir[9] O
gpio_in[0] I
gpio_in[10] I
gpio_in[11] I
gpio_in[12] I
gpio_in[13] I
gpio_in[14] I
gpio_in[15] I
gpio_in[16] I
gpio_in[17] I
gpio_in[18] I
gpio_in[19] I
gpio_in[1] I
gpio_in[20] I
gpio_in[21] I
gpio_in[22] I
gpio_in[23] I
gpio_in[24] I
gpio_in[25] I
gpio_in[26] I
gpio_in[27] I
gpio_in[28] I
gpio_in[29] I
gpio_in[2] I
gpio_in[30] I
gpio_in[31] I
gpio_in[3] I
gpio_in[4] I
gpio_in[5] I
gpio_in[6] I
gpio_in[7] I
gpio_in[8] I
gpio_in[9] I
gpio_out[0] O
gpio_out[10] O
gpio_out[11] O
gpio_out[12] O
gpio_out[13] O
gpio_out[14] O
gpio_out[15] O
gpio_out[16] O
gpio_out[17] O
gpio_out[18] O
gpio_out[19] O
gpio_out[1] O
gpio_out[20] O
gpio_out[21] O
gpio_out[22] O
gpio_out[23] O
gpio_out[24] O
gpio_out[25] O
gpio_out[26] O
gpio_out[27] O
gpio_out[28] O
gpio_out[29] O
gpio_out[2] O
gpio_out[30] O
gpio_out[31] O
gpio_out[3] O
gpio_out[4] O
gpio_out[5] O
gpio_out[6] O
gpio_out[7] O
gpio_out[8] O
gpio_out[9] O
rst_ni I
s_axil_araddr[0] I
s_axil_araddr[10] I
s_axil_araddr[11] I
s_axil_araddr[12] I
s_axil_araddr[13] I
s_axil_araddr[14] I
s_axil_araddr[15] I
s_axil_araddr[16] I
s_axil_araddr[17] I
s_axil_araddr[18] I
s_axil_araddr[19] I
s_axil_araddr[1] I
s_axil_araddr[20] I
s_axil_araddr[21] I
s_axil_araddr[22] I
s_axil_araddr[23] I
s_axil_araddr[24] I
s_axil_araddr[25] I
s_axil_araddr[26] I
s_axil_araddr[27] I
s_axil_araddr[28] I
s_axil_araddr[29] I
s_axil_araddr[2] I
s_axil_araddr[30] I
s_axil_araddr[31] I
s_axil_araddr[3] I
s_axil_araddr[4] I
s_axil_araddr[5] I
s_axil_araddr[6] I
s_axil_araddr[7] I
s_axil_araddr[8] I
s_axil_araddr[9] I
s_axil_arready O
s_axil_arvalid I
s_axil_awaddr[0] I
s_axil_awaddr[10] I
s_axil_awaddr[11] I
s_axil_awaddr[12] I
s_axil_awaddr[13] I
s_axil_awaddr[14] I
s_axil_awaddr[15] I
s_axil_awaddr[16] I
s_axil_awaddr[17] I
s_axil_awaddr[18] I
s_axil_awaddr[19] I
s_axil_awaddr[1] I
s_axil_awaddr[20] I
s_axil_awaddr[21] I
s_axil_awaddr[22] I
s_axil_awaddr[23] I
s_axil_awaddr[24] I
s_axil_awaddr[25] I
s_axil_awaddr[26] I
s_axil_awaddr[27] I
s_axil_awaddr[28] I
s_axil_awaddr[29] I
s_axil_awaddr[2] I
s_axil_awaddr[30] I
s_axil_awaddr[31] I
s_axil_awaddr[3] I
s_axil_awaddr[4] I
s_axil_awaddr[5] I
s_axil_awaddr[6] I
s_axil_awaddr[7] I
s_axil_awaddr[8] I
s_axil_awaddr[9] I
s_axil_awready O
s_axil_awvalid I
s_axil_bready I
s_axil_bresp[0] O
s_axil_bresp[1] O
s_axil_bvalid O
s_axil_rdata[0] O
s_axil_rdata[10] O
s_axil_rdata[11] O
s_axil_rdata[12] O
s_axil_rdata[13] O
s_axil_rdata[14] O
s_axil_rdata[15] O
s_axil_rdata[16] O
s_axil_rdata[17] O
s_axil_rdata[18] O
s_axil_rdata[19] O
s_axil_rdata[1] O
s_axil_rdata[20] O
s_axil_rdata[21] O
s_axil_rdata[22] O
s_axil_rdata[23] O
s_axil_rdata[24] O
s_axil_rdata[25] O
s_axil_rdata[26] O
s_axil_rdata[27] O
s_axil_rdata[28] O
s_axil_rdata[29] O
s_axil_rdata[2] O
s_axil_rdata[30] O
s_axil_rdata[31] O
s_axil_rdata[3] O
s_axil_rdata[4] O
s_axil_rdata[5] O
s_axil_rdata[6] O
s_axil_rdata[7] O
s_axil_rdata[8] O
s_axil_rdata[9] O
s_axil_rready I
s_axil_rresp[0] O
s_axil_rresp[1] O
s_axil_rvalid O
s_axil_wdata[0] I
s_axil_wdata[10] I
s_axil_wdata[11] I
s_axil_wdata[12] I
s_axil_wdata[13] I
s_axil_wdata[14] I
s_axil_wdata[15] I
s_axil_wdata[16] I
s_axil_wdata[17] I
s_axil_wdata[18] I
s_axil_wdata[19] I
s_axil_wdata[1] I
s_axil_wdata[20] I
s_axil_wdata[21] I
s_axil_wdata[22] I
s_axil_wdata[23] I
s_axil_wdata[24] I
s_axil_wdata[25] I
s_axil_wdata[26] I
s_axil_wdata[27] I
s_axil_wdata[28] I
s_axil_wdata[29] I
s_axil_wdata[2] I
s_axil_wdata[30] I
s_axil_wdata[31] I
s_axil_wdata[3] I
s_axil_wdata[4] I
s_axil_wdata[5] I
s_axil_wdata[6] I
s_axil_wdata[7] I
s_axil_wdata[8] I
s_axil_wdata[9] I
s_axil_wready O
s_axil_wstrb[0] I
s_axil_wstrb[1] I
s_axil_wstrb[2] I
s_axil_wstrb[3] I
s_axil_wvalid I

*D_NET *3 0.0166832
*CONN
*P clk_i I
*I *3348:A I *D sg13g2_buf_16
*CAP
1 clk_i 0.000777171
2 *3348:A 0.000164671
3 *3:38 0.000842427
4 *3:36 0.00138422
5 *3:30 0.0028044
6 *3:22 0.00475308
7 *3:18 0.00387756
8 *3:12 0.00199959
9 *3348:A *3107:C 8.00842e-05
10 *3:18 *671:81 0
11 *3:22 *697:81 0
12 *3:22 *698:89 0
13 *3:22 *724:8 0
14 *3:22 *883:53 0
15 *3:22 *883:85 0
16 *3:22 *889:76 0
17 *3:22 *930:8 0
18 *3:30 *2968:B1 0
19 *3:30 *3080:A2 0
20 *3:30 *3243:RESET_B 0
21 *3:30 *3243:D 0
22 *3:30 *3247:RESET_B 0
23 *3:30 *3313:RESET_B 0
24 *3:30 *3443:A 0
25 *3:30 *358:14 0
26 *3:30 *725:25 0
27 *3:30 *806:37 0
28 *3:30 *864:34 0
29 *3:30 *996:10 0
30 *3:36 *725:10 0
31 *3:36 *861:69 0
32 *3:36 *872:63 0
33 *3:38 *356:22 0
34 *3:38 *744:33 0
35 *3:38 *872:63 0
*RES
1 clk_i *3:12 49.6305 
2 *3:12 *3:18 33.4621 
3 *3:18 *3:22 41.6094 
4 *3:22 *3:30 40.2139 
5 *3:30 *3:36 46.7774 
6 *3:36 *3:38 5.5105 
7 *3:38 *3348:A 21.5656 
*END

*D_NET *4 0.00282352
*CONN
*P gpio_dir[0] O
*I *3687:X O *D sg13g2_buf_1
*CAP
1 gpio_dir[0] 0.00121183
2 *3687:X 0.00121183
3 gpio_dir[0] gpio_dir[1] 0
4 gpio_dir[0] gpio_out[30] 0
5 gpio_dir[0] gpio_out[31] 0
6 gpio_dir[0] *3637:A 0.000127255
7 gpio_dir[0] *3639:A 0
8 gpio_dir[0] *89:10 0.0002726
*RES
1 *3687:X gpio_dir[0] 30.6708 
*END

*D_NET *5 0.00382353
*CONN
*P gpio_dir[10] O
*I *3688:X O *D sg13g2_buf_1
*CAP
1 gpio_dir[10] 0.000945585
2 *3688:X 0.000309282
3 *5:10 0.00125487
4 gpio_dir[10] gpio_dir[11] 0
5 gpio_dir[10] gpio_dir[8] 0.000111601
6 gpio_dir[10] gpio_dir[9] 0
7 *5:10 gpio_dir[17] 7.98761e-05
8 *5:10 *6:10 0.000615052
9 *5:10 *7:10 0.000507269
10 *5:10 *31:8 0
11 *5:10 *35:10 0
12 *5:10 *726:52 0
*RES
1 *3688:X *5:10 44.2195 
2 *5:10 gpio_dir[10] 28.0546 
*END

*D_NET *6 0.00355527
*CONN
*P gpio_dir[11] O
*I *3689:X O *D sg13g2_buf_1
*CAP
1 gpio_dir[11] 0.000994993
2 *3689:X 0.000383128
3 *6:10 0.00137812
4 gpio_dir[11] gpio_dir[12] 0
5 gpio_dir[11] gpio_dir[8] 0
6 *6:10 *8:10 0
7 *6:10 *10:12 0
8 *6:10 *12:12 0.000183978
9 *6:10 *722:82 0
10 *6:10 *1128:69 0
11 gpio_dir[10] gpio_dir[11] 0
12 *5:10 *6:10 0.000615052
*RES
1 *3689:X *6:10 44.7792 
2 *6:10 gpio_dir[11] 28.2709 
*END

*D_NET *7 0.00429764
*CONN
*P gpio_dir[12] O
*I *3690:X O *D sg13g2_buf_1
*CAP
1 gpio_dir[12] 0.000931004
2 *3690:X 0.000400862
3 *7:10 0.00133187
4 gpio_dir[12] gpio_dir[13] 0
5 gpio_dir[12] *33:10 4.67945e-05
6 *7:10 gpio_dir[22] 0
7 *7:10 *10:12 0.000771824
8 *7:10 *14:10 0.00018387
9 *7:10 *33:10 7.62389e-05
10 *7:10 *1129:62 4.79124e-05
11 gpio_dir[11] gpio_dir[12] 0
12 *5:10 *7:10 0.000507269
*RES
1 *3690:X *7:10 45.7062 
2 *7:10 gpio_dir[12] 27.8383 
*END

*D_NET *8 0.00354712
*CONN
*P gpio_dir[13] O
*I *3691:X O *D sg13g2_buf_1
*CAP
1 gpio_dir[13] 0.00110702
2 *3691:X 0.000240462
3 *8:10 0.00134749
4 gpio_dir[13] gpio_dir[14] 0
5 gpio_dir[13] gpio_dir[15] 0
6 gpio_dir[13] gpio_dir[8] 0
7 gpio_dir[13] *33:10 0.000240651
8 gpio_dir[13] *35:10 0
9 gpio_dir[13] *726:52 0
10 *8:10 *12:12 0
11 *8:10 *751:54 0.000611498
12 gpio_dir[12] gpio_dir[13] 0
13 *6:10 *8:10 0
*RES
1 *3691:X *8:10 43.1415 
2 *8:10 gpio_dir[13] 30.0013 
*END

*D_NET *9 0.00397618
*CONN
*P gpio_dir[14] O
*I *3692:X O *D sg13g2_buf_1
*CAP
1 gpio_dir[14] 0.000618827
2 *3692:X 0.000714789
3 *9:10 0.00133362
4 gpio_dir[14] gpio_dir[15] 0
5 *9:10 gpio_dir[22] 0.000596936
6 *9:10 *11:10 0.000712012
7 *9:10 *13:18 0
8 *9:10 *1131:43 0
9 gpio_dir[13] gpio_dir[14] 0
*RES
1 *3692:X *9:10 48.3018 
2 *9:10 gpio_dir[14] 25.2427 
*END

*D_NET *10 0.00372231
*CONN
*P gpio_dir[15] O
*I *3693:X O *D sg13g2_buf_1
*CAP
1 gpio_dir[15] 0.000825717
2 *3693:X 0.000477341
3 *10:12 0.00130306
4 gpio_dir[15] gpio_dir[16] 0
5 gpio_dir[15] gpio_dir[17] 0
6 gpio_dir[15] *35:10 0.00011245
7 *10:12 *1128:69 0.000231922
8 *10:12 *1129:62 0
9 gpio_dir[13] gpio_dir[15] 0
10 gpio_dir[14] gpio_dir[15] 0
11 *6:10 *10:12 0
12 *7:10 *10:12 0.000771824
*RES
1 *3693:X *10:12 45.6238 
2 *10:12 gpio_dir[15] 26.2316 
*END

*D_NET *11 0.00394833
*CONN
*P gpio_dir[16] O
*I *3694:X O *D sg13g2_buf_1
*CAP
1 gpio_dir[16] 0.000593487
2 *3694:X 0.000725996
3 *11:10 0.00131948
4 gpio_dir[16] gpio_dir[17] 0
5 *11:10 gpio_dir[23] 0.000597347
6 *11:10 *13:18 0
7 *11:10 *1131:43 0
8 *11:10 *1133:59 0
9 gpio_dir[15] gpio_dir[16] 0
10 *9:10 *11:10 0.000712012
*RES
1 *3694:X *11:10 48.5181 
2 *11:10 gpio_dir[16] 25.0264 
*END

*D_NET *12 0.00319425
*CONN
*P gpio_dir[17] O
*I *3695:X O *D sg13g2_buf_1
*CAP
1 gpio_dir[17] 0.000949478
2 *3695:X 0.000459534
3 *12:12 0.00140901
4 gpio_dir[17] gpio_dir[18] 0
5 gpio_dir[17] gpio_dir[19] 0
6 *12:12 gpio_dir[22] 0.000112376
7 *12:12 *1131:43 0
8 gpio_dir[15] gpio_dir[17] 0
9 gpio_dir[16] gpio_dir[17] 0
10 *5:10 gpio_dir[17] 7.98761e-05
11 *6:10 *12:12 0.000183978
12 *8:10 *12:12 0
*RES
1 *3695:X *12:12 44.7586 
2 *12:12 gpio_dir[17] 27.1936 
*END

*D_NET *13 0.0035643
*CONN
*P gpio_dir[18] O
*I *3696:X O *D sg13g2_buf_1
*CAP
1 gpio_dir[18] 0.000726371
2 *3696:X 0.00011324
3 *13:18 0.00124432
4 *13:10 0.000631185
5 gpio_dir[18] gpio_dir[19] 0
6 *13:10 gpio_dir[25] 7.91347e-05
7 *13:10 gpio_dir[27] 7.91347e-05
8 *13:10 *14:10 0.000345607
9 *13:10 *17:10 0.000345318
10 gpio_dir[17] gpio_dir[18] 0
11 *9:10 *13:18 0
12 *11:10 *13:18 0
*RES
1 *3696:X *13:10 42.1218 
2 *13:10 *13:18 44.6556 
3 *13:18 gpio_dir[18] 26.1079 
*END

*D_NET *14 0.00396315
*CONN
*P gpio_dir[19] O
*I *3697:X O *D sg13g2_buf_1
*CAP
1 gpio_dir[19] 0.000951223
2 *3697:X 0.000555491
3 *14:10 0.00150671
4 gpio_dir[19] gpio_dir[20] 0
5 gpio_dir[19] gpio_dir[21] 0
6 *14:10 gpio_dir[25] 0
7 *14:10 gpio_dir[29] 0.000112333
8 *14:10 *16:10 0
9 *14:10 *19:10 0
10 *14:10 *23:10 0.000183978
11 *14:10 *24:12 7.61954e-05
12 *14:10 *1135:85 4.77425e-05
13 gpio_dir[17] gpio_dir[19] 0
14 gpio_dir[18] gpio_dir[19] 0
15 *7:10 *14:10 0.00018387
16 *13:10 *14:10 0.000345607
*RES
1 *3697:X *14:10 45.9843 
2 *14:10 gpio_dir[19] 28.0546 
*END

*D_NET *15 0.00300776
*CONN
*P gpio_dir[1] O
*I *3698:X O *D sg13g2_buf_1
*CAP
1 gpio_dir[1] 0.000945913
2 *3698:X 0.000259695
3 *15:10 0.00120561
4 gpio_dir[1] gpio_dir[2] 0
5 gpio_dir[1] *89:10 0.000111455
6 *15:10 gpio_dir[5] 0.000177115
7 *15:10 *29:10 0.000183978
8 *15:10 *30:12 7.61954e-05
9 *15:10 *92:10 0
10 *15:10 *743:37 4.78028e-05
11 gpio_dir[0] gpio_dir[1] 0
*RES
1 *3698:X *15:10 43.0179 
2 *15:10 gpio_dir[1] 28.0546 
*END

*D_NET *16 0.00392577
*CONN
*P gpio_dir[20] O
*I *3699:X O *D sg13g2_buf_1
*CAP
1 gpio_dir[20] 0.000858017
2 *3699:X 0.000725834
3 *16:10 0.00158385
4 gpio_dir[20] gpio_dir[21] 0
5 *16:10 gpio_dir[29] 0
6 *16:10 gpio_dir[31] 0.000305011
7 *16:10 *22:12 0.000453057
8 gpio_dir[19] gpio_dir[20] 0
9 *14:10 *16:10 0
*RES
1 *3699:X *16:10 47.3439 
2 *16:10 gpio_dir[20] 27.1894 
*END

*D_NET *17 0.00464947
*CONN
*P gpio_dir[21] O
*I *3700:X O *D sg13g2_buf_1
*CAP
1 gpio_dir[21] 0.00091158
2 *3700:X 0.00065231
3 *17:10 0.00156389
4 gpio_dir[21] gpio_dir[22] 0
5 *17:10 gpio_dir[31] 0
6 *17:10 *22:12 0.000668909
7 *17:10 *24:12 0.000507462
8 gpio_dir[19] gpio_dir[21] 0
9 gpio_dir[20] gpio_dir[21] 0
10 *13:10 *17:10 0.000345318
*RES
1 *3700:X *17:10 47.4057 
2 *17:10 gpio_dir[21] 27.622 
*END

*D_NET *18 0.0045046
*CONN
*P gpio_dir[22] O
*I *3701:X O *D sg13g2_buf_1
*CAP
1 gpio_dir[22] 0.00152664
2 *3701:X 0.00152664
3 gpio_dir[22] gpio_dir[23] 0
4 gpio_dir[22] *3693:A 0.000532481
5 gpio_dir[22] *3695:A 0
6 gpio_dir[22] *485:22 0.000209526
7 gpio_dir[22] *788:10 0
8 gpio_dir[22] *1129:62 0
9 gpio_dir[22] *1131:43 0
10 gpio_dir[21] gpio_dir[22] 0
11 *7:10 gpio_dir[22] 0
12 *9:10 gpio_dir[22] 0.000596936
13 *12:12 gpio_dir[22] 0.000112376
*RES
1 *3701:X gpio_dir[22] 34.4612 
*END

*D_NET *19 0.0051959
*CONN
*P gpio_dir[23] O
*I *3702:X O *D sg13g2_buf_1
*CAP
1 gpio_dir[23] 0.00097621
2 *3702:X 0.000445636
3 *19:10 0.00142185
4 gpio_dir[23] gpio_dir[24] 0.00069359
5 gpio_dir[23] gpio_dir[25] 0
6 *19:10 *20:8 0
7 *19:10 *22:12 4.77425e-05
8 *19:10 *25:10 0.000614396
9 *19:10 *28:8 0.000399133
10 gpio_dir[22] gpio_dir[23] 0
11 *11:10 gpio_dir[23] 0.000597347
12 *14:10 *19:10 0
*RES
1 *3702:X *19:10 45.1191 
2 *19:10 gpio_dir[23] 30.1146 
*END

*D_NET *20 0.00574123
*CONN
*P gpio_dir[24] O
*I *3703:X O *D sg13g2_buf_1
*CAP
1 gpio_dir[24] 0.000877182
2 *3703:X 0.000378688
3 *20:14 0.000977538
4 *20:8 0.000479044
5 gpio_dir[24] gpio_dir[25] 0.000672826
6 *20:8 *21:10 0.00104746
7 *20:8 *28:8 0.000614901
8 gpio_dir[23] gpio_dir[24] 0.00069359
9 *19:10 *20:8 0
*RES
1 *3703:X *20:8 45.5414 
2 *20:8 *20:14 41.1845 
3 *20:14 gpio_dir[24] 29.2185 
*END

*D_NET *21 0.00605091
*CONN
*P gpio_dir[25] O
*I *3704:X O *D sg13g2_buf_1
*CAP
1 gpio_dir[25] 0.00107334
2 *3704:X 0.000412964
3 *21:10 0.0014863
4 gpio_dir[25] gpio_dir[26] 0.000524291
5 gpio_dir[25] *1133:59 2.18151e-05
6 *21:10 *24:12 4.75166e-05
7 *21:10 *27:12 4.75166e-05
8 *21:10 *907:99 0
9 *21:10 *1139:70 0.000292424
10 *21:10 *1142:58 0.000345318
11 gpio_dir[23] gpio_dir[25] 0
12 gpio_dir[24] gpio_dir[25] 0.000672826
13 *13:10 gpio_dir[25] 7.91347e-05
14 *14:10 gpio_dir[25] 0
15 *20:8 *21:10 0.00104746
*RES
1 *3704:X *21:10 46.1079 
2 *21:10 gpio_dir[25] 30.9695 
*END

*D_NET *22 0.00517388
*CONN
*P gpio_dir[26] O
*I *3705:X O *D sg13g2_buf_1
*CAP
1 gpio_dir[26] 0.000761161
2 *3705:X 0.000639486
3 *22:12 0.00140065
4 gpio_dir[26] gpio_dir[27] 0.000534572
5 *22:12 *3702:A 0.00014402
6 *22:12 *24:12 0
7 *22:12 *1139:70 0
8 *22:12 *1144:57 0
9 gpio_dir[25] gpio_dir[26] 0.000524291
10 *16:10 *22:12 0.000453057
11 *17:10 *22:12 0.000668909
12 *19:10 *22:12 4.77425e-05
*RES
1 *3705:X *22:12 47.5705 
2 *22:12 gpio_dir[26] 27.8589 
*END

*D_NET *23 0.00447089
*CONN
*P gpio_dir[27] O
*I *3706:X O *D sg13g2_buf_1
*CAP
1 gpio_dir[27] 0.00090967
2 *3706:X 0.000926932
3 *23:10 0.0018366
4 gpio_dir[27] gpio_dir[28] 0
5 *23:10 *25:10 0
6 *23:10 *27:12 0
7 gpio_dir[26] gpio_dir[27] 0.000534572
8 *13:10 gpio_dir[27] 7.91347e-05
9 *14:10 *23:10 0.000183978
*RES
1 *3706:X *23:10 47.7456 
2 *23:10 gpio_dir[27] 28.2709 
*END

*D_NET *24 0.00422886
*CONN
*P gpio_dir[28] O
*I *3707:X O *D sg13g2_buf_1
*CAP
1 gpio_dir[28] 0.000940682
2 *3707:X 0.000858163
3 *24:12 0.00179884
4 gpio_dir[28] gpio_dir[29] 0
5 *24:12 *27:12 0
6 *24:12 *1143:75 0
7 gpio_dir[27] gpio_dir[28] 0
8 *14:10 *24:12 7.61954e-05
9 *17:10 *24:12 0.000507462
10 *21:10 *24:12 4.75166e-05
11 *22:12 *24:12 0
*RES
1 *3707:X *24:12 47.8795 
2 *24:12 gpio_dir[28] 27.8383 
*END

*D_NET *25 0.00464803
*CONN
*P gpio_dir[29] O
*I *3708:X O *D sg13g2_buf_1
*CAP
1 gpio_dir[29] 0.00099691
2 *3708:X 0.000699026
3 *25:10 0.00169594
4 gpio_dir[29] gpio_dir[30] 0
5 gpio_dir[29] gpio_dir[31] 0
6 *25:10 *1144:57 0.00039909
7 *25:10 *1146:60 0.000130344
8 gpio_dir[28] gpio_dir[29] 0
9 *14:10 gpio_dir[29] 0.000112333
10 *16:10 gpio_dir[29] 0
11 *19:10 *25:10 0.000614396
12 *23:10 *25:10 0
*RES
1 *3708:X *25:10 47.313 
2 *25:10 gpio_dir[29] 28.7035 
*END

*D_NET *26 0.0034521
*CONN
*P gpio_dir[2] O
*I *3608:X O *D sg13g2_buf_1
*CAP
1 gpio_dir[2] 0.00093994
2 *3608:X 0.000288033
3 *26:12 0.00122797
4 gpio_dir[2] gpio_dir[3] 0
5 gpio_dir[2] *92:10 0.000500874
6 *26:12 *29:10 0.000399574
7 *26:12 *30:12 4.78524e-05
8 *26:12 *31:8 0
9 *26:12 *717:46 4.78524e-05
10 gpio_dir[1] gpio_dir[2] 0
*RES
1 *3608:X *26:12 43.1827 
2 *26:12 gpio_dir[2] 28.4872 
*END

*D_NET *27 0.00319421
*CONN
*P gpio_dir[30] O
*I *3609:X O *D sg13g2_buf_1
*CAP
1 gpio_dir[30] 0.000644168
2 *3609:X 0.00092918
3 *27:12 0.00157335
4 gpio_dir[30] gpio_dir[31] 0
5 *27:12 *3708:A 0
6 *27:12 *1143:75 0
7 gpio_dir[29] gpio_dir[30] 0
8 *21:10 *27:12 4.75166e-05
9 *23:10 *27:12 0
10 *24:12 *27:12 0
*RES
1 *3609:X *27:12 49.7959 
2 *27:12 gpio_dir[30] 25.459 
*END

*D_NET *28 0.00484958
*CONN
*P gpio_dir[31] O
*I *3610:X O *D sg13g2_buf_1
*CAP
1 gpio_dir[31] 0.000875577
2 *3610:X 0.000493323
3 *28:8 0.0013689
4 gpio_dir[31] *3699:A 4.77425e-05
5 *28:8 *1144:57 0.00039909
6 *28:8 *1146:60 0.000345897
7 gpio_dir[29] gpio_dir[31] 0
8 gpio_dir[30] gpio_dir[31] 0
9 *16:10 gpio_dir[31] 0.000305011
10 *17:10 gpio_dir[31] 0
11 *19:10 *28:8 0.000399133
12 *20:8 *28:8 0.000614901
*RES
1 *3610:X *28:8 46.7774 
2 *28:8 gpio_dir[31] 29.1361 
*END

*D_NET *29 0.00361931
*CONN
*P gpio_dir[3] O
*I *3611:X O *D sg13g2_buf_1
*CAP
1 gpio_dir[3] 0.000919223
2 *3611:X 0.000308009
3 *29:10 0.00122723
4 gpio_dir[3] gpio_dir[4] 0
5 gpio_dir[3] *92:10 0.000468532
6 *29:10 gpio_dir[6] 0.000112766
7 *29:10 gpio_dir[8] 0
8 *29:10 *720:53 0
9 gpio_dir[2] gpio_dir[3] 0
10 *15:10 *29:10 0.000183978
11 *26:12 *29:10 0.000399574
*RES
1 *3611:X *29:10 43.7904 
2 *29:10 gpio_dir[3] 28.2709 
*END

*D_NET *30 0.00295559
*CONN
*P gpio_dir[4] O
*I *3612:X O *D sg13g2_buf_1
*CAP
1 gpio_dir[4] 0.00093247
2 *3612:X 0.000427561
3 *30:12 0.00136003
4 gpio_dir[4] gpio_dir[5] 0
5 *30:12 gpio_dir[5] 0
6 *30:12 gpio_dir[6] 0.000111476
7 *30:12 *717:46 0
8 *30:12 *743:37 0
9 gpio_dir[3] gpio_dir[4] 0
10 *15:10 *30:12 7.61954e-05
11 *26:12 *30:12 4.78524e-05
*RES
1 *3612:X *30:12 43.9243 
2 *30:12 gpio_dir[4] 27.8383 
*END

*D_NET *31 0.00298313
*CONN
*P gpio_dir[5] O
*I *3613:X O *D sg13g2_buf_1
*CAP
1 gpio_dir[5] 0.00109892
2 *3613:X 0.000304086
3 *31:8 0.00140301
4 gpio_dir[5] gpio_dir[6] 0
5 gpio_dir[5] *743:37 0
6 *31:8 *751:54 0
7 *31:8 *882:18 0
8 gpio_dir[4] gpio_dir[5] 0
9 *5:10 *31:8 0
10 *15:10 gpio_dir[5] 0.000177115
11 *26:12 *31:8 0
12 *30:12 gpio_dir[5] 0
*RES
1 *3613:X *31:8 42.8222 
2 *31:8 gpio_dir[5] 29.3524 
*END

*D_NET *32 0.00288043
*CONN
*P gpio_dir[6] O
*I *3614:X O *D sg13g2_buf_1
*CAP
1 gpio_dir[6] 0.00130417
2 *3614:X 0.00130417
3 gpio_dir[6] gpio_dir[7] 4.7856e-05
4 gpio_dir[6] gpio_dir[8] 0
5 gpio_dir[6] *717:46 0
6 gpio_dir[6] *720:53 0
7 gpio_dir[6] *721:77 0
8 gpio_dir[5] gpio_dir[6] 0
9 *29:10 gpio_dir[6] 0.000112766
10 *30:12 gpio_dir[6] 0.000111476
*RES
1 *3614:X gpio_dir[6] 31.9686 
*END

*D_NET *33 0.00308009
*CONN
*P gpio_dir[7] O
*I *3615:X O *D sg13g2_buf_1
*CAP
1 gpio_dir[7] 0.000893119
2 *3615:X 0.000441154
3 *33:10 0.00133427
4 gpio_dir[7] gpio_dir[8] 0
5 *33:10 gpio_dir[8] 0
6 gpio_dir[12] *33:10 4.67945e-05
7 gpio_dir[13] *33:10 0.000240651
8 gpio_dir[6] gpio_dir[7] 4.7856e-05
9 *7:10 *33:10 7.62389e-05
*RES
1 *3615:X *33:10 44.4393 
2 *33:10 gpio_dir[7] 27.622 
*END

*D_NET *34 0.00281425
*CONN
*P gpio_dir[8] O
*I *3616:X O *D sg13g2_buf_1
*CAP
1 gpio_dir[8] 0.0013436
2 *3616:X 0.0013436
3 gpio_dir[8] gpio_dir[9] 0
4 gpio_dir[8] *720:53 1.54556e-05
5 gpio_dir[8] *726:52 0
6 gpio_dir[10] gpio_dir[8] 0.000111601
7 gpio_dir[11] gpio_dir[8] 0
8 gpio_dir[13] gpio_dir[8] 0
9 gpio_dir[6] gpio_dir[8] 0
10 gpio_dir[7] gpio_dir[8] 0
11 *29:10 gpio_dir[8] 0
12 *33:10 gpio_dir[8] 0
*RES
1 *3616:X gpio_dir[8] 32.669 
*END

*D_NET *35 0.00281519
*CONN
*P gpio_dir[9] O
*I *3617:X O *D sg13g2_buf_1
*CAP
1 gpio_dir[9] 0.000822788
2 *3617:X 0.000528582
3 *35:10 0.00135137
4 *35:10 *726:52 0
5 gpio_dir[10] gpio_dir[9] 0
6 gpio_dir[13] *35:10 0
7 gpio_dir[15] *35:10 0.00011245
8 gpio_dir[8] gpio_dir[9] 0
9 *5:10 *35:10 0
*RES
1 *3617:X *35:10 45.0882 
2 *35:10 gpio_dir[9] 26.9731 
*END

*D_NET *36 0.00304604
*CONN
*P gpio_in[0] I
*I *3531:A I *D sg13g2_buf_1
*CAP
1 gpio_in[0] 0.000869315
2 *3531:A 0.000348864
3 *36:11 0.00121818
4 *3531:A *3534:A 0
5 *36:11 *47:11 0
6 *36:11 *58:11 0.000609685
*RES
1 gpio_in[0] *36:11 49.8262 
2 *36:11 *3531:A 23.9964 
*END

*D_NET *37 0.00303228
*CONN
*P gpio_in[10] I
*I *3542:A I *D sg13g2_buf_1
*CAP
1 gpio_in[10] 0.00138245
2 *3542:A 0.00138245
3 *3542:A *2755:B2 0
4 *3542:A *3564:A 0.000150345
5 *3542:A *38:11 0
6 *3542:A *65:9 0
7 *3542:A *67:15 0.000117041
8 *3542:A *1094:12 0
*RES
1 gpio_in[10] *3542:A 32.4012 
*END

*D_NET *38 0.00409738
*CONN
*P gpio_in[11] I
*I *3553:A I *D sg13g2_buf_1
*CAP
1 gpio_in[11] 0.000791103
2 *3553:A 0.000297402
3 *38:11 0.0010885
4 *3553:A *3555:A 0.00056641
5 *3553:A *64:9 0.000566316
6 *38:11 *3564:A 0
7 *38:11 *40:15 0.000500302
8 *38:11 *66:13 0.000287343
9 *3542:A *38:11 0
*RES
1 gpio_in[11] *38:11 48.0649 
2 *38:11 *3553:A 23.7801 
*END

*D_NET *39 0.00334757
*CONN
*P gpio_in[12] I
*I *3564:A I *D sg13g2_buf_1
*CAP
1 gpio_in[12] 0.00129881
2 *3564:A 0.00129881
3 *3564:A *2755:A1 0
4 *3564:A *3533:A 0
5 *3564:A *3586:A 0
6 *3564:A *3607:A 0
7 *3564:A *40:15 0.000599601
8 *3564:A *1116:8 0
9 *3542:A *3564:A 0.000150345
10 *38:11 *3564:A 0
*RES
1 gpio_in[12] *3564:A 32.6896 
*END

*D_NET *40 0.00483044
*CONN
*P gpio_in[13] I
*I *3575:A I *D sg13g2_buf_1
*CAP
1 gpio_in[13] 0.000755854
2 *3575:A 0.000280858
3 *40:15 0.00103671
4 *3575:A *64:9 0.000533953
5 *3575:A *65:9 0.000533843
6 *40:15 *3586:A 0.00058932
7 *40:15 *44:13 0
8 *3564:A *40:15 0.000599601
9 *38:11 *40:15 0.000500302
*RES
1 gpio_in[13] *40:15 48.9816 
2 *40:15 *3575:A 23.5638 
*END

*D_NET *41 0.00353583
*CONN
*P gpio_in[14] I
*I *3586:A I *D sg13g2_buf_1
*CAP
1 gpio_in[14] 0.00116642
2 *3586:A 0.00116642
3 *3586:A *2770:A1 0
4 *3586:A *3533:A 0.000469028
5 *3586:A *3606:A 0
6 *3586:A *42:13 0
7 *3586:A *727:8 0.000144641
8 *3586:A *1116:8 0
9 *3564:A *3586:A 0
10 *40:15 *3586:A 0.00058932
*RES
1 gpio_in[14] *3586:A 32.1952 
*END

*D_NET *42 0.00402807
*CONN
*P gpio_in[15] I
*I *3597:A I *D sg13g2_buf_1
*CAP
1 gpio_in[15] 0.00109897
2 *3597:A 0
3 *42:13 0.00109897
4 *42:13 *3535:A 0.000598735
5 *42:13 *3606:A 0
6 *42:13 *740:41 0.000614944
7 *42:13 *957:8 0.000616457
8 *3586:A *42:13 0
*RES
1 gpio_in[15] *42:13 32.4424 
2 *42:13 *3597:A 40 
*END

*D_NET *43 0.00320228
*CONN
*P gpio_in[16] I
*I *3606:A I *D sg13g2_buf_1
*CAP
1 gpio_in[16] 0.00121293
2 *3606:A 0.00121293
3 *3606:A *3532:A 0
4 *3606:A *3535:A 0.000566355
5 *3606:A *3536:A 0.000210065
6 *3606:A *44:13 0
7 *3606:A *727:8 0
8 *3586:A *3606:A 0
9 *42:13 *3606:A 0
*RES
1 gpio_in[16] *3606:A 31.544 
*END

*D_NET *44 0.00343217
*CONN
*P gpio_in[17] I
*I *3607:A I *D sg13g2_buf_1
*CAP
1 gpio_in[17] 0.000977422
2 *3607:A 0.000284779
3 *44:13 0.0012622
4 *3607:A *3533:A 0
5 *44:13 *3532:A 0.000274688
6 *44:13 *3536:A 8.02431e-05
7 *44:13 *46:11 0.000552831
8 *3564:A *3607:A 0
9 *3606:A *44:13 0
10 *40:15 *44:13 0
*RES
1 gpio_in[17] *44:13 30.1249 
2 *44:13 *3607:A 42.9149 
*END

*D_NET *45 0.00325129
*CONN
*P gpio_in[18] I
*I *3532:A I *D sg13g2_buf_1
*CAP
1 gpio_in[18] 0.00121411
2 *3532:A 0.00121411
3 *3532:A *3536:A 0.000372009
4 *3532:A *3537:A 0
5 *3532:A *46:11 0
6 *3532:A *413:10 0
7 *3532:A *716:12 0
8 *3532:A *760:12 0.000176367
9 *3606:A *3532:A 0
10 *44:13 *3532:A 0.000274688
*RES
1 gpio_in[18] *3532:A 32.1952 
*END

*D_NET *46 0.00358249
*CONN
*P gpio_in[19] I
*I *3533:A I *D sg13g2_buf_1
*CAP
1 gpio_in[19] 0.000937464
2 *3533:A 0.000270269
3 *46:11 0.00120773
4 *46:11 *3537:A 0
5 *46:11 *48:15 0.000145162
6 *3532:A *46:11 0
7 *3564:A *3533:A 0
8 *3586:A *3533:A 0.000469028
9 *3607:A *3533:A 0
10 *44:13 *46:11 0.000552831
*RES
1 gpio_in[19] *46:11 49.2082 
2 *46:11 *3533:A 23.1312 
*END

*D_NET *47 0.00265685
*CONN
*P gpio_in[1] I
*I *3534:A I *D sg13g2_buf_1
*CAP
1 gpio_in[1] 0.000905418
2 *3534:A 0.000423005
3 *47:11 0.00132842
4 *3534:A *3546:A 0
5 *47:11 *58:11 0
6 *3531:A *3534:A 0
7 *36:11 *47:11 0
*RES
1 gpio_in[1] *47:11 48.6829 
2 *47:11 *3534:A 24.6453 
*END

*D_NET *48 0.00375417
*CONN
*P gpio_in[20] I
*I *3535:A I *D sg13g2_buf_1
*CAP
1 gpio_in[20] 0.000837095
2 *3535:A 0.000317418
3 *48:15 0.00115451
4 *48:15 *3537:A 0.000134892
5 *48:15 *49:11 0
6 *3606:A *3535:A 0.000566355
7 *42:13 *3535:A 0.000598735
8 *46:11 *48:15 0.000145162
*RES
1 gpio_in[20] *48:15 48.0546 
2 *48:15 *3535:A 23.9964 
*END

*D_NET *49 0.00300622
*CONN
*P gpio_in[21] I
*I *3536:A I *D sg13g2_buf_1
*CAP
1 gpio_in[21] 0.000689239
2 *3536:A 0.000482711
3 *49:11 0.00117195
4 *49:11 *3537:A 0
5 *3532:A *3536:A 0.000372009
6 *3606:A *3536:A 0.000210065
7 *44:13 *3536:A 8.02431e-05
8 *48:15 *49:11 0
*RES
1 gpio_in[21] *49:11 46.2727 
2 *49:11 *3536:A 25.0779 
*END

*D_NET *50 0.00248733
*CONN
*P gpio_in[22] I
*I *3537:A I *D sg13g2_buf_1
*CAP
1 gpio_in[22] 0.00102267
2 *3537:A 0.00102267
3 *3537:A *2767:A2 0
4 *3537:A *3538:A 0.000307095
5 *3537:A *3540:A 0
6 *3537:A *51:15 0
7 *3532:A *3537:A 0
8 *46:11 *3537:A 0
9 *48:15 *3537:A 0.000134892
10 *49:11 *3537:A 0
*RES
1 gpio_in[22] *3537:A 30.4048 
*END

*D_NET *51 0.00324199
*CONN
*P gpio_in[23] I
*I *3538:A I *D sg13g2_buf_1
*CAP
1 gpio_in[23] 0.000777736
2 *3538:A 0.0001789
3 *51:15 0.000956636
4 *3538:A *3540:A 0
5 *51:15 *3539:A 0.000891564
6 *51:15 *53:11 0.000130055
7 *3537:A *3538:A 0.000307095
8 *3537:A *51:15 0
*RES
1 gpio_in[23] *51:15 49.0125 
2 *51:15 *3538:A 22.0497 
*END

*D_NET *52 0.00385933
*CONN
*P gpio_in[24] I
*I *3539:A I *D sg13g2_buf_1
*CAP
1 gpio_in[24] 0.0010317
2 *3539:A 0.0010317
3 *3539:A *3540:A 0
4 *3539:A *3543:A 0.0006965
5 *3539:A *53:11 0
6 *3539:A *804:8 0.000207854
7 *51:15 *3539:A 0.000891564
*RES
1 gpio_in[24] *3539:A 31.0004 
*END

*D_NET *53 0.00268462
*CONN
*P gpio_in[25] I
*I *3540:A I *D sg13g2_buf_1
*CAP
1 gpio_in[25] 0.00086347
2 *3540:A 0.000227706
3 *53:11 0.00109118
4 *53:11 *3541:A 0
5 *53:11 *3543:A 0.000372212
6 *3537:A *3540:A 0
7 *3538:A *3540:A 0
8 *3539:A *3540:A 0
9 *3539:A *53:11 0
10 *51:15 *53:11 0.000130055
*RES
1 gpio_in[25] *53:11 48.0958 
2 *53:11 *3540:A 22.266 
*END

*D_NET *54 0.00349246
*CONN
*P gpio_in[26] I
*I *3541:A I *D sg13g2_buf_1
*CAP
1 gpio_in[26] 0.00109938
2 *3541:A 0.00109938
3 *3541:A *3543:A 0
4 *3541:A *3545:A 0.00108585
5 *3541:A *55:11 0
6 *3541:A *827:10 0.000207854
7 *53:11 *3541:A 0
*RES
1 gpio_in[26] *3541:A 31.0004 
*END

*D_NET *55 0.00342962
*CONN
*P gpio_in[27] I
*I *3543:A I *D sg13g2_buf_1
*CAP
1 gpio_in[27] 0.000591527
2 *3543:A 0.000386584
3 *55:11 0.000978112
4 *55:11 *3544:A 0
5 *55:11 *3545:A 0.000404685
6 *3539:A *3543:A 0.0006965
7 *3541:A *3543:A 0
8 *3541:A *55:11 0
9 *53:11 *3543:A 0.000372212
*RES
1 gpio_in[27] *55:11 45.7165 
2 *55:11 *3543:A 24.6453 
*END

*D_NET *56 0.0030948
*CONN
*P gpio_in[28] I
*I *3544:A I *D sg13g2_buf_1
*CAP
1 gpio_in[28] 0.00108407
2 *3544:A 0.00108407
3 *3544:A *3545:A 0
4 *3544:A *3547:A 0
5 *3544:A *3548:A 0.000696631
6 *3544:A *57:11 0
7 *3544:A *849:14 0.00023003
8 *55:11 *3544:A 0
*RES
1 gpio_in[28] *3544:A 31.0004 
*END

*D_NET *57 0.0033862
*CONN
*P gpio_in[29] I
*I *3545:A I *D sg13g2_buf_1
*CAP
1 gpio_in[29] 0.000338321
2 *3545:A 0.00060951
3 *57:11 0.000947831
4 *57:11 *3547:A 0
5 *3541:A *3545:A 0.00108585
6 *3544:A *3545:A 0
7 *3544:A *57:11 0
8 *55:11 *3545:A 0.000404685
*RES
1 gpio_in[29] *57:11 43.1209 
2 *57:11 *3545:A 27.2409 
*END

*D_NET *58 0.0036102
*CONN
*P gpio_in[2] I
*I *3546:A I *D sg13g2_buf_1
*CAP
1 gpio_in[2] 0.000782426
2 *3546:A 0.000340435
3 *58:11 0.00112286
4 *3546:A *3549:A 0
5 *58:11 *61:15 0.000754788
6 *3534:A *3546:A 0
7 *36:11 *58:11 0.000609685
8 *47:11 *58:11 0
*RES
1 gpio_in[2] *58:11 49.0537 
2 *58:11 *3546:A 23.7801 
*END

*D_NET *59 0.00244271
*CONN
*P gpio_in[30] I
*I *3547:A I *D sg13g2_buf_1
*CAP
1 gpio_in[30] 0.00114179
2 *3547:A 0.00114179
3 *3547:A gpio_out[0] 0
4 *3547:A *2854:A1 0
5 *3547:A *3548:A 0
6 *3547:A *60:11 0
7 *3547:A *79:10 0
8 *3547:A *755:62 0.000143728
9 *3547:A *882:8 1.54008e-05
10 *3544:A *3547:A 0
11 *57:11 *3547:A 0
*RES
1 gpio_in[30] *3547:A 30.8218 
*END

*D_NET *60 0.00278362
*CONN
*P gpio_in[31] I
*I *3548:A I *D sg13g2_buf_1
*CAP
1 gpio_in[31] 0.000634072
2 *3548:A 0.000409422
3 *60:11 0.00104349
4 *60:11 gpio_out[0] 0
5 *3544:A *3548:A 0.000696631
6 *3547:A *3548:A 0
7 *3547:A *60:11 0
*RES
1 gpio_in[31] *60:11 45.7165 
2 *60:11 *3548:A 24.6453 
*END

*D_NET *61 0.00343687
*CONN
*P gpio_in[3] I
*I *3549:A I *D sg13g2_buf_1
*CAP
1 gpio_in[3] 0.000786484
2 *3549:A 0.000322226
3 *61:15 0.00110871
4 *3549:A *3551:A 0
5 *61:15 *3550:A 1.54008e-05
6 *61:15 *63:15 0.000449257
7 *3546:A *3549:A 0
8 *58:11 *61:15 0.000754788
*RES
1 gpio_in[3] *61:15 48.9816 
2 *61:15 *3549:A 23.5638 
*END

*D_NET *62 0.0030365
*CONN
*P gpio_in[4] I
*I *3550:A I *D sg13g2_buf_1
*CAP
1 gpio_in[4] 0.0011871
2 *3550:A 0.0011871
3 *3550:A *2787:B2 0
4 *3550:A *3555:A 0
5 *3550:A *3556:A 0.00046916
6 *3550:A *63:15 0.000177739
7 *3550:A *912:16 0
8 *3550:A *935:10 0
9 *61:15 *3550:A 1.54008e-05
*RES
1 gpio_in[4] *3550:A 31.7008 
*END

*D_NET *63 0.0032394
*CONN
*P gpio_in[5] I
*I *3551:A I *D sg13g2_buf_1
*CAP
1 gpio_in[5] 0.000837025
2 *3551:A 0.000295266
3 *63:15 0.00113229
4 *3551:A *3556:A 0
5 *63:15 *3555:A 0.000112766
6 *63:15 *64:9 0
7 *63:15 *67:15 0.000235055
8 *3549:A *3551:A 0
9 *3550:A *63:15 0.000177739
10 *61:15 *63:15 0.000449257
*RES
1 gpio_in[5] *63:15 49.1979 
2 *63:15 *3551:A 23.3475 
*END

*D_NET *64 0.00389501
*CONN
*P gpio_in[6] I
*I *3552:A I *D sg13g2_buf_1
*CAP
1 gpio_in[6] 0.00120209
2 *3552:A 0
3 *64:9 0.00120209
4 *64:9 *3555:A 0
5 *64:9 *65:9 0
6 *64:9 *893:18 0.000209374
7 *64:9 *912:16 0
8 *64:9 *923:12 0.000181192
9 *3553:A *64:9 0.000566316
10 *3575:A *64:9 0.000533953
11 *63:15 *64:9 0
*RES
1 gpio_in[6] *64:9 31.9892 
2 *64:9 *3552:A 40 
*END

*D_NET *65 0.00412222
*CONN
*P gpio_in[7] I
*I *3554:A I *D sg13g2_buf_1
*CAP
1 gpio_in[7] 0.00117647
2 *3554:A 0
3 *65:9 0.00117647
4 *65:9 *66:13 0
5 *65:9 *67:15 0.000112426
6 *65:9 *740:41 0.000723142
7 *65:9 *893:8 0
8 *65:9 *957:8 0.000399863
9 *3542:A *65:9 0
10 *3575:A *65:9 0.000533843
11 *64:9 *65:9 0
*RES
1 gpio_in[7] *65:9 32.2364 
2 *65:9 *3554:A 40 
*END

*D_NET *66 0.00356131
*CONN
*P gpio_in[8] I
*I *3555:A I *D sg13g2_buf_1
*CAP
1 gpio_in[8] 0.000704103
2 *3555:A 0.000593294
3 *66:13 0.0012974
4 *3555:A *2787:B2 0
5 *3555:A *946:14 0
6 *66:13 *67:15 0
7 *3550:A *3555:A 0
8 *3553:A *3555:A 0.00056641
9 *38:11 *66:13 0.000287343
10 *63:15 *3555:A 0.000112766
11 *64:9 *3555:A 0
12 *65:9 *66:13 0
*RES
1 gpio_in[8] *66:13 46.7156 
2 *66:13 *3555:A 26.077 
*END

*D_NET *67 0.00339071
*CONN
*P gpio_in[9] I
*I *3556:A I *D sg13g2_buf_1
*CAP
1 gpio_in[9] 0.00097261
2 *3556:A 0.000255907
3 *67:15 0.00122852
4 *3542:A *67:15 0.000117041
5 *3550:A *3556:A 0.00046916
6 *3551:A *3556:A 0
7 *63:15 *67:15 0.000235055
8 *65:9 *67:15 0.000112426
9 *66:13 *67:15 0
*RES
1 gpio_in[9] *67:15 49.4142 
2 *67:15 *3556:A 23.1312 
*END

*D_NET *68 0.00277778
*CONN
*P gpio_out[0] O
*I *3618:X O *D sg13g2_buf_1
*CAP
1 gpio_out[0] 0.0011956
2 *3618:X 0.0011956
3 gpio_out[0] gpio_out[1] 0.00024256
4 gpio_out[0] gpio_out[2] 0
5 gpio_out[0] *2775:A2 0
6 gpio_out[0] *3643:A 0.00014402
7 gpio_out[0] *79:10 0
8 *3547:A gpio_out[0] 0
9 *60:11 gpio_out[0] 0
*RES
1 *3618:X gpio_out[0] 31.4742 
*END

*D_NET *69 0.00270513
*CONN
*P gpio_out[10] O
*I *3619:X O *D sg13g2_buf_1
*CAP
1 gpio_out[10] 0.00121679
2 *3619:X 0.00121679
3 gpio_out[10] gpio_out[11] 0
4 gpio_out[10] gpio_out[9] 0
5 gpio_out[10] *3622:A 0.000143391
6 gpio_out[10] *70:10 0.000112749
7 gpio_out[10] *72:10 0
8 gpio_out[10] *730:65 1.54008e-05
*RES
1 *3619:X gpio_out[10] 30.6708 
*END

*D_NET *70 0.00262555
*CONN
*P gpio_out[11] O
*I *3620:X O *D sg13g2_buf_1
*CAP
1 gpio_out[11] 0.000986408
2 *3620:X 0.000141193
3 *70:10 0.0011276
4 gpio_out[11] gpio_out[12] 0
5 gpio_out[11] *72:10 0.000144833
6 *70:10 gpio_out[9] 0.000112766
7 gpio_out[10] gpio_out[11] 0
8 gpio_out[10] *70:10 0.000112749
*RES
1 *3620:X *70:10 41.5965 
2 *70:10 gpio_out[11] 28.4872 
*END

*D_NET *71 0.00271298
*CONN
*P gpio_out[12] O
*I *3621:X O *D sg13g2_buf_1
*CAP
1 gpio_out[12] 0.0012844
2 *3621:X 0.0012844
3 gpio_out[12] gpio_out[13] 0
4 gpio_out[12] gpio_out[14] 0
5 gpio_out[12] *3624:A 0
6 gpio_out[12] *72:10 0.000144173
7 gpio_out[11] gpio_out[12] 0
*RES
1 *3621:X gpio_out[12] 31.2682 
*END

*D_NET *72 0.00262815
*CONN
*P gpio_out[13] O
*I *3622:X O *D sg13g2_buf_1
*CAP
1 gpio_out[13] 0.000904077
2 *3622:X 0.000217584
3 *72:10 0.00112166
4 gpio_out[13] gpio_out[14] 0
5 *72:10 *3622:A 4.79124e-05
6 *72:10 *3624:A 4.79124e-05
7 gpio_out[10] *72:10 0
8 gpio_out[11] *72:10 0.000144833
9 gpio_out[12] gpio_out[13] 0
10 gpio_out[12] *72:10 0.000144173
*RES
1 *3622:X *72:10 42.4617 
2 *72:10 gpio_out[13] 27.622 
*END

*D_NET *73 0.00249689
*CONN
*P gpio_out[14] O
*I *3623:X O *D sg13g2_buf_1
*CAP
1 gpio_out[14] 0.00124845
2 *3623:X 0.00124845
3 gpio_out[14] gpio_out[15] 0
4 gpio_out[14] gpio_out[16] 0
5 gpio_out[12] gpio_out[14] 0
6 gpio_out[13] gpio_out[14] 0
*RES
1 *3623:X gpio_out[14] 30.5678 
*END

*D_NET *74 0.00241855
*CONN
*P gpio_out[15] O
*I *3624:X O *D sg13g2_buf_1
*CAP
1 gpio_out[15] 0.00107758
2 *3624:X 0.00010777
3 *74:8 0.00118535
4 gpio_out[15] gpio_out[16] 0
5 gpio_out[15] *76:10 4.78524e-05
6 *74:8 *749:22 0
7 gpio_out[14] gpio_out[15] 0
*RES
1 *3624:X *74:8 40.8446 
2 *74:8 gpio_out[15] 29.1361 
*END

*D_NET *75 0.00260775
*CONN
*P gpio_out[16] O
*I *3625:X O *D sg13g2_buf_1
*CAP
1 gpio_out[16] 0.00122371
2 *3625:X 0.00122371
3 gpio_out[16] gpio_out[17] 0
4 gpio_out[16] *76:10 4.78028e-05
5 gpio_out[16] *739:52 0.00011254
6 gpio_out[14] gpio_out[16] 0
7 gpio_out[15] gpio_out[16] 0
*RES
1 *3625:X gpio_out[16] 30.5678 
*END

*D_NET *76 0.00244844
*CONN
*P gpio_out[17] O
*I *3626:X O *D sg13g2_buf_1
*CAP
1 gpio_out[17] 0.00105685
2 *3626:X 0.000111836
3 *76:10 0.00116869
4 gpio_out[17] gpio_out[18] 0
5 gpio_out[17] *739:52 1.54008e-05
6 gpio_out[15] *76:10 4.78524e-05
7 gpio_out[16] gpio_out[17] 0
8 gpio_out[16] *76:10 4.78028e-05
*RES
1 *3626:X *76:10 41.1639 
2 *76:10 gpio_out[17] 28.9198 
*END

*D_NET *77 0.00249963
*CONN
*P gpio_out[18] O
*I *3627:X O *D sg13g2_buf_1
*CAP
1 gpio_out[18] 0.00124982
2 *3627:X 0.00124982
3 gpio_out[18] gpio_out[19] 0
4 gpio_out[18] *737:39 0
5 gpio_out[18] *739:52 0
6 gpio_out[17] gpio_out[18] 0
*RES
1 *3627:X gpio_out[18] 30.471 
*END

*D_NET *78 0.00242289
*CONN
*P gpio_out[19] O
*I *3628:X O *D sg13g2_buf_1
*CAP
1 gpio_out[19] 0.00108566
2 *3628:X 8.7664e-05
3 *78:8 0.00117332
4 gpio_out[19] gpio_out[20] 0
5 *78:8 *741:35 7.62389e-05
6 gpio_out[18] gpio_out[19] 0
*RES
1 *3628:X *78:8 40.8446 
2 *78:8 gpio_out[19] 29.1361 
*END

*D_NET *79 0.00226022
*CONN
*P gpio_out[1] O
*I *3629:X O *D sg13g2_buf_1
*CAP
1 gpio_out[1] 0.000586066
2 *3629:X 0.000422762
3 *79:10 0.00100883
4 gpio_out[1] gpio_out[2] 0
5 gpio_out[0] gpio_out[1] 0.00024256
6 gpio_out[0] *79:10 0
7 *3547:A *79:10 0
*RES
1 *3629:X *79:10 43.9758 
2 *79:10 gpio_out[1] 25.2427 
*END

*D_NET *80 0.00223364
*CONN
*P gpio_out[20] O
*I *3630:X O *D sg13g2_buf_1
*CAP
1 gpio_out[20] 0.00111682
2 *3630:X 0.00111682
3 gpio_out[20] gpio_out[21] 0
4 gpio_out[20] *749:22 0
5 gpio_out[19] gpio_out[20] 0
*RES
1 *3630:X gpio_out[20] 29.4863 
*END

*D_NET *81 0.00228717
*CONN
*P gpio_out[21] O
*I *3631:X O *D sg13g2_buf_1
*CAP
1 gpio_out[21] 0.00110896
2 *3631:X 0.00110896
3 gpio_out[21] gpio_out[22] 0
4 gpio_out[21] *3631:A 6.92524e-05
5 gpio_out[20] gpio_out[21] 0
*RES
1 *3631:X gpio_out[21] 29.4863 
*END

*D_NET *82 0.00210832
*CONN
*P gpio_out[22] O
*I *3632:X O *D sg13g2_buf_1
*CAP
1 gpio_out[22] 0.0010304
2 *3632:X 0.0010304
3 gpio_out[22] gpio_out[23] 0
4 gpio_out[22] *3631:A 4.75265e-05
5 gpio_out[21] gpio_out[22] 0
*RES
1 *3632:X gpio_out[22] 29.4863 
*END

*D_NET *83 0.00264926
*CONN
*P gpio_out[23] O
*I *3633:X O *D sg13g2_buf_1
*CAP
1 gpio_out[23] 0.000977372
2 *3633:X 0.000977372
3 gpio_out[23] gpio_out[24] 0
4 gpio_out[23] gpio_out[25] 0.000694513
5 gpio_out[22] gpio_out[23] 0
*RES
1 *3633:X gpio_out[23] 30.0837 
*END

*D_NET *84 0.00350892
*CONN
*P gpio_out[24] O
*I *3634:X O *D sg13g2_buf_1
*CAP
1 gpio_out[24] 0.000492125
2 *3634:X 0.00052803
3 *84:10 0.00102016
4 gpio_out[24] gpio_out[25] 0
5 *84:10 gpio_out[26] 0.00075936
6 *84:10 gpio_out[27] 0.000661509
7 *84:10 gpio_out[28] 0
8 *84:10 *3634:A 4.77425e-05
9 gpio_out[23] gpio_out[24] 0
*RES
1 *3634:X *84:10 46.4169 
2 *84:10 gpio_out[24] 24.1612 
*END

*D_NET *85 0.0033746
*CONN
*P gpio_out[25] O
*I *3635:X O *D sg13g2_buf_1
*CAP
1 gpio_out[25] 0.000982017
2 *3635:X 0.000138093
3 *85:8 0.00112011
4 gpio_out[25] gpio_out[26] 0
5 gpio_out[25] *3633:A 4.77425e-05
6 *85:8 *743:37 0.000392122
7 gpio_out[23] gpio_out[25] 0.000694513
8 gpio_out[24] gpio_out[25] 0
*RES
1 *3635:X *85:8 41.8334 
2 *85:8 gpio_out[25] 29.1361 
*END

*D_NET *86 0.00321641
*CONN
*P gpio_out[26] O
*I *3636:X O *D sg13g2_buf_1
*CAP
1 gpio_out[26] 0.00112457
2 *3636:X 0.00112457
3 gpio_out[26] gpio_out[27] 0
4 gpio_out[26] *3633:A 0.000207909
5 gpio_out[26] *3634:A 0
6 gpio_out[25] gpio_out[26] 0
7 *84:10 gpio_out[26] 0.00075936
*RES
1 *3636:X gpio_out[26] 30.5678 
*END

*D_NET *87 0.00332827
*CONN
*P gpio_out[27] O
*I *3637:X O *D sg13g2_buf_1
*CAP
1 gpio_out[27] 0.000892781
2 *3637:X 0.000272799
3 *87:10 0.00116558
4 gpio_out[27] gpio_out[28] 0.000175748
5 *87:10 gpio_out[28] 0
6 *87:10 gpio_out[30] 0.000112184
7 *87:10 *3635:A 4.76665e-05
8 gpio_out[26] gpio_out[27] 0
9 *84:10 gpio_out[27] 0.000661509
*RES
1 *3637:X *87:10 42.5853 
2 *87:10 gpio_out[27] 28.4872 
*END

*D_NET *88 0.00267495
*CONN
*P gpio_out[28] O
*I *3638:X O *D sg13g2_buf_1
*CAP
1 gpio_out[28] 0.0012496
2 *3638:X 0.0012496
3 gpio_out[28] gpio_out[29] 0
4 gpio_out[28] gpio_out[30] 0
5 gpio_out[28] *3634:A 0
6 gpio_out[28] *3635:A 0
7 gpio_out[27] gpio_out[28] 0.000175748
8 *84:10 gpio_out[28] 0
9 *87:10 gpio_out[28] 0
*RES
1 *3638:X gpio_out[28] 31.4742 
*END

*D_NET *89 0.00274764
*CONN
*P gpio_out[29] O
*I *3639:X O *D sg13g2_buf_1
*CAP
1 gpio_out[29] 0.000848128
2 *3639:X 0.000333667
3 *89:10 0.00118179
4 gpio_out[29] gpio_out[30] 0
5 *89:10 *3639:A 0
6 *89:10 *92:10 0
7 gpio_dir[0] *89:10 0.0002726
8 gpio_dir[1] *89:10 0.000111455
9 gpio_out[28] gpio_out[29] 0
*RES
1 *3639:X *89:10 43.6668 
2 *89:10 gpio_out[29] 27.4057 
*END

*D_NET *90 0.00245058
*CONN
*P gpio_out[2] O
*I *3640:X O *D sg13g2_buf_1
*CAP
1 gpio_out[2] 0.00122529
2 *3640:X 0.00122529
3 gpio_out[2] gpio_out[3] 0
4 gpio_out[0] gpio_out[2] 0
5 gpio_out[1] gpio_out[2] 0
*RES
1 *3640:X gpio_out[2] 30.5678 
*END

*D_NET *91 0.00277097
*CONN
*P gpio_out[30] O
*I *3641:X O *D sg13g2_buf_1
*CAP
1 gpio_out[30] 0.00122552
2 *3641:X 0.00122552
3 gpio_out[30] gpio_out[31] 0
4 gpio_out[30] *3635:A 0
5 gpio_out[30] *3637:A 0.000207741
6 gpio_dir[0] gpio_out[30] 0
7 gpio_out[28] gpio_out[30] 0
8 gpio_out[29] gpio_out[30] 0
9 *87:10 gpio_out[30] 0.000112184
*RES
1 *3641:X gpio_out[30] 31.2682 
*END

*D_NET *92 0.00323367
*CONN
*P gpio_out[31] O
*I *3642:X O *D sg13g2_buf_1
*CAP
1 gpio_out[31] 0.000618827
2 *3642:X 0.000513306
3 *92:10 0.00113213
4 *92:10 *3639:A 0
5 *92:10 *754:46 0
6 gpio_dir[0] gpio_out[31] 0
7 gpio_dir[2] *92:10 0.000500874
8 gpio_dir[3] *92:10 0.000468532
9 gpio_out[30] gpio_out[31] 0
10 *15:10 *92:10 0
11 *89:10 *92:10 0
*RES
1 *3642:X *92:10 45.5482 
2 *92:10 gpio_out[31] 25.2427 
*END

*D_NET *93 0.00253096
*CONN
*P gpio_out[3] O
*I *3643:X O *D sg13g2_buf_1
*CAP
1 gpio_out[3] 0.00107758
2 *3643:X 7.37088e-05
3 *93:8 0.00115129
4 gpio_out[3] gpio_out[4] 0
5 gpio_out[3] *95:10 4.78524e-05
6 *93:8 *957:20 0.000180535
7 gpio_out[2] gpio_out[3] 0
*RES
1 *3643:X *93:8 40.8446 
2 *93:8 gpio_out[3] 29.1361 
*END

*D_NET *94 0.00263376
*CONN
*P gpio_out[4] O
*I *3644:X O *D sg13g2_buf_1
*CAP
1 gpio_out[4] 0.00123691
2 *3644:X 0.00123691
3 gpio_out[4] gpio_out[5] 0
4 gpio_out[4] *3647:A 0.0001122
5 gpio_out[4] *95:10 4.77425e-05
6 gpio_out[3] gpio_out[4] 0
*RES
1 *3644:X gpio_out[4] 30.5678 
*END

*D_NET *95 0.00292815
*CONN
*P gpio_out[5] O
*I *3645:X O *D sg13g2_buf_1
*CAP
1 gpio_out[5] 0.000967991
2 *3645:X 0.000124727
3 *95:10 0.00109272
4 gpio_out[5] gpio_out[6] 0
5 gpio_out[5] *3647:A 1.54008e-05
6 gpio_out[5] *97:10 0.000631718
7 gpio_out[3] *95:10 4.78524e-05
8 gpio_out[4] gpio_out[5] 0
9 gpio_out[4] *95:10 4.77425e-05
*RES
1 *3645:X *95:10 41.1639 
2 *95:10 gpio_out[5] 28.9198 
*END

*D_NET *96 0.00288827
*CONN
*P gpio_out[6] O
*I *3646:X O *D sg13g2_buf_1
*CAP
1 gpio_out[6] 0.00111204
2 *3646:X 0.00111204
3 gpio_out[6] gpio_out[7] 0
4 gpio_out[6] gpio_out[8] 0
5 gpio_out[6] *3649:A 0
6 gpio_out[6] *97:10 0.00066419
7 gpio_out[5] gpio_out[6] 0
*RES
1 *3646:X gpio_out[6] 30.5678 
*END

*D_NET *97 0.00329172
*CONN
*P gpio_out[7] O
*I *3647:X O *D sg13g2_buf_1
*CAP
1 gpio_out[7] 0.00056933
2 *3647:X 0.000428576
3 *97:10 0.000997905
4 gpio_out[7] gpio_out[8] 0
5 gpio_out[5] *97:10 0.000631718
6 gpio_out[6] gpio_out[7] 0
7 gpio_out[6] *97:10 0.00066419
*RES
1 *3647:X *97:10 45.2736 
2 *97:10 gpio_out[7] 24.8101 
*END

*D_NET *98 0.00250152
*CONN
*P gpio_out[8] O
*I *3648:X O *D sg13g2_buf_1
*CAP
1 gpio_out[8] 0.00117865
2 *3648:X 0.00117865
3 gpio_out[8] gpio_out[9] 0
4 gpio_out[8] *3649:A 0
5 gpio_out[8] *730:65 0.000144229
6 gpio_out[6] gpio_out[8] 0
7 gpio_out[7] gpio_out[8] 0
*RES
1 *3648:X gpio_out[8] 30.5678 
*END

*D_NET *99 0.00246282
*CONN
*P gpio_out[9] O
*I *3649:X O *D sg13g2_buf_1
*CAP
1 gpio_out[9] 0.00106185
2 *3649:X 8.92441e-05
3 *99:8 0.0011511
4 gpio_out[9] *730:65 4.78524e-05
5 gpio_out[10] gpio_out[9] 0
6 gpio_out[8] gpio_out[9] 0
7 *70:10 gpio_out[9] 0.000112766
*RES
1 *3649:X *99:8 40.8446 
2 *99:8 gpio_out[9] 29.1361 
*END

*D_NET *100 0.000683331
*CONN
*P rst_ni I
*I *3557:A I *D sg13g2_buf_1
*CAP
1 rst_ni 0.000341665
2 *3557:A 0.000341665
*RES
1 rst_ni *3557:A 44.1303 
*END

*D_NET *123 0.0017137
*CONN
*P s_axil_araddr[2] I
*I *3558:A I *D sg13g2_buf_1
*CAP
1 s_axil_araddr[2] 0.000493473
2 *3558:A 0.000194975
3 *123:13 0.000688448
4 *3558:A *3559:A 0.000336809
5 *3558:A *3565:A 0
6 *3558:A *171:8 0
7 *123:13 *3527:A 0
8 *123:13 *3559:A 0
*RES
1 s_axil_araddr[2] *123:13 45.544 
2 *123:13 *3558:A 42.266 
*END

*D_NET *126 0.0012154
*CONN
*P s_axil_araddr[3] I
*I *3527:A I *D sg13g2_dlygate4sd3_1
*CAP
1 s_axil_araddr[3] 0.000535842
2 *3527:A 0.000535842
3 *3527:A s_axil_bresp[1] 0
4 *3527:A *3472:A 0
5 *3527:A *3565:A 0
6 *3527:A *171:8 0.00014372
7 *3527:A *765:8 0
8 *123:13 *3527:A 0
*RES
1 s_axil_araddr[3] *3527:A 46.2959 
*END

*D_NET *133 0.000648796
*CONN
*P s_axil_arready O
*I *3650:X O *D sg13g2_buf_1
*CAP
1 s_axil_arready 0.000324398
2 *3650:X 0.000324398
3 s_axil_arready s_axil_rdata[0] 0
4 s_axil_arready *3530:A 0
5 s_axil_arready *1001:8 0
*RES
1 *3650:X s_axil_arready 43.8136 
*END

*D_NET *134 0.000542155
*CONN
*P s_axil_arvalid I
*I *3530:A I *D sg13g2_dlygate4sd3_1
*CAP
1 s_axil_arvalid 0.000271078
2 *3530:A 0.000271078
3 s_axil_arready *3530:A 0
*RES
1 s_axil_arvalid *3530:A 43.4943 
*END

*D_NET *157 0.00154382
*CONN
*P s_axil_awaddr[2] I
*I *3561:A I *D sg13g2_buf_1
*CAP
1 s_axil_awaddr[2] 0.000771912
2 *3561:A 0.000771912
3 *3561:A *3562:A 0
*RES
1 s_axil_awaddr[2] *3561:A 29.27 
*END

*D_NET *160 0.00154451
*CONN
*P s_axil_awaddr[3] I
*I *3562:A I *D sg13g2_buf_1
*CAP
1 s_axil_awaddr[3] 0.000772255
2 *3562:A 0.000772255
3 *3561:A *3562:A 0
*RES
1 s_axil_awaddr[3] *3562:A 29.27 
*END

*D_NET *167 0.00248307
*CONN
*P s_axil_awready O
*I *3651:X O *D sg13g2_buf_1
*CAP
1 s_axil_awready 0.00109676
2 *3651:X 0.00109676
3 s_axil_awready *2709:A 0
4 s_axil_awready *3506:A 0
5 s_axil_awready *3578:A 0
6 s_axil_awready *3596:A 4.77699e-05
7 s_axil_awready *168:13 0
8 s_axil_awready *764:10 0
9 s_axil_awready *1115:10 0.000241792
*RES
1 *3651:X s_axil_awready 32.2707 
*END

*D_NET *168 0.00196634
*CONN
*P s_axil_awvalid I
*I *3563:A I *D sg13g2_buf_1
*CAP
1 s_axil_awvalid 0.000295223
2 *3563:A 0.000687945
3 *168:13 0.000983168
4 *3563:A *3566:A 0
5 s_axil_awready *168:13 0
*RES
1 s_axil_awvalid *168:13 43.8007 
2 *168:13 *3563:A 28.5387 
*END

*D_NET *169 0.00185374
*CONN
*P s_axil_bready I
*I *3472:A I *D sg13g2_dlygate4sd3_1
*CAP
1 s_axil_bready 0.000926869
2 *3472:A 0.000926869
3 *3472:A s_axil_bvalid 0
4 *3472:A *3474:A 0
5 *3527:A *3472:A 0
*RES
1 s_axil_bready *3472:A 30.5815 
*END

*D_NET *170 0.00333005
*CONN
*P s_axil_bresp[0] O
*I *3709:L_LO O *D sg13g2_tielo
*CAP
1 s_axil_bresp[0] 0.000433458
2 *3709:L_LO 0.000102545
3 *170:12 0.00156248
4 *170:8 0.00123157
5 s_axil_bresp[0] s_axil_bresp[1] 0
6 s_axil_bresp[0] s_axil_wready 0
7 *170:8 *802:8 0
8 *170:12 *1062:14 0
*RES
1 *3709:L_LO *170:8 41.0918 
2 *170:8 *170:12 34.1625 
3 *170:12 s_axil_bresp[0] 44.9234 
*END

*D_NET *171 0.00410189
*CONN
*P s_axil_bresp[1] O
*I *3710:L_LO O *D sg13g2_tielo
*CAP
1 s_axil_bresp[1] 0.00120189
2 *3710:L_LO 0.000436775
3 *171:8 0.00163867
4 s_axil_bresp[1] s_axil_bvalid 0
5 s_axil_bresp[1] s_axil_wready 0.000341119
6 s_axil_bresp[1] *3495:A 0
7 s_axil_bresp[1] *3507:A 0.000339717
8 *171:8 *3559:A 0
9 *171:8 *3565:A 0
10 s_axil_bresp[0] s_axil_bresp[1] 0
11 *3527:A s_axil_bresp[1] 0
12 *3527:A *171:8 0.00014372
13 *3558:A *171:8 0
*RES
1 *3710:L_LO *171:8 43.8093 
2 *171:8 s_axil_bresp[1] 34.008 
*END

*D_NET *172 0.00479864
*CONN
*P s_axil_bvalid O
*I *3652:X O *D sg13g2_buf_1
*CAP
1 s_axil_bvalid 0.00171639
2 *3652:X 0.00171639
3 s_axil_bvalid *3215:RESET_B 0.000726804
4 s_axil_bvalid *3474:A 0
5 s_axil_bvalid *3495:A 0.000372371
6 s_axil_bvalid *241:14 2.46413e-05
7 s_axil_bvalid *375:14 0
8 s_axil_bvalid *709:44 0
9 s_axil_bvalid *765:33 0.00024205
10 s_axil_bresp[1] s_axil_bvalid 0
11 *3472:A s_axil_bvalid 0
*RES
1 *3652:X s_axil_bvalid 38.3249 
*END

*D_NET *173 0.000980876
*CONN
*P s_axil_rdata[0] O
*I *3653:X O *D sg13g2_buf_1
*CAP
1 s_axil_rdata[0] 0.000490438
2 *3653:X 0.000490438
3 s_axil_rdata[0] s_axil_rdata[1] 0
4 s_axil_rdata[0] *3664:A 0
5 s_axil_rdata[0] *1001:8 0
6 s_axil_arready s_axil_rdata[0] 0
*RES
1 *3653:X s_axil_rdata[0] 45.3483 
*END

*D_NET *174 0.000880562
*CONN
*P s_axil_rdata[10] O
*I *3654:X O *D sg13g2_buf_1
*CAP
1 s_axil_rdata[10] 0.000440281
2 *3654:X 0.000440281
3 s_axil_rdata[10] s_axil_rdata[11] 0
4 s_axil_rdata[10] s_axil_rdata[9] 0
5 s_axil_rdata[10] *3683:A 0
6 s_axil_rdata[10] *175:8 0
7 s_axil_rdata[10] *801:25 0
*RES
1 *3654:X s_axil_rdata[10] 45.1114 
*END

*D_NET *175 0.000831323
*CONN
*P s_axil_rdata[11] O
*I *3655:X O *D sg13g2_buf_1
*CAP
1 s_axil_rdata[11] 6.64897e-05
2 *3655:X 0.000349172
3 *175:8 0.000415662
4 *175:8 s_axil_rdata[12] 0
5 s_axil_rdata[10] s_axil_rdata[11] 0
6 s_axil_rdata[10] *175:8 0
*RES
1 *3655:X *175:8 44.0582 
2 *175:8 s_axil_rdata[11] 40.7442 
*END

*D_NET *176 0.000798304
*CONN
*P s_axil_rdata[12] O
*I *3656:X O *D sg13g2_buf_1
*CAP
1 s_axil_rdata[12] 0.000399152
2 *3656:X 0.000399152
3 s_axil_rdata[12] s_axil_rdata[13] 0
4 *175:8 s_axil_rdata[12] 0
*RES
1 *3656:X s_axil_rdata[12] 44.3595 
*END

*D_NET *177 0.000949845
*CONN
*P s_axil_rdata[13] O
*I *3657:X O *D sg13g2_buf_1
*CAP
1 s_axil_rdata[13] 0.000418727
2 *3657:X 0.000418727
3 s_axil_rdata[13] s_axil_rdata[14] 0
4 s_axil_rdata[13] *3654:A 0.000112391
5 s_axil_rdata[13] *801:25 0
6 s_axil_rdata[12] s_axil_rdata[13] 0
*RES
1 *3657:X s_axil_rdata[13] 44.9157 
*END

*D_NET *178 0.000658382
*CONN
*P s_axil_rdata[14] O
*I *3658:X O *D sg13g2_buf_1
*CAP
1 s_axil_rdata[14] 0.000329191
2 *3658:X 0.000329191
3 s_axil_rdata[14] s_axil_rdata[15] 0
4 s_axil_rdata[14] *801:25 0
5 s_axil_rdata[13] s_axil_rdata[14] 0
*RES
1 *3658:X s_axil_rdata[14] 43.8136 
*END

*D_NET *179 0.00073995
*CONN
*P s_axil_rdata[15] O
*I *3659:X O *D sg13g2_buf_1
*CAP
1 s_axil_rdata[15] 0.000369975
2 *3659:X 0.000369975
3 s_axil_rdata[15] s_axil_rdata[16] 0
4 s_axil_rdata[15] *774:25 0
5 s_axil_rdata[15] *777:29 0
6 s_axil_rdata[14] s_axil_rdata[15] 0
*RES
1 *3659:X s_axil_rdata[15] 44.3595 
*END

*D_NET *180 0.000738759
*CONN
*P s_axil_rdata[16] O
*I *3660:X O *D sg13g2_buf_1
*CAP
1 s_axil_rdata[16] 0.00036938
2 *3660:X 0.00036938
3 s_axil_rdata[16] s_axil_rdata[17] 0
4 s_axil_rdata[15] s_axil_rdata[16] 0
*RES
1 *3660:X s_axil_rdata[16] 44.4831 
*END

*D_NET *181 0.00102122
*CONN
*P s_axil_rdata[17] O
*I *3661:X O *D sg13g2_buf_1
*CAP
1 s_axil_rdata[17] 0.000510609
2 *3661:X 0.000510609
3 s_axil_rdata[17] s_axil_rdata[18] 0
4 s_axil_rdata[17] *3665:A 0
5 s_axil_rdata[17] *777:29 0
6 s_axil_rdata[16] s_axil_rdata[17] 0
*RES
1 *3661:X s_axil_rdata[17] 45.7603 
*END

*D_NET *182 0.000951263
*CONN
*P s_axil_rdata[18] O
*I *3662:X O *D sg13g2_buf_1
*CAP
1 s_axil_rdata[18] 0.000475632
2 *3662:X 0.000475632
3 s_axil_rdata[18] s_axil_rdata[19] 0
4 s_axil_rdata[18] *3665:A 0
5 s_axil_rdata[18] *776:27 0
6 s_axil_rdata[17] s_axil_rdata[18] 0
*RES
1 *3662:X s_axil_rdata[18] 45.3483 
*END

*D_NET *183 0.00086536
*CONN
*P s_axil_rdata[19] O
*I *3663:X O *D sg13g2_buf_1
*CAP
1 s_axil_rdata[19] 0.00043268
2 *3663:X 0.00043268
3 s_axil_rdata[19] s_axil_rdata[20] 0
4 s_axil_rdata[19] *3665:A 0
5 s_axil_rdata[19] *776:27 0
6 s_axil_rdata[18] s_axil_rdata[19] 0
*RES
1 *3663:X s_axil_rdata[19] 45.1114 
*END

*D_NET *184 0.000563166
*CONN
*P s_axil_rdata[1] O
*I *3664:X O *D sg13g2_buf_1
*CAP
1 s_axil_rdata[1] 0.000281583
2 *3664:X 0.000281583
3 s_axil_rdata[1] s_axil_rdata[2] 0
4 s_axil_rdata[1] *195:8 0
5 s_axil_rdata[0] s_axil_rdata[1] 0
*RES
1 *3664:X s_axil_rdata[1] 43.4943 
*END

*D_NET *185 0.000786198
*CONN
*P s_axil_rdata[20] O
*I *3665:X O *D sg13g2_buf_1
*CAP
1 s_axil_rdata[20] 0.000393099
2 *3665:X 0.000393099
3 s_axil_rdata[20] s_axil_rdata[21] 0
4 s_axil_rdata[19] s_axil_rdata[20] 0
*RES
1 *3665:X s_axil_rdata[20] 44.8024 
*END

*D_NET *186 0.00123799
*CONN
*P s_axil_rdata[21] O
*I *3666:X O *D sg13g2_buf_1
*CAP
1 s_axil_rdata[21] 0.00057159
2 *3666:X 0.00057159
3 s_axil_rdata[21] s_axil_rdata[22] 0
4 s_axil_rdata[21] s_axil_rdata[23] 7.94058e-05
5 s_axil_rdata[21] *3668:A 1.54008e-05
6 s_axil_rdata[20] s_axil_rdata[21] 0
*RES
1 *3666:X s_axil_rdata[21] 46.3062 
*END

*D_NET *187 0.00135019
*CONN
*P s_axil_rdata[22] O
*I *3667:X O *D sg13g2_buf_1
*CAP
1 s_axil_rdata[22] 0.000603152
2 *3667:X 0.000603152
3 s_axil_rdata[22] s_axil_rdata[23] 0
4 s_axil_rdata[22] *784:25 0.000143888
5 s_axil_rdata[22] *801:25 0
6 s_axil_rdata[21] s_axil_rdata[22] 0
*RES
1 *3667:X s_axil_rdata[22] 47.089 
*END

*D_NET *188 0.00114918
*CONN
*P s_axil_rdata[23] O
*I *3668:X O *D sg13g2_buf_1
*CAP
1 s_axil_rdata[23] 0.000534885
2 *3668:X 0.000534885
3 s_axil_rdata[23] s_axil_rdata[24] 0
4 s_axil_rdata[23] *3668:A 0
5 s_axil_rdata[21] s_axil_rdata[23] 7.94058e-05
6 s_axil_rdata[22] s_axil_rdata[23] 0
*RES
1 *3668:X s_axil_rdata[23] 45.7603 
*END

*D_NET *189 0.00101778
*CONN
*P s_axil_rdata[24] O
*I *3669:X O *D sg13g2_buf_1
*CAP
1 s_axil_rdata[24] 0.000508891
2 *3669:X 0.000508891
3 s_axil_rdata[24] s_axil_rdata[25] 0
4 s_axil_rdata[24] *3667:A 0
5 s_axil_rdata[24] *3668:A 0
6 s_axil_rdata[24] *784:25 0
7 s_axil_rdata[23] s_axil_rdata[24] 0
*RES
1 *3669:X s_axil_rdata[24] 45.3483 
*END

*D_NET *190 0.000905313
*CONN
*P s_axil_rdata[25] O
*I *3670:X O *D sg13g2_buf_1
*CAP
1 s_axil_rdata[25] 0.000428893
2 *3670:X 0.000428893
3 s_axil_rdata[25] s_axil_rdata[26] 0
4 s_axil_rdata[25] *3668:A 4.75265e-05
5 s_axil_rdata[24] s_axil_rdata[25] 0
*RES
1 *3670:X s_axil_rdata[25] 45.1114 
*END

*D_NET *191 0.000816476
*CONN
*P s_axil_rdata[26] O
*I *3671:X O *D sg13g2_buf_1
*CAP
1 s_axil_rdata[26] 0.000408238
2 *3671:X 0.000408238
3 s_axil_rdata[26] s_axil_rdata[27] 0
4 s_axil_rdata[25] s_axil_rdata[26] 0
*RES
1 *3671:X s_axil_rdata[26] 44.8024 
*END

*D_NET *192 0.00206245
*CONN
*P s_axil_rdata[27] O
*I *3672:X O *D sg13g2_buf_1
*CAP
1 s_axil_rdata[27] 0.000734031
2 *3672:X 0.000734031
3 s_axil_rdata[27] s_axil_rdata[28] 0
4 s_axil_rdata[27] s_axil_rdata[29] 0
5 s_axil_rdata[27] *3671:A 0
6 s_axil_rdata[27] *3672:A 0.000594392
7 s_axil_rdata[27] *789:23 0
8 s_axil_rdata[27] *801:25 0
9 s_axil_rdata[26] s_axil_rdata[27] 0
*RES
1 *3672:X s_axil_rdata[27] 48.2529 
*END

*D_NET *193 0.00166037
*CONN
*P s_axil_rdata[28] O
*I *3673:X O *D sg13g2_buf_1
*CAP
1 s_axil_rdata[28] 0.000479399
2 *3673:X 0.000479399
3 s_axil_rdata[28] s_axil_rdata[29] 0
4 s_axil_rdata[28] *2852:A1 0.000343849
5 s_axil_rdata[28] *3672:A 0.0001816
6 s_axil_rdata[28] *801:25 0.000176127
7 s_axil_rdata[27] s_axil_rdata[28] 0
*RES
1 *3673:X s_axil_rdata[28] 46.3371 
*END

*D_NET *194 0.00133622
*CONN
*P s_axil_rdata[29] O
*I *3674:X O *D sg13g2_buf_1
*CAP
1 s_axil_rdata[29] 0.000630826
2 *3674:X 0.000630826
3 s_axil_rdata[29] s_axil_rdata[30] 0
4 s_axil_rdata[29] *789:23 0
5 s_axil_rdata[29] *792:8 7.45698e-05
6 s_axil_rdata[27] s_axil_rdata[29] 0
7 s_axil_rdata[28] s_axil_rdata[29] 0
*RES
1 *3674:X s_axil_rdata[29] 46.8521 
*END

*D_NET *195 0.000811382
*CONN
*P s_axil_rdata[2] O
*I *3675:X O *D sg13g2_buf_1
*CAP
1 s_axil_rdata[2] 6.19677e-05
2 *3675:X 0.000343723
3 *195:8 0.000405691
4 *195:8 s_axil_rdata[3] 0
5 s_axil_rdata[1] s_axil_rdata[2] 0
6 s_axil_rdata[1] *195:8 0
*RES
1 *3675:X *195:8 44.0582 
2 *195:8 s_axil_rdata[2] 40.7442 
*END

*D_NET *196 0.00136795
*CONN
*P s_axil_rdata[30] O
*I *3676:X O *D sg13g2_buf_1
*CAP
1 s_axil_rdata[30] 0.000596152
2 *3676:X 0.000596152
3 s_axil_rdata[30] s_axil_rdata[31] 0
4 s_axil_rdata[30] *789:23 0
5 s_axil_rdata[30] *801:25 0.000175644
6 s_axil_rdata[29] s_axil_rdata[30] 0
*RES
1 *3676:X s_axil_rdata[30] 46.3371 
*END

*D_NET *197 0.00110023
*CONN
*P s_axil_rdata[31] O
*I *3677:X O *D sg13g2_buf_1
*CAP
1 s_axil_rdata[31] 0.000550117
2 *3677:X 0.000550117
3 s_axil_rdata[31] s_axil_rresp[0] 0
4 s_axil_rdata[31] *791:21 0
5 s_axil_rdata[31] *792:8 0
6 s_axil_rdata[30] s_axil_rdata[31] 0
*RES
1 *3677:X s_axil_rdata[31] 46.4607 
*END

*D_NET *198 0.000606834
*CONN
*P s_axil_rdata[3] O
*I *3678:X O *D sg13g2_buf_1
*CAP
1 s_axil_rdata[3] 0.000303417
2 *3678:X 0.000303417
3 s_axil_rdata[3] s_axil_rdata[4] 0
4 *195:8 s_axil_rdata[3] 0
*RES
1 *3678:X s_axil_rdata[3] 43.4943 
*END

*D_NET *199 0.000839282
*CONN
*P s_axil_rdata[4] O
*I *3679:X O *D sg13g2_buf_1
*CAP
1 s_axil_rdata[4] 0.000354661
2 *3679:X 0.000354661
3 s_axil_rdata[4] s_axil_rdata[5] 0
4 s_axil_rdata[4] *3680:A 0.000129961
5 s_axil_rdata[3] s_axil_rdata[4] 0
*RES
1 *3679:X s_axil_rdata[4] 44.4831 
*END

*D_NET *200 0.000693476
*CONN
*P s_axil_rdata[5] O
*I *3680:X O *D sg13g2_buf_1
*CAP
1 s_axil_rdata[5] 0.000346738
2 *3680:X 0.000346738
3 s_axil_rdata[5] s_axil_rdata[6] 0
4 s_axil_rdata[5] *1001:8 0
5 s_axil_rdata[4] s_axil_rdata[5] 0
*RES
1 *3680:X s_axil_rdata[5] 43.8136 
*END

*D_NET *201 0.000877695
*CONN
*P s_axil_rdata[6] O
*I *3681:X O *D sg13g2_buf_1
*CAP
1 s_axil_rdata[6] 0.000367123
2 *3681:X 0.000367123
3 s_axil_rdata[6] s_axil_rdata[7] 0
4 s_axil_rdata[6] *763:26 0.000143449
5 s_axil_rdata[6] *1001:8 0
6 s_axil_rdata[5] s_axil_rdata[6] 0
*RES
1 *3681:X s_axil_rdata[6] 44.3595 
*END

*D_NET *202 0.000761507
*CONN
*P s_axil_rdata[7] O
*I *3682:X O *D sg13g2_buf_1
*CAP
1 s_axil_rdata[7] 0.000380754
2 *3682:X 0.000380754
3 s_axil_rdata[7] s_axil_rdata[8] 0
4 s_axil_rdata[6] s_axil_rdata[7] 0
*RES
1 *3682:X s_axil_rdata[7] 44.4831 
*END

*D_NET *203 0.00101288
*CONN
*P s_axil_rdata[8] O
*I *3683:X O *D sg13g2_buf_1
*CAP
1 s_axil_rdata[8] 0.00050644
2 *3683:X 0.00050644
3 s_axil_rdata[8] s_axil_rdata[9] 0
4 s_axil_rdata[8] *1001:8 0
5 s_axil_rdata[7] s_axil_rdata[8] 0
*RES
1 *3683:X s_axil_rdata[8] 45.7603 
*END

*D_NET *204 0.00106826
*CONN
*P s_axil_rdata[9] O
*I *3684:X O *D sg13g2_buf_1
*CAP
1 s_axil_rdata[9] 0.000443023
2 *3684:X 0.000443023
3 s_axil_rdata[9] *801:8 0.000182216
4 s_axil_rdata[9] *801:25 0
5 s_axil_rdata[9] *1001:8 0
6 s_axil_rdata[10] s_axil_rdata[9] 0
7 s_axil_rdata[8] s_axil_rdata[9] 0
*RES
1 *3684:X s_axil_rdata[9] 45.3483 
*END

*D_NET *206 0.000830259
*CONN
*P s_axil_rresp[0] O
*I *3711:L_LO O *D sg13g2_tielo
*CAP
1 s_axil_rresp[0] 0.000415129
2 *3711:L_LO 0.000415129
3 s_axil_rresp[0] s_axil_rresp[1] 0
4 s_axil_rdata[31] s_axil_rresp[0] 0
*RES
1 *3711:L_LO s_axil_rresp[0] 44.8951 
*END

*D_NET *207 0.000724592
*CONN
*P s_axil_rresp[1] O
*I *3712:L_LO O *D sg13g2_tielo
*CAP
1 s_axil_rresp[1] 0.000362296
2 *3712:L_LO 0.000362296
3 s_axil_rresp[1] s_axil_rvalid 0
4 s_axil_rresp[0] s_axil_rresp[1] 0
*RES
1 *3712:L_LO s_axil_rresp[1] 44.4831 
*END

*D_NET *208 0.00124155
*CONN
*P s_axil_rvalid O
*I *3685:X O *D sg13g2_buf_1
*CAP
1 s_axil_rvalid 0.000597009
2 *3685:X 0.000597009
3 s_axil_rvalid *801:25 4.75265e-05
4 s_axil_rresp[1] s_axil_rvalid 0
*RES
1 *3685:X s_axil_rvalid 47.2023 
*END

*D_NET *209 0.00250219
*CONN
*P s_axil_wdata[0] I
*I *3506:A I *D sg13g2_dlygate4sd3_1
*CAP
1 s_axil_wdata[0] 0.0010925
2 *3506:A 0.0010925
3 *3506:A *3514:A 0
4 *3506:A *3578:A 0.000317189
5 *3506:A *3593:A 0
6 *3506:A *1050:10 0
7 s_axil_awready *3506:A 0
*RES
1 s_axil_wdata[0] *3506:A 32.8029 
*END

*D_NET *210 0.00223576
*CONN
*P s_axil_wdata[10] I
*I *3522:A I *D sg13g2_dlygate4sd3_1
*CAP
1 s_axil_wdata[10] 0.00107794
2 *3522:A 0.00107794
3 *3522:A *3497:A 7.98824e-05
4 *3522:A *3519:A 0
5 *3522:A *211:11 0
6 *3522:A *240:11 0
7 *3522:A *1051:10 0
8 *3522:A *1075:14 0
*RES
1 s_axil_wdata[10] *3522:A 28.5167 
*END

*D_NET *211 0.00376412
*CONN
*P s_axil_wdata[11] I
*I *3526:A I *D sg13g2_dlygate4sd3_1
*CAP
1 s_axil_wdata[11] 0.00071621
2 *3526:A 0.000295232
3 *211:11 0.00101144
4 *3526:A *3524:A 0.000566646
5 *3526:A *3525:A 0.000566646
6 *211:11 *212:11 0.000607939
7 *211:11 *213:9 0
8 *211:11 *240:11 0
9 *3522:A *211:11 0
*RES
1 s_axil_wdata[11] *211:11 48.9816 
2 *211:11 *3526:A 23.7801 
*END

*D_NET *212 0.00350679
*CONN
*P s_axil_wdata[12] I
*I *3525:A I *D sg13g2_dlygate4sd3_1
*CAP
1 s_axil_wdata[12] 0.000598244
2 *3525:A 0.000567856
3 *212:11 0.0011661
4 *3525:A *3519:A 0
5 *3525:A *3524:A 0
6 *3525:A *213:9 0
7 *3525:A *1083:10 0
8 *212:11 *3519:A 0
9 *212:11 *213:9 0
10 *212:11 *240:11 0
11 *3526:A *3525:A 0.000566646
12 *211:11 *212:11 0.000607939
*RES
1 s_axil_wdata[12] *212:11 47.5293 
2 *212:11 *3525:A 26.1594 
*END

*D_NET *213 0.00293433
*CONN
*P s_axil_wdata[13] I
*I *3518:A I *D sg13g2_dlygate4sd3_1
*CAP
1 s_axil_wdata[13] 0.00100042
2 *3518:A 0.000117271
3 *213:9 0.00111769
4 *3518:A *217:9 0.00019697
5 *3518:A *219:9 0
6 *213:9 *3519:A 0.000501968
7 *213:9 *3524:A 0
8 *213:9 *1034:8 0
9 *3525:A *213:9 0
10 *211:11 *213:9 0
11 *212:11 *213:9 0
*RES
1 s_axil_wdata[13] *213:9 28.2289 
2 *213:9 *3518:A 41.3158 
*END

*D_NET *214 0.0027429
*CONN
*P s_axil_wdata[14] I
*I *3524:A I *D sg13g2_dlygate4sd3_1
*CAP
1 s_axil_wdata[14] 0.00108813
2 *3524:A 0.00108813
3 *3524:A *215:11 0
4 *3524:A *216:11 0
5 *3524:A *217:9 0
6 *3524:A *1074:18 0
7 *3525:A *3524:A 0
8 *3526:A *3524:A 0.000566646
9 *213:9 *3524:A 0
*RES
1 s_axil_wdata[14] *3524:A 32.2055 
*END

*D_NET *215 0.00367556
*CONN
*P s_axil_wdata[15] I
*I *3521:A I *D sg13g2_dlygate4sd3_1
*CAP
1 s_axil_wdata[15] 0.00065555
2 *3521:A 0.00047704
3 *215:11 0.00113259
4 *3521:A *3476:A 0.000696379
5 *3521:A *221:9 0
6 *215:11 *216:11 0.000714004
7 *3524:A *215:11 0
*RES
1 s_axil_wdata[15] *215:11 48.3945 
2 *215:11 *3521:A 24.8616 
*END

*D_NET *216 0.0049148
*CONN
*P s_axil_wdata[16] I
*I *3476:A I *D sg13g2_dlygate4sd3_1
*CAP
1 s_axil_wdata[16] 0.000533056
2 *3476:A 0.000565181
3 *216:11 0.00109824
4 *3476:A *219:9 0.00101985
5 *216:11 *217:9 0
6 *216:11 *218:9 0.000288087
7 *3521:A *3476:A 0.000696379
8 *3524:A *216:11 0
9 *215:11 *216:11 0.000714004
*RES
1 s_axil_wdata[16] *216:11 44.0924 
2 *216:11 *3476:A 26.8083 
*END

*D_NET *217 0.00271211
*CONN
*P s_axil_wdata[17] I
*I *3478:A I *D sg13g2_dlygate4sd3_1
*CAP
1 s_axil_wdata[17] 0.00125757
2 *3478:A 0
3 *217:9 0.00125757
4 *217:9 *218:9 0
5 *217:9 *219:9 0
6 *217:9 *1029:8 0
7 *217:9 *1034:8 0
8 *217:9 *1081:8 0
9 *217:9 *1090:10 0
10 *3518:A *217:9 0.00019697
11 *3524:A *217:9 0
12 *216:11 *217:9 0
*RES
1 s_axil_wdata[17] *217:9 29.9331 
2 *217:9 *3478:A 40 
*END

*D_NET *218 0.0036569
*CONN
*P s_axil_wdata[18] I
*I *3484:A I *D sg13g2_dlygate4sd3_1
*CAP
1 s_axil_wdata[18] 0.000856669
2 *3484:A 0.000378717
3 *218:9 0.00123539
4 *3484:A *223:9 0
5 *3484:A *225:13 0.00066299
6 *218:9 *219:9 0
7 *218:9 *222:11 0
8 *218:9 *224:11 0.000235055
9 *216:11 *218:9 0.000288087
10 *217:9 *218:9 0
*RES
1 s_axil_wdata[18] *218:9 30.3103 
2 *218:9 *3484:A 44.429 
*END

*D_NET *219 0.00384231
*CONN
*P s_axil_wdata[19] I
*I *3480:A I *D sg13g2_dlygate4sd3_1
*CAP
1 s_axil_wdata[19] 0.00141123
2 *3480:A 0
3 *219:9 0.00141123
4 *219:9 *2718:A 0
5 *219:9 *3574:A 0
6 *219:9 *221:9 0
7 *219:9 *371:10 0
8 *3476:A *219:9 0.00101985
9 *3518:A *219:9 0
10 *217:9 *219:9 0
11 *218:9 *219:9 0
*RES
1 s_axil_wdata[19] *219:9 34.5745 
2 *219:9 *3480:A 40 
*END

*D_NET *220 0.00171323
*CONN
*P s_axil_wdata[1] I
*I *3514:A I *D sg13g2_dlygate4sd3_1
*CAP
1 s_axil_wdata[1] 0.000856613
2 *3514:A 0.000856613
3 *3514:A *3512:A 0
4 *3514:A *231:11 0
5 *3506:A *3514:A 0
*RES
1 s_axil_wdata[1] *3514:A 29.3009 
*END

*D_NET *221 0.00333039
*CONN
*P s_axil_wdata[20] I
*I *3490:A I *D sg13g2_dlygate4sd3_1
*CAP
1 s_axil_wdata[20] 0.00149879
2 *3490:A 0.000105262
3 *221:9 0.00160405
4 *3490:A *3498:A 0
5 *3490:A *227:9 4.71556e-05
6 *221:9 *222:11 0
7 *221:9 *223:9 0
8 *221:9 *227:9 7.51285e-05
9 *221:9 *1034:8 0
10 *3521:A *221:9 0
11 *219:9 *221:9 0
*RES
1 s_axil_wdata[20] *221:9 30.8239 
2 *221:9 *3490:A 40.9682 
*END

*D_NET *222 0.00295682
*CONN
*P s_axil_wdata[21] I
*I *3498:A I *D sg13g2_dlygate4sd3_1
*CAP
1 s_axil_wdata[21] 0.000877599
2 *3498:A 0.000600809
3 *222:11 0.00147841
4 *3498:A *3502:A 0
5 *3498:A *3581:A 0
6 *3498:A *3583:A 0
7 *3498:A *3585:A 0
8 *3498:A *225:13 0
9 *3498:A *226:9 0
10 *3498:A *227:9 0
11 *3498:A *1042:14 0
12 *222:11 *223:9 0
13 *222:11 *224:11 0
14 *3490:A *3498:A 0
15 *218:9 *222:11 0
16 *221:9 *222:11 0
*RES
1 s_axil_wdata[21] *222:11 49.9086 
2 *222:11 *3498:A 24.6833 
*END

*D_NET *223 0.00296945
*CONN
*P s_axil_wdata[22] I
*I *3487:A I *D sg13g2_dlygate4sd3_1
*CAP
1 s_axil_wdata[22] 0.00133714
2 *3487:A 0.000147584
3 *223:9 0.00148473
4 *3487:A *3501:A 0
5 *3487:A *3502:A 0
6 *223:9 *224:11 0
7 *223:9 *226:9 0
8 *223:9 *227:9 0
9 *3484:A *223:9 0
10 *221:9 *223:9 0
11 *222:11 *223:9 0
*RES
1 s_axil_wdata[22] *223:9 33.0937 
2 *223:9 *3487:A 41.4008 
*END

*D_NET *224 0.0030854
*CONN
*P s_axil_wdata[23] I
*I *3502:A I *D sg13g2_dlygate4sd3_1
*CAP
1 s_axil_wdata[23] 0.000796807
2 *3502:A 0.000628367
3 *224:11 0.00142517
4 *3502:A *3501:A 0
5 *3502:A *3509:A 0
6 *3502:A *3585:A 0
7 *3502:A *227:9 0
8 *3502:A *228:11 0
9 *3502:A *1039:10 0
10 *3502:A *1069:10 0
11 *224:11 *225:13 0
12 *224:11 *226:9 0
13 *224:11 *228:11 0
14 *3487:A *3502:A 0
15 *3498:A *3502:A 0
16 *218:9 *224:11 0.000235055
17 *222:11 *224:11 0
18 *223:9 *224:11 0
*RES
1 s_axil_wdata[23] *224:11 49.2906 
2 *224:11 *3502:A 25.9181 
*END

*D_NET *225 0.00375795
*CONN
*P s_axil_wdata[24] I
*I *3513:A I *D sg13g2_dlygate4sd3_1
*CAP
1 s_axil_wdata[24] 0.00154748
2 *3513:A 0
3 *225:13 0.00154748
4 *225:13 *226:9 0
5 *225:13 *1034:8 0
6 *225:13 *1039:10 0
7 *225:13 *1054:8 0
8 *3484:A *225:13 0.00066299
9 *3498:A *225:13 0
10 *224:11 *225:13 0
*RES
1 s_axil_wdata[24] *225:13 35.5839 
2 *225:13 *3513:A 40 
*END

*D_NET *226 0.00423633
*CONN
*P s_axil_wdata[25] I
*I *3515:A I *D sg13g2_dlygate4sd3_1
*CAP
1 s_axil_wdata[25] 0.00115301
2 *3515:A 0.000334327
3 *226:9 0.00148734
4 *3515:A *3501:A 0.000630825
5 *3515:A *3509:A 0.000630825
6 *226:9 *227:9 0
7 *226:9 *228:11 0
8 *3498:A *226:9 0
9 *223:9 *226:9 0
10 *224:11 *226:9 0
11 *225:13 *226:9 0
*RES
1 s_axil_wdata[25] *226:9 28.5064 
2 *226:9 *3515:A 44.2127 
*END

*D_NET *227 0.00435614
*CONN
*P s_axil_wdata[26] I
*I *3500:A I *D sg13g2_dlygate4sd3_1
*CAP
1 s_axil_wdata[26] 0.00120108
2 *3500:A 6.28259e-05
3 *227:9 0.00126391
4 *3500:A *3511:A 0.000112585
5 *3500:A *1034:16 8.02434e-05
6 *227:9 *228:11 0
7 *227:9 *1034:8 0.00151322
8 *3490:A *227:9 4.71556e-05
9 *3498:A *227:9 0
10 *3502:A *227:9 0
11 *221:9 *227:9 7.51285e-05
12 *223:9 *227:9 0
13 *226:9 *227:9 0
*RES
1 s_axil_wdata[26] *227:9 30.4882 
2 *227:9 *3500:A 40.7519 
*END

*D_NET *228 0.00362052
*CONN
*P s_axil_wdata[27] I
*I *3501:A I *D sg13g2_dlygate4sd3_1
*CAP
1 s_axil_wdata[27] 0.000854159
2 *3501:A 0.000640689
3 *228:11 0.00149485
4 *3501:A *3059:A2 0
5 *3501:A *3509:A 0
6 *3501:A *1069:10 0
7 *3501:A *1071:18 0
8 *228:11 *229:11 0
9 *228:11 *230:9 0
10 *3487:A *3501:A 0
11 *3502:A *3501:A 0
12 *3502:A *228:11 0
13 *3515:A *3501:A 0.000630825
14 *224:11 *228:11 0
15 *226:9 *228:11 0
16 *227:9 *228:11 0
*RES
1 s_axil_wdata[27] *228:11 49.0434 
2 *228:11 *3501:A 26.7259 
*END

*D_NET *229 0.00345937
*CONN
*P s_axil_wdata[28] I
*I *3523:A I *D sg13g2_dlygate4sd3_1
*CAP
1 s_axil_wdata[28] 0.000520299
2 *3523:A 0.000658429
3 *229:11 0.00117873
4 *3523:A *3509:A 0.000760794
5 *3523:A *3511:A 0
6 *3523:A *233:11 0
7 *229:11 *230:9 0.000341119
8 *228:11 *229:11 0
*RES
1 s_axil_wdata[28] *229:11 46.4169 
2 *229:11 *3523:A 27.0246 
*END

*D_NET *230 0.00380662
*CONN
*P s_axil_wdata[29] I
*I *3510:A I *D sg13g2_dlygate4sd3_1
*CAP
1 s_axil_wdata[29] 0.000789173
2 *3510:A 0.00048185
3 *230:9 0.00127102
4 *3510:A *3494:A 0
5 *3510:A *3511:A 0
6 *3510:A *245:11 0.000209451
7 *3510:A *1034:16 0
8 *230:9 *3509:A 0
9 *230:9 *233:11 0
10 *230:9 *242:11 0.000714004
11 *228:11 *230:9 0
12 *229:11 *230:9 0.000341119
*RES
1 s_axil_wdata[29] *230:9 27.0588 
2 *230:9 *3510:A 44.6453 
*END

*D_NET *231 0.00286961
*CONN
*P s_axil_wdata[2] I
*I *3496:A I *D sg13g2_dlygate4sd3_1
*CAP
1 s_axil_wdata[2] 0.000567931
2 *3496:A 0.000621858
3 *231:11 0.00118979
4 *3496:A *3482:A 0
5 *3496:A *3512:A 0.000200462
6 *3496:A *3595:A 0.000241715
7 *3496:A *235:15 4.78524e-05
8 *3496:A *1050:10 0
9 *3496:A *1072:10 0
10 *231:11 *3512:A 0
11 *3514:A *231:11 0
*RES
1 s_axil_wdata[2] *231:11 45.6849 
2 *231:11 *3496:A 24.2878 
*END

*D_NET *232 0.00375184
*CONN
*P s_axil_wdata[30] I
*I *3509:A I *D sg13g2_dlygate4sd3_1
*CAP
1 s_axil_wdata[30] 0.00118011
2 *3509:A 0.00118011
3 *3509:A *3588:A 0
4 *3509:A *233:11 0
5 *3501:A *3509:A 0
6 *3502:A *3509:A 0
7 *3515:A *3509:A 0.000630825
8 *3523:A *3509:A 0.000760794
9 *230:9 *3509:A 0
*RES
1 s_axil_wdata[30] *3509:A 33.2973 
*END

*D_NET *233 0.0024456
*CONN
*P s_axil_wdata[31] I
*I *3511:A I *D sg13g2_dlygate4sd3_1
*CAP
1 s_axil_wdata[31] 0.000645569
2 *3511:A 0.00052094
3 *233:11 0.00116651
4 *3511:A *1034:16 0
5 *233:11 *242:11 0
6 *233:11 *243:11 0
7 *3500:A *3511:A 0.000112585
8 *3509:A *233:11 0
9 *3510:A *3511:A 0
10 *3523:A *3511:A 0
11 *3523:A *233:11 0
12 *230:9 *233:11 0
*RES
1 s_axil_wdata[31] *233:11 43.995 
2 *233:11 *3511:A 25.5105 
*END

*D_NET *234 0.00181777
*CONN
*P s_axil_wdata[3] I
*I *3512:A I *D sg13g2_dlygate4sd3_1
*CAP
1 s_axil_wdata[3] 0.000808652
2 *3512:A 0.000808652
3 *3512:A *235:15 0
4 *3496:A *3512:A 0.000200462
5 *3514:A *3512:A 0
6 *231:11 *3512:A 0
*RES
1 s_axil_wdata[3] *3512:A 29.4601 
*END

*D_NET *235 0.00319588
*CONN
*P s_axil_wdata[4] I
*I *3516:A I *D sg13g2_dlygate4sd3_1
*CAP
1 s_axil_wdata[4] 0.000549857
2 *3516:A 0.000668636
3 *235:15 0.00121849
4 *3516:A *2708:A 0
5 *3516:A *3482:A 0.000199535
6 *3516:A *3493:A 0.000511504
7 *3516:A *3505:A 0
8 *3516:A *3595:A 0
9 *3516:A *1072:10 0
10 *235:15 *3482:A 0
11 *3496:A *235:15 4.78524e-05
12 *3512:A *235:15 0
*RES
1 s_axil_wdata[4] *235:15 46.592 
2 *235:15 *3516:A 27.6117 
*END

*D_NET *236 0.00189863
*CONN
*P s_axil_wdata[5] I
*I *3482:A I *D sg13g2_dlygate4sd3_1
*CAP
1 s_axil_wdata[5] 0.00084955
2 *3482:A 0.00084955
3 *3482:A *3493:A 0
4 *3496:A *3482:A 0
5 *3516:A *3482:A 0.000199535
6 *235:15 *3482:A 0
*RES
1 s_axil_wdata[5] *3482:A 30.0013 
*END

*D_NET *237 0.00267006
*CONN
*P s_axil_wdata[6] I
*I *3493:A I *D sg13g2_dlygate4sd3_1
*CAP
1 s_axil_wdata[6] 0.000979612
2 *3493:A 0.000979612
3 *3493:A *3505:A 0.000199333
4 *3493:A *238:11 0
5 *3482:A *3493:A 0
6 *3516:A *3493:A 0.000511504
*RES
1 s_axil_wdata[6] *3493:A 31.1405 
*END

*D_NET *238 0.00251041
*CONN
*P s_axil_wdata[7] I
*I *3497:A I *D sg13g2_dlygate4sd3_1
*CAP
1 s_axil_wdata[7] 0.000571225
2 *3497:A 0.000582605
3 *238:11 0.00115383
4 *3497:A *3505:A 0
5 *3497:A *240:11 4.77425e-05
6 *238:11 *3505:A 0
7 *238:11 *240:11 7.51285e-05
8 *3493:A *238:11 0
9 *3522:A *3497:A 7.98824e-05
*RES
1 s_axil_wdata[7] *238:11 45.9321 
2 *238:11 *3497:A 26.3036 
*END

*D_NET *239 0.00254595
*CONN
*P s_axil_wdata[8] I
*I *3505:A I *D sg13g2_dlygate4sd3_1
*CAP
1 s_axil_wdata[8] 0.00105294
2 *3505:A 0.00105294
3 *3505:A *240:11 0
4 *3505:A *1051:10 0.000240738
5 *3493:A *3505:A 0.000199333
6 *3497:A *3505:A 0
7 *3516:A *3505:A 0
8 *238:11 *3505:A 0
*RES
1 s_axil_wdata[8] *3505:A 31.4639 
*END

*D_NET *240 0.00291205
*CONN
*P s_axil_wdata[9] I
*I *3519:A I *D sg13g2_dlygate4sd3_1
*CAP
1 s_axil_wdata[9] 0.000747363
2 *3519:A 0.000396244
3 *240:11 0.00114361
4 *3497:A *240:11 4.77425e-05
5 *3505:A *240:11 0
6 *3522:A *3519:A 0
7 *3522:A *240:11 0
8 *3525:A *3519:A 0
9 *211:11 *240:11 0
10 *212:11 *3519:A 0
11 *212:11 *240:11 0
12 *213:9 *3519:A 0.000501968
13 *238:11 *240:11 7.51285e-05
*RES
1 s_axil_wdata[9] *240:11 47.6316 
2 *240:11 *3519:A 24.6453 
*END

*D_NET *241 0.00562944
*CONN
*P s_axil_wready O
*I *3686:X O *D sg13g2_buf_1
*CAP
1 s_axil_wready 0.000938357
2 *3686:X 0.000911308
3 *241:14 0.00184966
4 s_axil_wready *3507:A 0
5 s_axil_wready *3520:A 0.000372075
6 s_axil_wready *245:11 0
7 s_axil_wready *246:9 0
8 *241:14 *2872:A 3.23417e-05
9 *241:14 *3215:RESET_B 0
10 *241:14 *3215:D 0.000370255
11 *241:14 *3495:A 0
12 *241:14 *3507:A 0
13 *241:14 *709:44 0
14 *241:14 *709:52 0
15 *241:14 *982:10 0.000209632
16 *241:14 *1025:12 0.000209593
17 *241:14 *1124:26 0.000370455
18 s_axil_bresp[0] s_axil_wready 0
19 s_axil_bresp[1] s_axil_wready 0.000341119
20 s_axil_bvalid *241:14 2.46413e-05
*RES
1 *3686:X *241:14 49.5584 
2 *241:14 s_axil_wready 27.6465 
*END

*D_NET *242 0.00325813
*CONN
*P s_axil_wstrb[0] I
*I *3494:A I *D sg13g2_dlygate4sd3_1
*CAP
1 s_axil_wstrb[0] 0.000597905
2 *3494:A 0.000477083
3 *242:11 0.00107499
4 *3494:A *3520:A 0
5 *242:11 *243:11 0
6 *242:11 *244:9 0.000394151
7 *3510:A *3494:A 0
8 *230:9 *242:11 0.000714004
9 *233:11 *242:11 0
*RES
1 s_axil_wstrb[0] *242:11 48.0855 
2 *242:11 *3494:A 24.429 
*END

*D_NET *243 0.0031667
*CONN
*P s_axil_wstrb[1] I
*I *3520:A I *D sg13g2_dlygate4sd3_1
*CAP
1 s_axil_wstrb[1] 0.000873353
2 *3520:A 0.000523958
3 *243:11 0.00139731
4 *3520:A *3507:A 0
5 *3520:A *3589:A 0
6 *3520:A *1048:16 0
7 *3520:A *1076:12 0
8 *243:11 *244:9 0
9 *243:11 *245:11 0
10 s_axil_wready *3520:A 0.000372075
11 *3494:A *3520:A 0
12 *233:11 *243:11 0
13 *242:11 *243:11 0
*RES
1 s_axil_wstrb[1] *243:11 45.0824 
2 *243:11 *3520:A 24.8343 
*END

*D_NET *244 0.00364252
*CONN
*P s_axil_wstrb[2] I
*I *3495:A I *D sg13g2_dlygate4sd3_1
*CAP
1 s_axil_wstrb[2] 0.00101803
2 *3495:A 0.000419966
3 *244:9 0.001438
4 *3495:A *3507:A 0
5 *244:9 *245:11 0
6 *244:9 *246:9 0
7 s_axil_bresp[1] *3495:A 0
8 s_axil_bvalid *3495:A 0.000372371
9 *241:14 *3495:A 0
10 *242:11 *244:9 0.000394151
11 *243:11 *244:9 0
*RES
1 s_axil_wstrb[2] *244:9 30.2794 
2 *244:9 *3495:A 44.2127 
*END

*D_NET *245 0.00328561
*CONN
*P s_axil_wstrb[3] I
*I *3507:A I *D sg13g2_dlygate4sd3_1
*CAP
1 s_axil_wstrb[3] 0.000884558
2 *3507:A 0.000483663
3 *245:11 0.00136822
4 *3507:A *2722:A 0
5 *3507:A *1025:12 0
6 *3507:A *1049:14 0
7 *245:11 *246:9 0
8 s_axil_bresp[1] *3507:A 0.000339717
9 s_axil_wready *3507:A 0
10 s_axil_wready *245:11 0
11 *3495:A *3507:A 0
12 *3510:A *245:11 0.000209451
13 *3520:A *3507:A 0
14 *241:14 *3507:A 0
15 *243:11 *245:11 0
16 *244:9 *245:11 0
*RES
1 s_axil_wstrb[3] *245:11 49.4142 
2 *245:11 *3507:A 25.5105 
*END

*D_NET *246 0.00284667
*CONN
*P s_axil_wvalid I
*I *3474:A I *D sg13g2_dlygate4sd3_1
*CAP
1 s_axil_wvalid 0.000948201
2 *3474:A 0.000475132
3 *246:9 0.00142333
4 s_axil_bvalid *3474:A 0
5 s_axil_wready *246:9 0
6 *3472:A *3474:A 0
7 *244:9 *246:9 0
8 *245:11 *246:9 0
*RES
1 s_axil_wvalid *246:9 26.7148 
2 *246:9 *3474:A 44.6453 
*END

*D_NET *247 0.000281309
*CONN
*I *3145:D I *D sg13g2_dfrbpq_1
*I *2738:Y O *D sg13g2_inv_1
*CAP
1 *3145:D 0.000140655
2 *2738:Y 0.000140655
3 *3145:D *2871:A 0
4 *3145:D *3145:RESET_B 0
5 *3145:D *1139:29 0
*RES
1 *2738:Y *3145:D 41.5347 
*END

*D_NET *248 0.00118944
*CONN
*I *3147:D I *D sg13g2_dfrbpq_1
*I *2745:Y O *D sg13g2_a21oi_1
*CAP
1 *3147:D 0.000205087
2 *2745:Y 0.000389632
3 *248:8 0.000594719
4 *3147:D *3147:RESET_B 0
5 *248:8 *396:10 0
6 *248:8 *968:12 0
*RES
1 *2745:Y *248:8 44.0582 
2 *248:8 *3147:D 42.1321 
*END

*D_NET *249 0.00114109
*CONN
*I *3149:D I *D sg13g2_dfrbpq_1
*I *2749:Y O *D sg13g2_a21oi_1
*CAP
1 *3149:D 0.000121761
2 *2749:Y 0.000448781
3 *249:8 0.000570543
4 *249:8 *715:10 0
5 *249:8 *738:10 0
*RES
1 *2749:Y *249:8 45.047 
2 *249:8 *3149:D 41.1845 
*END

*D_NET *250 0.00214195
*CONN
*I *3151:D I *D sg13g2_dfrbpq_1
*I *2753:Y O *D sg13g2_a21oi_1
*CAP
1 *3151:D 0
2 *2753:Y 0.00071081
3 *250:10 0.00071081
4 *250:10 *2753:A1 0.000111804
5 *250:10 *2753:B1 0.000533309
6 *250:10 *402:8 7.52158e-05
7 *250:10 *699:14 0
8 *250:10 *828:47 0
9 *250:10 *828:51 0
*RES
1 *2753:Y *250:10 48.6108 
2 *250:10 *3151:D 40 
*END

*D_NET *251 0.00105294
*CONN
*I *3153:D I *D sg13g2_dfrbpq_1
*I *2757:Y O *D sg13g2_a21oi_1
*CAP
1 *3153:D 0
2 *2757:Y 0.00040604
3 *251:10 0.00040604
4 *251:10 *2791:A2 0
5 *251:10 *699:10 0
6 *251:10 *699:14 0
7 *251:10 *755:29 0
8 *251:10 *755:35 0.000240855
9 *251:10 *1116:8 0
*RES
1 *2757:Y *251:10 43.9449 
2 *251:10 *3153:D 40 
*END

*D_NET *252 0.00118058
*CONN
*I *3155:D I *D sg13g2_dfrbpq_1
*I *2761:Y O *D sg13g2_a21oi_1
*CAP
1 *3155:D 0.000139385
2 *2761:Y 0.000450906
3 *252:8 0.000590291
4 *3155:D *3155:RESET_B 0
5 *252:8 *721:48 0
*RES
1 *2761:Y *252:8 45.5414 
2 *252:8 *3155:D 41.5347 
*END

*D_NET *253 0.000869248
*CONN
*I *3157:D I *D sg13g2_dfrbpq_1
*I *2765:Y O *D sg13g2_a21oi_1
*CAP
1 *3157:D 9.40415e-05
2 *2765:Y 0.000163263
3 *253:8 0.000257304
4 *3157:D *3169:CLK 0.000177399
5 *3157:D *757:53 0.00017724
6 *253:8 *646:35 0
7 *253:8 *978:8 0
*RES
1 *2765:Y *253:8 41.5862 
2 *253:8 *3157:D 41.1845 
*END

*D_NET *254 0.000428366
*CONN
*I *3159:D I *D sg13g2_dfrbpq_1
*I *2769:Y O *D sg13g2_a21oi_1
*CAP
1 *3159:D 0.000190227
2 *2769:Y 0.000190227
3 *3159:D *392:26 4.79124e-05
4 *3159:D *830:33 0
*RES
1 *2769:Y *3159:D 41.7819 
*END

*D_NET *255 0.00113206
*CONN
*I *3161:D I *D sg13g2_dfrbpq_1
*I *2773:Y O *D sg13g2_a21oi_1
*CAP
1 *3161:D 0.000151186
2 *2773:Y 5.55861e-05
3 *255:8 0.000206772
4 *3161:D *415:16 0.00014338
5 *3161:D *1105:10 0
6 *3161:D *1105:18 0
7 *255:8 *755:54 0.000287776
8 *255:8 *1127:10 0.000287361
*RES
1 *2773:Y *255:8 41.339 
2 *255:8 *3161:D 41.4008 
*END

*D_NET *256 0.00107748
*CONN
*I *3163:D I *D sg13g2_dfrbpq_1
*I *2777:Y O *D sg13g2_a21oi_1
*CAP
1 *3163:D 0.000121129
2 *2777:Y 0.000165156
3 *256:8 0.000286284
4 *3163:D *419:14 0
5 *3163:D *759:54 0
6 *3163:D *834:73 0.00011201
7 *256:8 *723:63 0.000392903
8 *256:8 *834:32 0
*RES
1 *2777:Y *256:8 41.8334 
2 *256:8 *3163:D 41.1845 
*END

*D_NET *257 0.000816222
*CONN
*I *3165:D I *D sg13g2_dfrbpq_1
*I *2781:Y O *D sg13g2_a21oi_1
*CAP
1 *3165:D 0.000216739
2 *2781:Y 6.05252e-05
3 *257:8 0.000277265
4 *3165:D *736:32 8.00842e-05
5 *3165:D *970:10 0
6 *3165:D *1130:35 0
7 *257:8 *421:8 0
8 *257:8 *721:71 0.000181608
*RES
1 *2781:Y *257:8 40.8446 
2 *257:8 *3165:D 41.8334 
*END

*D_NET *258 0.000410145
*CONN
*I *3167:D I *D sg13g2_dfrbpq_1
*I *2785:Y O *D sg13g2_a21oi_1
*CAP
1 *3167:D 5.10268e-05
2 *2785:Y 5.0841e-05
3 *258:8 0.000101868
4 *3167:D *2782:B1 8.00842e-05
5 *258:8 *452:26 0
6 *258:8 *772:27 0.000126325
*RES
1 *2785:Y *258:8 40.5974 
2 *258:8 *3167:D 40.5356 
*END

*D_NET *259 0.00104624
*CONN
*I *3169:D I *D sg13g2_dfrbpq_1
*I *2789:Y O *D sg13g2_a21oi_1
*CAP
1 *3169:D 0
2 *2789:Y 0.00052312
3 *259:10 0.00052312
4 *259:10 *757:53 0
5 *259:10 *790:26 0
6 *259:10 *978:8 0
7 *259:10 *1137:50 0
*RES
1 *2789:Y *259:10 44.2539 
2 *259:10 *3169:D 40 
*END

*D_NET *260 0.0005116
*CONN
*I *3171:D I *D sg13g2_dfrbpq_1
*I *2793:Y O *D sg13g2_a21oi_1
*CAP
1 *3171:D 0.0002558
2 *2793:Y 0.0002558
3 *3171:D *2791:A2 0
4 *3171:D *2793:B1 0
5 *3171:D *731:23 0
*RES
1 *2793:Y *3171:D 42.8119 
*END

*D_NET *261 0.00110555
*CONN
*I *3173:D I *D sg13g2_dfrbpq_1
*I *2797:Y O *D sg13g2_a21oi_1
*CAP
1 *3173:D 9.54588e-05
2 *2797:Y 4.58035e-05
3 *261:8 0.000141262
4 *3173:D *422:8 0.000177203
5 *3173:D *762:35 0.000177203
6 *261:8 *478:18 0.000234311
7 *261:8 *851:25 0.000234311
*RES
1 *2797:Y *261:8 41.0918 
2 *261:8 *3173:D 41.1845 
*END

*D_NET *262 0.000740659
*CONN
*I *3175:D I *D sg13g2_dfrbpq_1
*I *2801:Y O *D sg13g2_a21oi_1
*CAP
1 *3175:D 0.000279073
2 *2801:Y 0.000279073
3 *3175:D *2801:A1 0.000182514
4 *3175:D *3175:RESET_B 0
5 *3175:D *724:43 0
*RES
1 *2801:Y *3175:D 42.9149 
*END

*D_NET *263 0.001472
*CONN
*I *3529:A I *D sg13g2_dlygate4sd3_1
*I *2805:Y O *D sg13g2_a21oi_1
*CAP
1 *3529:A 4.37077e-05
2 *2805:Y 0.000119877
3 *263:8 0.000163584
4 *3529:A *2802:B1 8.00842e-05
5 *3529:A *441:12 8.00842e-05
6 *263:8 *439:8 0.000491873
7 *263:8 *1129:56 0.00049279
*RES
1 *2805:Y *263:8 42.3278 
2 *263:8 *3529:A 40.5356 
*END

*D_NET *264 0.000951613
*CONN
*I *3179:D I *D sg13g2_dfrbpq_1
*I *2809:Y O *D sg13g2_a21oi_1
*CAP
1 *3179:D 6.84928e-05
2 *2809:Y 0.000183887
3 *264:8 0.00025238
4 *264:8 *444:10 0
5 *264:8 *843:20 0.000446854
*RES
1 *2809:Y *264:8 42.0806 
2 *264:8 *3179:D 40.5356 
*END

*D_NET *265 0.00108685
*CONN
*I *3181:D I *D sg13g2_dfrbpq_1
*I *2813:Y O *D sg13g2_a21oi_1
*CAP
1 *3181:D 5.20024e-05
2 *2813:Y 8.37016e-05
3 *265:8 0.000135704
4 *3181:D *1131:31 8.00842e-05
5 *265:8 *388:18 0.000394238
6 *265:8 *831:92 0.000341119
*RES
1 *2813:Y *265:8 41.8334 
2 *265:8 *3181:D 40.5356 
*END

*D_NET *266 0.000317298
*CONN
*I *3183:D I *D sg13g2_dfrbpq_1
*I *2817:Y O *D sg13g2_a21oi_1
*CAP
1 *3183:D 0.000122652
2 *2817:Y 0.000122652
3 *3183:D *722:72 6.99179e-05
4 *3183:D *743:21 2.07576e-06
*RES
1 *2817:Y *3183:D 41.339 
*END

*D_NET *267 0.00201847
*CONN
*I *3185:D I *D sg13g2_dfrbpq_1
*I *2821:Y O *D sg13g2_a21oi_1
*CAP
1 *3185:D 0.000104797
2 *2821:Y 0.000215592
3 *267:10 0.000320389
4 *3185:D *1136:31 0.000143758
5 *3185:D *1146:41 0.000176099
6 *267:10 *2821:A1 0.000177077
7 *267:10 *2821:B1 0.000144768
8 *267:10 *453:10 0.000341119
9 *267:10 *719:30 0
10 *267:10 *767:29 0.000394869
11 *267:10 *770:28 0
12 *267:10 *1140:37 0
*RES
1 *2821:Y *267:10 43.2342 
2 *267:10 *3185:D 41.1845 
*END

*D_NET *268 0.000302471
*CONN
*I *3187:D I *D sg13g2_dfrbpq_1
*I *2825:Y O *D sg13g2_a21oi_1
*CAP
1 *3187:D 0.000111114
2 *2825:Y 0.000111114
3 *3187:D *780:16 0
4 *3187:D *843:125 8.02431e-05
5 *3187:D *905:81 0
*RES
1 *2825:Y *3187:D 41.3802 
*END

*D_NET *269 0.000586604
*CONN
*I *3189:D I *D sg13g2_dfrbpq_1
*I *2829:Y O *D sg13g2_a21oi_1
*CAP
1 *3189:D 0
2 *2829:Y 0.000229178
3 *269:12 0.000229178
4 *269:12 *457:10 0.000128247
5 *269:12 *775:23 0
*RES
1 *2829:Y *269:12 42.6883 
2 *269:12 *3189:D 40 
*END

*D_NET *270 0.000751457
*CONN
*I *3191:D I *D sg13g2_dfrbpq_1
*I *2833:Y O *D sg13g2_a21oi_1
*CAP
1 *3191:D 2.85201e-05
2 *2833:Y 9.59027e-05
3 *270:16 0.000114501
4 *270:10 0.000181884
5 *3191:D *717:46 4.78521e-05
6 *3191:D *754:31 0
7 *270:10 *725:56 7.52158e-05
8 *270:10 *754:31 7.92741e-05
9 *270:10 *854:30 0.000128307
10 *270:16 *843:68 0
*RES
1 *2833:Y *270:10 41.133 
2 *270:10 *270:16 40.9682 
3 *270:16 *3191:D 40.3193 
*END

*D_NET *271 0.000668024
*CONN
*I *3193:D I *D sg13g2_dfrbpq_1
*I *2837:Y O *D sg13g2_a21oi_1
*CAP
1 *3193:D 0
2 *2837:Y 0.000334012
3 *271:10 0.000334012
4 *271:10 *2837:A1 0
5 *271:10 *784:25 0
6 *271:10 *841:33 0
7 *271:10 *841:48 0
8 *271:10 *905:65 0
9 *271:10 *1139:62 0
*RES
1 *2837:Y *271:10 42.9561 
2 *271:10 *3193:D 40 
*END

*D_NET *272 0.00061109
*CONN
*I *3195:D I *D sg13g2_dfrbpq_1
*I *2841:Y O *D sg13g2_a21oi_1
*CAP
1 *3195:D 0.000216846
2 *2841:Y 0.000216846
3 *3195:D *2838:B1 0.000177399
4 *3195:D *3354:A 0
5 *3195:D *751:29 0
6 *3195:D *1133:45 0
*RES
1 *2841:Y *3195:D 42.3175 
*END

*D_NET *273 0.000996708
*CONN
*I *3197:D I *D sg13g2_dfrbpq_1
*I *2845:Y O *D sg13g2_a21oi_1
*CAP
1 *3197:D 0
2 *2845:Y 0.000367805
3 *273:14 0.000367805
4 *273:14 *2845:B1 0
5 *273:14 *425:28 0.000181325
6 *273:14 *478:18 0
7 *273:14 *723:102 0
8 *273:14 *748:31 7.97732e-05
*RES
1 *2845:Y *273:14 43.7183 
2 *273:14 *3197:D 40 
*END

*D_NET *274 0.000650654
*CONN
*I *3199:D I *D sg13g2_dfrbpq_1
*I *2849:Y O *D sg13g2_a21oi_1
*CAP
1 *3199:D 0.000204455
2 *2849:Y 0.000204455
3 *3199:D *3708:A 0.000193973
4 *3199:D *1145:54 0
5 *3199:D *1148:37 4.77699e-05
*RES
1 *2849:Y *3199:D 42.2145 
*END

*D_NET *275 0.00077943
*CONN
*I *3201:D I *D sg13g2_dfrbpq_1
*I *2853:Y O *D sg13g2_a21oi_1
*CAP
1 *3201:D 0.000168265
2 *2853:Y 0.000100526
3 *275:8 0.000268791
4 *3201:D *843:125 0.000241847
5 *3201:D *1139:62 0
*RES
1 *2853:Y *275:8 40.8446 
2 *275:8 *3201:D 41.6171 
*END

*D_NET *276 0.00110103
*CONN
*I *3203:D I *D sg13g2_dfrbpq_1
*I *2857:Y O *D sg13g2_a21oi_1
*CAP
1 *3203:D 0.000173212
2 *2857:Y 7.71525e-05
3 *276:8 0.000250364
4 *3203:D *3616:A 0
5 *3203:D *720:53 0.000241039
6 *276:8 *476:12 0
7 *276:8 *476:18 0.00012794
8 *276:8 *481:12 0.000231326
*RES
1 *2857:Y *276:8 41.0918 
2 *276:8 *3203:D 41.6171 
*END

*D_NET *277 0.00160652
*CONN
*I *3205:D I *D sg13g2_dfrbpq_1
*I *2861:Y O *D sg13g2_a21oi_1
*CAP
1 *3205:D 0.00034014
2 *2861:Y 0.00034014
3 *3205:D *2861:A1 2.21754e-05
4 *3205:D *2861:B1 0
5 *3205:D *486:12 0.000403556
6 *3205:D *1133:45 0.000500504
7 *3205:D *1135:85 0
*RES
1 *2861:Y *3205:D 43.914 
*END

*D_NET *278 0.000688228
*CONN
*I *3207:D I *D sg13g2_dfrbpq_1
*I *2865:Y O *D sg13g2_a21oi_1
*CAP
1 *3207:D 0.000177767
2 *2865:Y 0.000177767
3 *3207:D *2865:A1 0.000112514
4 *3207:D *2865:B1 0.000144783
5 *3207:D *3207:RESET_B 7.53965e-05
6 *3207:D *751:54 0
*RES
1 *2865:Y *3207:D 42.0291 
*END

*D_NET *279 0.000491392
*CONN
*I *3209:D I *D sg13g2_dfrbpq_1
*I *2869:Y O *D sg13g2_a21oi_1
*CAP
1 *3209:D 0.000237968
2 *2869:Y 0.000237968
3 *3209:D *2853:B1 0
4 *3209:D *488:20 0
5 *3209:D *843:125 0
6 *3209:D *1139:62 1.54556e-05
*RES
1 *2869:Y *3209:D 42.1321 
*END

*D_NET *280 0.000426402
*CONN
*I *3211:D I *D sg13g2_dfrbpq_1
*I *2871:Y O *D sg13g2_nand2_1
*CAP
1 *3211:D 0.000213201
2 *2871:Y 0.000213201
3 *3211:D *2737:B 0
4 *3211:D *2871:A 0
5 *3211:D *2871:B 0
6 *3211:D *3211:RESET_B 0
7 *3211:D *390:8 0
8 *3211:D *763:32 0
9 *3211:D *1139:29 0
*RES
1 *2871:Y *3211:D 42.2145 
*END

*D_NET *281 0.000356204
*CONN
*I *3213:D I *D sg13g2_dfrbpq_1
*I *2875:X O *D sg13g2_and2_1
*CAP
1 *3213:D 0.000170402
2 *2875:X 0.000170402
3 *3213:D *2875:A 1.54008e-05
4 *3213:D *3213:RESET_B 0
*RES
1 *2875:X *3213:D 41.5347 
*END

*D_NET *282 0.0021447
*CONN
*I *3215:D I *D sg13g2_dfrbpq_1
*I *2878:X O *D sg13g2_and3_1
*CAP
1 *3215:D 0.000263523
2 *2878:X 0.000267039
3 *282:12 0.000530562
4 *3215:D *1025:12 0
5 *282:12 *2878:A 7.92265e-05
6 *282:12 *491:10 0.000505285
7 *282:12 *714:20 0.00012881
8 *241:14 *3215:D 0.000370255
*RES
1 *2878:X *282:12 43.1827 
2 *282:12 *3215:D 42.4823 
*END

*D_NET *283 0.00139221
*CONN
*I *3217:D I *D sg13g2_dfrbpq_1
*I *2883:Y O *D sg13g2_nor2_1
*CAP
1 *3217:D 0.000222141
2 *2883:Y 0.000473964
3 *283:8 0.000696104
4 *3217:D *356:22 0
5 *3217:D *725:10 0
6 *3217:D *736:32 0
7 *283:8 *898:59 0
*RES
1 *2883:Y *283:8 44.7998 
2 *283:8 *3217:D 42.266 
*END

*D_NET *284 0.000554281
*CONN
*I *3219:D I *D sg13g2_dfrbpq_1
*I *2887:Y O *D sg13g2_nor2_1
*CAP
1 *3219:D 0.000277141
2 *2887:Y 0.000277141
3 *3219:D *2884:B1 0
4 *3219:D *1141:33 0
*RES
1 *2887:Y *3219:D 42.9767 
*END

*D_NET *285 0.00235239
*CONN
*I *3221:D I *D sg13g2_dfrbpq_1
*I *2891:Y O *D sg13g2_nor2_1
*CAP
1 *3221:D 0.000178996
2 *2891:Y 0.000343118
3 *285:10 0.000522114
4 *3221:D *379:22 0.000339437
5 *3221:D *1134:27 0.000339437
6 *285:10 *2891:A 0
7 *285:10 *505:8 0
8 *285:10 *508:10 0
9 *285:10 *883:100 0.00012816
10 *285:10 *1020:8 0.000501132
11 *285:10 *1135:32 0
*RES
1 *2891:Y *285:10 44.2848 
2 *285:10 *3221:D 42.266 
*END

*D_NET *286 0.000932528
*CONN
*I *3223:D I *D sg13g2_dfrbpq_1
*I *2895:Y O *D sg13g2_nor2_1
*CAP
1 *3223:D 0.00012121
2 *2895:Y 0.000345054
3 *286:8 0.000466264
4 *3223:D *356:22 0
5 *286:8 *898:59 0
*RES
1 *2895:Y *286:8 43.3166 
2 *286:8 *3223:D 41.1845 
*END

*D_NET *287 0.00105955
*CONN
*I *3225:D I *D sg13g2_dfrbpq_1
*I *2899:Y O *D sg13g2_nor2_1
*CAP
1 *3225:D 0.000190686
2 *2899:Y 0.00027476
3 *287:8 0.000465445
4 *3225:D *388:14 0
5 *3225:D *751:29 0
6 *287:8 *388:14 0.000128663
7 *287:8 *799:16 0
8 *287:8 *800:22 0
*RES
1 *2899:Y *287:8 42.575 
2 *287:8 *3225:D 41.6171 
*END

*D_NET *288 0.000222686
*CONN
*I *3227:D I *D sg13g2_dfrbpq_1
*I *2903:Y O *D sg13g2_nor2_1
*CAP
1 *3227:D 0.000111343
2 *2903:Y 0.000111343
3 *3227:D *2900:B1 0
4 *3227:D *3227:RESET_B 0
*RES
1 *2903:Y *3227:D 41.1845 
*END

*D_NET *289 0.00123238
*CONN
*I *3229:D I *D sg13g2_dfrbpq_1
*I *2907:Y O *D sg13g2_nor2_1
*CAP
1 *3229:D 0.000116591
2 *2907:Y 0.000187308
3 *289:8 0.000303899
4 *3229:D *858:92 0.000176482
5 *3229:D *1135:46 0
6 *289:8 *3281:CLK 0
7 *289:8 *778:29 0.000448099
*RES
1 *2907:Y *289:8 42.0806 
2 *289:8 *3229:D 41.1845 
*END

*D_NET *290 0.00182837
*CONN
*I *3231:D I *D sg13g2_dfrbpq_1
*I *2911:Y O *D sg13g2_nor2_1
*CAP
1 *3231:D 0
2 *2911:Y 0.000423564
3 *290:10 0.000423564
4 *290:10 *3088:B1 0
5 *290:10 *697:180 0
6 *290:10 *710:49 0
7 *290:10 *859:21 0.000981247
8 *290:10 *898:97 0
*RES
1 *2911:Y *290:10 45.7371 
2 *290:10 *3231:D 40 
*END

*D_NET *291 0.00227379
*CONN
*I *3233:D I *D sg13g2_dfrbpq_1
*I *2916:Y O *D sg13g2_nor2_1
*CAP
1 *3233:D 4.79712e-05
2 *2916:Y 0.000903308
3 *291:10 0.000951279
4 *3233:D *363:16 0
5 *3233:D *1118:12 8.0216e-05
6 *291:10 *527:10 0.000291013
7 *291:10 *861:22 0
*RES
1 *2916:Y *291:10 48.3327 
2 *291:10 *3233:D 40.5356 
*END

*D_NET *292 0.00281171
*CONN
*I *3235:D I *D sg13g2_dfrbpq_1
*I *2920:Y O *D sg13g2_nor2_1
*CAP
1 *3235:D 0
2 *2920:Y 0.000693478
3 *292:10 0.000693478
4 *292:10 *2920:A 0.000112108
5 *292:10 *2920:B 4.77425e-05
6 *292:10 *1118:12 0.00126491
*RES
1 *2920:Y *292:10 47.622 
2 *292:10 *3235:D 40 
*END

*D_NET *293 0.00134629
*CONN
*I *3237:D I *D sg13g2_dfrbpq_1
*I *2924:Y O *D sg13g2_nor2_1
*CAP
1 *3237:D 0.000224151
2 *2924:Y 0.000408808
3 *293:8 0.000632959
4 *3237:D *3237:RESET_B 0
5 *3237:D *3241:RESET_B 8.03692e-05
6 *293:8 *530:10 0
7 *293:8 *883:85 0
8 *293:8 *891:65 0
*RES
1 *2924:Y *293:8 44.0582 
2 *293:8 *3237:D 42.1836 
*END

*D_NET *294 0.00160911
*CONN
*I *3239:D I *D sg13g2_dfrbpq_1
*I *2928:Y O *D sg13g2_nor2_1
*CAP
1 *3239:D 0.000182552
2 *2928:Y 0.000239038
3 *294:8 0.00042159
4 *3239:D *3239:RESET_B 0
5 *3239:D *3595:A 4.78192e-05
6 *294:8 *358:10 0.000718109
7 *294:8 *1079:28 0
*RES
1 *2928:Y *294:8 43.3166 
2 *294:8 *3239:D 41.751 
*END

*D_NET *295 0.00184672
*CONN
*I *3241:D I *D sg13g2_dfrbpq_1
*I *2932:Y O *D sg13g2_nor2_1
*CAP
1 *3241:D 0
2 *2932:Y 0.00056744
3 *295:10 0.00056744
4 *295:10 *2913:A2 0
5 *295:10 *2932:A 0
6 *295:10 *705:52 0.000711838
7 *295:10 *736:14 0
8 *295:10 *883:85 0
*RES
1 *2932:Y *295:10 46.386 
2 *295:10 *3241:D 40 
*END

*D_NET *296 0.00189501
*CONN
*I *3243:D I *D sg13g2_dfrbpq_1
*I *2936:Y O *D sg13g2_nor2_1
*CAP
1 *3243:D 0.000133175
2 *2936:Y 0.000697293
3 *296:8 0.000830468
4 *296:8 *521:64 0
5 *296:8 *543:8 0.000234074
6 *296:8 *545:8 0
7 *296:8 *816:100 0
8 *296:8 *891:65 0
9 *296:8 *996:10 0
10 *3:30 *3243:D 0
*RES
1 *2936:Y *296:8 47.0246 
2 *296:8 *3243:D 41.1845 
*END

*D_NET *297 0.00146241
*CONN
*I *3245:D I *D sg13g2_dfrbpq_1
*I *2940:Y O *D sg13g2_nor2_1
*CAP
1 *3245:D 0.000141562
2 *2940:Y 0.000248417
3 *297:10 0.000389978
4 *3245:D *356:22 0
5 *3245:D *861:59 0.000240335
6 *297:10 *2937:A1 0
7 *297:10 *2940:A 4.78521e-05
8 *297:10 *3247:CLK 0
9 *297:10 *540:8 0.000394265
*RES
1 *2940:Y *297:10 43.1106 
2 *297:10 *3245:D 41.6171 
*END

*D_NET *298 0.00156622
*CONN
*I *3247:D I *D sg13g2_dfrbpq_1
*I *2944:Y O *D sg13g2_nor2_1
*CAP
1 *3247:D 0
2 *2944:Y 0.00078311
3 *298:12 0.00078311
4 *298:12 *3243:CLK 0
5 *298:12 *736:32 0
6 *298:12 *889:97 0
7 *298:12 *1121:14 0
*RES
1 *2944:Y *298:12 47.3542 
2 *298:12 *3247:D 40 
*END

*D_NET *299 0.0015472
*CONN
*I *3249:D I *D sg13g2_dfrbpq_1
*I *2949:Y O *D sg13g2_nor2_1
*CAP
1 *3249:D 0
2 *2949:Y 0.000512237
3 *299:10 0.000512237
4 *299:10 *2949:A 0
5 *299:10 *546:110 0
6 *299:10 *546:120 0
7 *299:10 *707:16 0.000182023
8 *299:10 *707:30 0.000340704
9 *299:10 *724:43 0
10 *299:10 *819:24 0
*RES
1 *2949:Y *299:10 45.459 
2 *299:10 *3249:D 40 
*END

*D_NET *300 0.00108493
*CONN
*I *3251:D I *D sg13g2_dfrbpq_1
*I *2953:Y O *D sg13g2_nor2_1
*CAP
1 *3251:D 0
2 *2953:Y 0.00038899
3 *300:12 0.00038899
4 *300:12 *546:67 0
5 *300:12 *733:37 0.000306952
6 *300:12 *759:42 0
7 *300:12 *759:54 0
8 *300:12 *761:50 0
9 *300:12 *798:24 0
*RES
1 *2953:Y *300:12 44.2333 
2 *300:12 *3251:D 40 
*END

*D_NET *301 0.00230267
*CONN
*I *3253:D I *D sg13g2_dfrbpq_1
*I *2957:Y O *D sg13g2_nor2_1
*CAP
1 *3253:D 0.000109653
2 *2957:Y 0.0004208
3 *301:14 0.000530453
4 *3253:D *733:37 0
5 *3253:D *798:22 0.0001775
6 *301:14 *2957:A 4.7813e-05
7 *301:14 *3251:CLK 0.000176601
8 *301:14 *546:88 0
9 *301:14 *723:51 0.000337683
10 *301:14 *798:24 0.000502169
*RES
1 *2957:Y *301:14 45.2633 
2 *301:14 *3253:D 41.1845 
*END

*D_NET *302 0.000381729
*CONN
*I *3255:D I *D sg13g2_dfrbpq_1
*I *2961:Y O *D sg13g2_nor2_1
*CAP
1 *3255:D 0.000190864
2 *2961:Y 0.000190864
3 *3255:D *2961:B 0
4 *3255:D *752:34 0
5 *3255:D *1137:50 0
*RES
1 *2961:Y *3255:D 41.7819 
*END

*D_NET *303 0.000489627
*CONN
*I *3257:D I *D sg13g2_dfrbpq_1
*I *2965:Y O *D sg13g2_nor2_1
*CAP
1 *3257:D 0.000126921
2 *2965:Y 0.000126921
3 *3257:D *2965:B 0
4 *3257:D *757:47 0.000123249
5 *3257:D *766:45 0.000112536
*RES
1 *2965:Y *3257:D 41.6686 
*END

*D_NET *304 0.00121106
*CONN
*I *3259:D I *D sg13g2_dfrbpq_1
*I *2969:Y O *D sg13g2_nor2_1
*CAP
1 *3259:D 0
2 *2969:Y 0.000363311
3 *304:10 0.000363311
4 *304:10 *2951:C 0.00024222
5 *304:10 *759:28 0.00024222
6 *304:10 *855:87 0
*RES
1 *2969:Y *304:10 44.1921 
2 *304:10 *3259:D 40 
*END

*D_NET *305 0.00160885
*CONN
*I *3261:D I *D sg13g2_dfrbpq_1
*I *2973:Y O *D sg13g2_nor2_1
*CAP
1 *3261:D 0
2 *2973:Y 0.000337934
3 *305:12 0.000337934
4 *305:12 *2973:A 0
5 *305:12 *758:35 0.000241891
6 *305:12 *790:38 0.000507162
7 *305:12 *962:10 0.000183935
*RES
1 *2973:Y *305:12 44.2951 
2 *305:12 *3261:D 40 
*END

*D_NET *306 0.00212732
*CONN
*I *3263:D I *D sg13g2_dfrbpq_1
*I *2977:Y O *D sg13g2_nor2_1
*CAP
1 *3263:D 0
2 *2977:Y 0.000435433
3 *306:10 0.000435433
4 *306:10 *713:72 0.000501149
5 *306:10 *725:29 0
6 *306:10 *732:37 0.000467542
7 *306:10 *769:31 0
8 *306:10 *799:10 0
9 *306:10 *958:10 0.000287759
*RES
1 *2977:Y *306:10 45.459 
2 *306:10 *3263:D 40 
*END

*D_NET *307 0.00105766
*CONN
*I *3265:D I *D sg13g2_dfrbpq_1
*I *2982:Y O *D sg13g2_nor2_1
*CAP
1 *3265:D 0
2 *2982:Y 0.000504872
3 *307:14 0.000504872
4 *307:14 *2982:B 4.79124e-05
5 *307:14 *3265:RESET_B 0
6 *307:14 *3265:CLK 0
7 *307:14 *580:22 0
*RES
1 *2982:Y *307:14 45.5723 
2 *307:14 *3265:D 40 
*END

*D_NET *308 0.00137928
*CONN
*I *3267:D I *D sg13g2_dfrbpq_1
*I *2986:Y O *D sg13g2_nor2_1
*CAP
1 *3267:D 0.000120173
2 *2986:Y 0.000569466
3 *308:8 0.000689639
4 *308:8 *577:8 0
5 *308:8 *578:8 0
*RES
1 *2986:Y *308:8 46.5302 
2 *308:8 *3267:D 41.1845 
*END

*D_NET *309 0.00150193
*CONN
*I *3269:D I *D sg13g2_dfrbpq_1
*I *2990:Y O *D sg13g2_nor2_1
*CAP
1 *3269:D 0
2 *2990:Y 0.00011197
3 *309:16 0.000598838
4 *309:8 0.000710808
5 *309:8 *3267:CLK 0
6 *309:16 *2990:B 8.03091e-05
7 *309:16 *3267:CLK 0
8 *309:16 *3269:CLK 0
*RES
1 *2990:Y *309:8 41.0918 
2 *309:8 *309:16 45.1904 
3 *309:16 *3269:D 40 
*END

*D_NET *310 0.00152197
*CONN
*I *3271:D I *D sg13g2_dfrbpq_1
*I *2994:Y O *D sg13g2_nor2_1
*CAP
1 *3271:D 0
2 *2994:Y 0.000202885
3 *310:10 0.000202885
4 *310:10 *2994:A 0.000144025
5 *310:10 *3271:CLK 0.000446115
6 *310:10 *546:12 0
7 *310:10 *581:8 0.000446115
8 *310:10 *646:14 7.99485e-05
*RES
1 *2994:Y *310:10 43.2651 
2 *310:10 *3271:D 40 
*END

*D_NET *311 0.000699096
*CONN
*I *3273:D I *D sg13g2_dfrbpq_1
*I *2998:Y O *D sg13g2_nor2_1
*CAP
1 *3273:D 0.000132367
2 *2998:Y 0.00021718
3 *311:8 0.000349548
4 *3273:D *706:29 0
5 *311:8 *586:10 0
6 *311:8 *706:12 0
7 *311:8 *706:14 0
8 *311:8 *818:62 0
*RES
1 *2998:Y *311:8 42.3278 
2 *311:8 *3273:D 41.1845 
*END

*D_NET *312 0.00131899
*CONN
*I *3275:D I *D sg13g2_dfrbpq_1
*I *3002:Y O *D sg13g2_nor2_1
*CAP
1 *3275:D 0
2 *3002:Y 0.000303851
3 *312:10 0.000303851
4 *312:10 *3002:A 1.54008e-05
5 *312:10 *359:28 0
6 *312:10 *360:16 0
7 *312:10 *360:34 0.000144861
8 *312:10 *571:12 0
9 *312:10 *571:97 0
10 *312:10 *698:40 0.000551028
11 *312:10 *889:70 0
*RES
1 *3002:Y *312:10 43.7595 
2 *312:10 *3275:D 40 
*END

*D_NET *313 0.00110647
*CONN
*I *3277:D I *D sg13g2_dfrbpq_1
*I *3006:Y O *D sg13g2_nor2_1
*CAP
1 *3277:D 0.000110391
2 *3006:Y 0.000165557
3 *313:8 0.000275948
4 *3277:D *3277:RESET_B 0
5 *3277:D *722:35 0
6 *313:8 *3277:CLK 0
7 *313:8 *571:108 0.000554578
8 *313:8 *698:38 0
*RES
1 *3006:Y *313:8 42.575 
2 *313:8 *3277:D 41.1845 
*END

*D_NET *314 0.000741665
*CONN
*I *3279:D I *D sg13g2_dfrbpq_1
*I *3010:Y O *D sg13g2_nor2_1
*CAP
1 *3279:D 0
2 *3010:Y 0.000249706
3 *314:10 0.000249706
4 *314:10 *357:28 0.000242252
5 *314:10 *595:14 0
6 *314:10 *808:29 0
7 *314:10 *889:97 0
*RES
1 *3010:Y *314:10 42.7089 
2 *314:10 *3279:D 40 
*END

*D_NET *315 0.00238307
*CONN
*I *3281:D I *D sg13g2_dfrbpq_1
*I *3015:Y O *D sg13g2_nor2_1
*CAP
1 *3281:D 0.000115244
2 *3015:Y 0.000501899
3 *315:12 0.000617143
4 *3281:D *2906:A1 0.000176543
5 *3281:D *1134:27 0
6 *315:12 *2905:C 0
7 *315:12 *3012:B1 0
8 *315:12 *3015:A 8.01773e-05
9 *315:12 *697:234 0
10 *315:12 *875:65 0.000176343
11 *315:12 *898:97 0.000715721
*RES
1 *3015:Y *315:12 45.5311 
2 *315:12 *3281:D 41.1845 
*END

*D_NET *316 0.000903031
*CONN
*I *3283:D I *D sg13g2_dfrbpq_1
*I *3019:Y O *D sg13g2_nor2_1
*CAP
1 *3283:D 0.00019982
2 *3019:Y 0.000186668
3 *316:8 0.000386488
4 *3283:D *3016:A1 0
5 *3283:D *3016:A2 0
6 *3283:D *3016:B1 0
7 *3283:D *697:264 0
8 *316:8 *600:8 0.000130055
*RES
1 *3019:Y *316:8 41.8334 
2 *316:8 *3283:D 42.0497 
*END

*D_NET *317 0.000488883
*CONN
*I *3285:D I *D sg13g2_dfrbpq_1
*I *3023:Y O *D sg13g2_nor2_1
*CAP
1 *3285:D 5.38889e-05
2 *3023:Y 0.000150431
3 *317:8 0.00020432
4 *3285:D *1139:25 0
5 *3285:D *1142:39 8.02434e-05
6 *317:8 *318:8 0
7 *317:8 *605:8 0
*RES
1 *3023:Y *317:8 41.5862 
2 *317:8 *3285:D 40.5356 
*END

*D_NET *318 0.00121696
*CONN
*I *3287:D I *D sg13g2_dfrbpq_1
*I *3027:Y O *D sg13g2_nor2_1
*CAP
1 *3287:D 9.38844e-05
2 *3027:Y 0.000193293
3 *318:8 0.000287178
4 *3287:D *1136:25 0.000177378
5 *3287:D *1139:25 0.000177378
6 *318:8 *605:8 0
7 *318:8 *825:67 0.000287845
8 *318:8 *1145:14 0
9 *317:8 *318:8 0
*RES
1 *3027:Y *318:8 42.0806 
2 *318:8 *3287:D 41.1845 
*END

*D_NET *319 0.000395395
*CONN
*I *3289:D I *D sg13g2_dfrbpq_1
*I *3031:Y O *D sg13g2_nor2_1
*CAP
1 *3289:D 0
2 *3031:Y 8.1869e-05
3 *319:10 8.1869e-05
4 *319:10 *3031:A 4.77863e-05
5 *319:10 *3031:B 0
6 *319:10 *823:80 0.00018387
*RES
1 *3031:Y *319:10 41.1639 
2 *319:10 *3289:D 40 
*END

*D_NET *320 0.00156064
*CONN
*I *3291:D I *D sg13g2_dfrbpq_1
*I *3035:Y O *D sg13g2_nor2_1
*CAP
1 *3291:D 0
2 *3035:Y 0.000301932
3 *320:10 0.000301932
4 *320:10 *3032:B1 1.54556e-05
5 *320:10 *3035:A 0.000144942
6 *320:10 *711:64 0
7 *320:10 *824:87 0
8 *320:10 *1136:25 0.00024222
9 *320:10 *1148:10 0.000554163
*RES
1 *3035:Y *320:10 44.1921 
2 *320:10 *3291:D 40 
*END

*D_NET *321 0.00148414
*CONN
*I *3293:D I *D sg13g2_dfrbpq_1
*I *3039:Y O *D sg13g2_nor2_1
*CAP
1 *3293:D 0
2 *3039:Y 0.000128952
3 *321:8 0.000128952
4 *321:8 *718:14 0.000445467
5 *321:8 *718:20 0.000178388
6 *321:8 *766:55 0.000602381
*RES
1 *3039:Y *321:8 42.8222 
2 *321:8 *3293:D 40 
*END

*D_NET *322 0.000846506
*CONN
*I *3295:D I *D sg13g2_dfrbpq_1
*I *3043:Y O *D sg13g2_nor2_1
*CAP
1 *3295:D 0.000163778
2 *3043:Y 0.00013839
3 *322:8 0.000302168
4 *3295:D *824:87 0
5 *3295:D *1136:25 0.00024217
6 *322:8 *778:29 0
7 *322:8 *823:46 0
*RES
1 *3043:Y *322:8 41.339 
2 *322:8 *3295:D 41.6171 
*END

*D_NET *323 0.00260221
*CONN
*I *3477:A I *D sg13g2_dlygate4sd3_1
*I *3048:Y O *D sg13g2_nor2_1
*CAP
1 *3477:A 0.000200689
2 *3048:Y 0.000509847
3 *323:12 0.000710536
4 *3477:A *3297:RESET_B 0
5 *3477:A *1036:12 0
6 *3477:A *1042:14 0.000339683
7 *323:12 *2718:A 0.000143358
8 *323:12 *3048:A 0.000143374
9 *323:12 *811:26 4.77425e-05
10 *323:12 *886:76 0.00050698
*RES
1 *3048:Y *323:12 45.562 
2 *323:12 *3477:A 42.266 
*END

*D_NET *324 0.00235069
*CONN
*I *3479:A I *D sg13g2_dlygate4sd3_1
*I *3052:Y O *D sg13g2_nor2_1
*CAP
1 *3479:A 6.06137e-05
2 *3052:Y 0.000359212
3 *324:8 0.000419825
4 *3479:A *3045:A2 0
5 *3479:A *3049:A2 0
6 *324:8 *621:10 0.000508536
7 *324:8 *621:25 0.000341621
8 *324:8 *621:44 0.000159424
9 *324:8 *621:57 0.000159511
10 *324:8 *628:8 0.00034195
*RES
1 *3052:Y *324:8 45.2942 
2 *324:8 *3479:A 40.5356 
*END

*D_NET *325 0.000789425
*CONN
*I *3486:A I *D sg13g2_dlygate4sd3_1
*I *3056:Y O *D sg13g2_nor2_1
*CAP
1 *3486:A 0.000233656
2 *3056:Y 7.22715e-05
3 *325:8 0.000305928
4 *3486:A *3056:B 0
5 *3486:A *3301:D 0.000177569
6 *3486:A *365:22 0
7 *3486:A *873:66 0
8 *325:8 *857:62 0
9 *325:8 *857:88 0
10 *325:8 *867:102 0
11 *325:8 *1037:8 0
*RES
1 *3056:Y *325:8 40.5974 
2 *325:8 *3486:A 42.266 
*END

*D_NET *326 0.000701146
*CONN
*I *3481:A I *D sg13g2_dlygate4sd3_1
*I *3060:Y O *D sg13g2_nor2_1
*CAP
1 *3481:A 5.54765e-05
2 *3060:Y 0.00027114
3 *326:8 0.000326617
4 *3481:A *492:16 0
5 *3481:A *1064:10 4.79124e-05
6 *3481:A *1108:14 0
*RES
1 *3060:Y *326:8 42.3278 
2 *326:8 *3481:A 40.5356 
*END

*D_NET *327 0.000612037
*CONN
*I *3492:A I *D sg13g2_dlygate4sd3_1
*I *3064:Y O *D sg13g2_nor2_1
*CAP
1 *3492:A 0.000201115
2 *3064:Y 0.000201115
3 *3492:A *3064:A 0.000209807
4 *3492:A *374:18 0
5 *3492:A *825:32 0
*RES
1 *3064:Y *3492:A 42.2454 
*END

*D_NET *328 0.00114218
*CONN
*I *3499:A I *D sg13g2_dlygate4sd3_1
*I *3068:Y O *D sg13g2_nor2_1
*CAP
1 *3499:A 0
2 *3068:Y 0.000381771
3 *328:10 0.000381771
4 *328:10 *3065:A2 7.34778e-05
5 *328:10 *3065:B1 0
6 *328:10 *3068:A 0
7 *328:10 *3073:A2 7.44765e-05
8 *328:10 *377:6 0
9 *328:10 *378:14 0
10 *328:10 *811:92 0
11 *328:10 *895:38 0.000230685
*RES
1 *3068:Y *328:10 43.6977 
2 *328:10 *3499:A 40 
*END

*D_NET *329 0.00162698
*CONN
*I *3489:A I *D sg13g2_dlygate4sd3_1
*I *3072:Y O *D sg13g2_nor2_1
*CAP
1 *3489:A 0.000180614
2 *3072:Y 0.000121355
3 *329:8 0.000301969
4 *3489:A *3069:B1 0
5 *3489:A *821:74 0
6 *329:8 *2937:A1 0.00044728
7 *329:8 *3069:A1 0.00012816
8 *329:8 *1141:27 0.000447597
*RES
1 *3072:Y *329:8 42.575 
2 *329:8 *3489:A 41.4008 
*END

*D_NET *330 0.00113649
*CONN
*I *3504:A I *D sg13g2_dlygate4sd3_1
*I *3076:Y O *D sg13g2_nor2_1
*CAP
1 *3504:A 0.000148309
2 *3076:Y 0.000396064
3 *330:8 0.000544373
4 *3504:A *493:56 0
5 *3504:A *709:75 4.77425e-05
6 *3504:A *1136:25 0
7 *330:8 *645:8 0
8 *330:8 *709:75 0
*RES
1 *3076:Y *330:8 43.5638 
2 *330:8 *3504:A 41.4008 
*END

*D_NET *331 0.000319564
*CONN
*I *3313:D I *D sg13g2_dfrbpq_1
*I *3081:Y O *D sg13g2_nor2_1
*CAP
1 *3313:D 0.000119598
2 *3081:Y 0.000119598
3 *3313:D *2968:B1 8.03692e-05
4 *3313:D *3081:B 0
*RES
1 *3081:Y *3313:D 41.3802 
*END

*D_NET *332 0.000386016
*CONN
*I *3315:D I *D sg13g2_dfrbpq_1
*I *3085:Y O *D sg13g2_nor2_1
*CAP
1 *3315:D 0.000193008
2 *3085:Y 0.000193008
3 *3315:D *725:29 0
4 *3315:D *1130:27 0
*RES
1 *3085:Y *3315:D 41.6171 
*END

*D_NET *333 0.00107512
*CONN
*I *3317:D I *D sg13g2_dfrbpq_1
*I *3089:Y O *D sg13g2_nor2_1
*CAP
1 *3317:D 0.00012412
2 *3089:Y 0.000144422
3 *333:8 0.000268542
4 *3317:D *646:94 0.000144084
5 *3317:D *646:102 0
6 *3317:D *748:31 0
7 *333:8 *794:41 0
8 *333:8 *796:34 0.000393947
*RES
1 *3089:Y *333:8 41.8334 
2 *333:8 *3317:D 41.1845 
*END

*D_NET *334 0.00113539
*CONN
*I *3319:D I *D sg13g2_dfrbpq_1
*I *3093:Y O *D sg13g2_nor2_1
*CAP
1 *3319:D 0.000210669
2 *3093:Y 0.000325415
3 *334:10 0.000536085
4 *334:10 *3093:A 4.78195e-05
5 *334:10 *3093:B 1.54008e-05
6 *334:10 *335:8 0
*RES
1 *3093:Y *334:10 43.8831 
2 *334:10 *3319:D 42.266 
*END

*D_NET *335 0.000841383
*CONN
*I *3321:D I *D sg13g2_dfrbpq_1
*I *3097:Y O *D sg13g2_nor2_1
*CAP
1 *3321:D 0.000156717
2 *3097:Y 0.000263975
3 *335:8 0.000420691
4 *3321:D *3321:RESET_B 0
5 *335:8 *661:20 0
6 *334:10 *335:8 0
*RES
1 *3097:Y *335:8 43.0694 
2 *335:8 *3321:D 41.6171 
*END

*D_NET *336 0.000896953
*CONN
*I *3323:D I *D sg13g2_dfrbpq_1
*I *3101:Y O *D sg13g2_nor2_1
*CAP
1 *3323:D 0.000146012
2 *3101:Y 0.000302464
3 *336:8 0.000448477
4 *3323:D *744:41 0
5 *3323:D *824:30 0
6 *336:8 *646:84 0
7 *336:8 *646:94 0
8 *336:8 *795:28 0
9 *336:8 *814:75 0
*RES
1 *3101:Y *336:8 42.8222 
2 *336:8 *3323:D 41.1845 
*END

*D_NET *337 0.00148423
*CONN
*I *3325:D I *D sg13g2_dfrbpq_1
*I *3105:Y O *D sg13g2_nor2_1
*CAP
1 *3325:D 0.000498041
2 *3105:Y 0.000498041
3 *3325:D *3105:B 0
4 *3325:D *3325:RESET_B 0
5 *3325:D *758:57 0.000488144
6 *3325:D *794:37 0
7 *3325:D *1129:33 0
*RES
1 *3105:Y *3325:D 45.0058 
*END

*D_NET *338 0.000501581
*CONN
*I *3327:D I *D sg13g2_dfrbpq_1
*I *3109:Y O *D sg13g2_nor2_1
*CAP
1 *3327:D 0.000162986
2 *3109:Y 0.000162986
3 *3327:D *3106:A1 0
4 *3327:D *3109:A 0.000175608
*RES
1 *3109:Y *3327:D 41.7819 
*END

*D_NET *339 0.00126577
*CONN
*I *3329:D I *D sg13g2_dfrbpq_1
*I *3114:Y O *D sg13g2_nor2_1
*CAP
1 *3329:D 0
2 *3114:Y 0.000390902
3 *339:10 0.000390902
4 *339:10 *3329:CLK 0.000241983
5 *339:10 *580:22 0.000241983
*RES
1 *3114:Y *339:10 44.6865 
2 *339:10 *3329:D 40 
*END

*D_NET *340 0.000643584
*CONN
*I *3331:D I *D sg13g2_dfrbpq_1
*I *3118:Y O *D sg13g2_nor2_1
*CAP
1 *3331:D 0.000201171
2 *3118:Y 0.000201171
3 *3331:D *3117:B1 0.000241242
4 *3331:D *3118:B 0
*RES
1 *3118:Y *3331:D 41.9673 
*END

*D_NET *341 0.000219873
*CONN
*I *3333:D I *D sg13g2_dfrbpq_1
*I *3122:Y O *D sg13g2_nor2_1
*CAP
1 *3333:D 0.000102209
2 *3122:Y 0.000102209
3 *3333:D *3122:B 1.54556e-05
4 *3333:D *3333:RESET_B 0
*RES
1 *3122:Y *3333:D 40.7634 
*END

*D_NET *342 0.00140596
*CONN
*I *3335:D I *D sg13g2_dfrbpq_1
*I *3126:Y O *D sg13g2_nor2_1
*CAP
1 *3335:D 9.83462e-05
2 *3126:Y 0.000193347
3 *342:8 0.000291693
4 *3335:D *3123:B1 0.000176559
5 *3335:D *866:52 0.000176559
6 *342:8 *2992:B 0.000287757
7 *342:8 *880:85 0.000181694
*RES
1 *3126:Y *342:8 42.3278 
2 *342:8 *3335:D 41.1845 
*END

*D_NET *343 0.000606945
*CONN
*I *3337:D I *D sg13g2_dfrbpq_1
*I *3130:Y O *D sg13g2_nor2_1
*CAP
1 *3337:D 0.000303472
2 *3130:Y 0.000303472
*RES
1 *3130:Y *3337:D 43.6153 
*END

*D_NET *344 0.000407673
*CONN
*I *3339:D I *D sg13g2_dfrbpq_1
*I *3134:Y O *D sg13g2_nor2_1
*CAP
1 *3339:D 0.000152889
2 *3134:Y 0.000152889
3 *3339:D *3001:A2 8.00842e-05
4 *3339:D *3134:A 2.18115e-05
5 *3339:D *3134:B 0
*RES
1 *3134:Y *3339:D 41.8025 
*END

*D_NET *345 0.00201596
*CONN
*I *3341:D I *D sg13g2_dfrbpq_1
*I *3138:Y O *D sg13g2_nor2_1
*CAP
1 *3341:D 0
2 *3138:Y 0.00049379
3 *345:14 0.00049379
4 *345:14 *3005:A2 0
5 *345:14 *3138:A 0.000143936
6 *345:14 *3138:B 4.79124e-05
7 *345:14 *3341:CLK 0.000345758
8 *345:14 *352:16 0
9 *345:14 *722:10 0
10 *345:14 *808:16 0.000145018
11 *345:14 *866:18 0.000345758
12 *345:14 *1120:22 0
*RES
1 *3138:Y *345:14 45.6032 
2 *345:14 *3341:D 40 
*END

*D_NET *346 0.00054355
*CONN
*I *3343:D I *D sg13g2_dfrbpq_1
*I *3142:Y O *D sg13g2_nor2_1
*CAP
1 *3343:D 9.45069e-05
2 *3142:Y 9.45069e-05
3 *3343:D *3142:A 0.000177268
4 *3343:D *3142:B 0.000177268
*RES
1 *3142:Y *3343:D 41.1845 
*END

*D_NET *347 0.000764934
*CONN
*I *3473:A I *D sg13g2_dlygate4sd3_1
*I *3144:Y O *D sg13g2_nand3_1
*CAP
1 *3473:A 0.000116802
2 *3144:Y 7.22837e-05
3 *347:8 0.000189086
4 *3473:A *3144:B 0
5 *3473:A *3144:C 0.000177164
6 *3473:A *1124:14 0.000209599
7 *347:8 *2878:B 0
8 *347:8 *802:8 0
*RES
1 *3144:Y *347:8 40.5974 
2 *347:8 *3473:A 41.4008 
*END

*D_NET *348 0.00199154
*CONN
*I *3008:A I *D sg13g2_nand4_1
*I *3140:A I *D sg13g2_nand4_1
*I *2695:Y O *D sg13g2_inv_1
*CAP
1 *3008:A 0
2 *3140:A 4.85287e-05
3 *2695:Y 0.000639647
4 *348:10 0.000688175
5 *3140:A *3140:C 0.000181145
6 *3140:A *863:44 0.000234281
7 *3140:A *885:43 7.48178e-05
8 *348:10 *363:16 0
9 *348:10 *863:44 7.34081e-05
10 *348:10 *883:85 0
11 *348:10 *885:43 5.15366e-05
12 *348:10 *1120:46 0
*RES
1 *2695:Y *348:10 46.4787 
2 *348:10 *3140:A 41.0918 
3 *348:10 *3008:A 40 
*END

*D_NET *349 0.00209074
*CONN
*I *3004:A I *D sg13g2_nand4_1
*I *3136:A I *D sg13g2_nand4_1
*I *2696:Y O *D sg13g2_inv_1
*CAP
1 *3004:A 0.000431559
2 *3136:A 0
3 *2696:Y 4.21303e-05
4 *349:12 0.000544411
5 *349:8 0.000154981
6 *3004:A *2875:B 0
7 *3004:A *3004:B 0.000112634
8 *3004:A *3135:A2 0
9 *3004:A *3136:D 0
10 *3004:A *691:12 8.01612e-05
11 *3004:A *805:24 1.54008e-05
12 *3004:A *863:22 0.00014391
13 *349:8 *1097:14 0.000235141
14 *349:8 *1112:18 0.000236057
15 *349:12 *357:8 7.89542e-05
16 *349:12 *863:22 1.54008e-05
*RES
1 *2696:Y *349:8 41.0918 
2 *349:8 *349:12 20.9682 
3 *349:12 *3136:A 20 
4 *349:12 *3004:A 23.982 
*END

*D_NET *350 0.00234371
*CONN
*I *3132:A I *D sg13g2_nand4_1
*I *3000:A I *D sg13g2_nand4_1
*I *2697:Y O *D sg13g2_inv_1
*CAP
1 *3132:A 0
2 *3000:A 0.000129963
3 *2697:Y 0.000153037
4 *350:10 0.000283
5 *3000:A *885:10 0.000714591
6 *3000:A *1023:18 0.000720256
7 *350:10 *352:16 0
8 *350:10 *885:10 0.000182109
9 *350:10 *1023:18 0.000160758
*RES
1 *2697:Y *350:10 41.8128 
2 *350:10 *3000:A 43.3166 
3 *350:10 *3132:A 40 
*END

*D_NET *351 0.00699487
*CONN
*I *2996:A I *D sg13g2_nand4_1
*I *3128:A I *D sg13g2_nand4_1
*I *2698:Y O *D sg13g2_inv_1
*CAP
1 *2996:A 0
2 *3128:A 0.000196524
3 *2698:Y 0.000376473
4 *351:16 0.000196524
5 *351:14 0.00187691
6 *351:10 0.00225338
7 *3128:A *3128:C 0
8 *3128:A *671:117 0
9 *3128:A *880:100 0
10 *351:10 *2730:A 0.000395908
11 *351:10 *3447:A 0.000144632
12 *351:10 *355:12 0.000183395
13 *351:10 *803:38 0
14 *351:10 *883:8 4.77425e-05
15 *351:10 *885:153 0
16 *351:10 *1012:18 0
17 *351:10 *1023:12 0.000144009
18 *351:14 *353:14 0.000375066
19 *351:14 *717:16 0
20 *351:14 *803:53 0.000804309
21 *351:14 *856:27 0
22 *351:14 *856:50 0
23 *351:14 *856:56 0
*RES
1 *2698:Y *351:10 44.1303 
2 *351:10 *351:14 42.5982 
3 *351:14 *351:16 20 
4 *351:16 *3128:A 41.5862 
5 *351:16 *2996:A 40 
*END

*D_NET *352 0.00720918
*CONN
*I *2992:A I *D sg13g2_nand4_1
*I *3124:A I *D sg13g2_nand4_1
*I *2699:Y O *D sg13g2_inv_1
*CAP
1 *2992:A 0.000326583
2 *3124:A 0
3 *2699:Y 0.00019248
4 *352:16 0.00234698
5 *352:8 0.00221287
6 *2992:A *3124:D 0
7 *2992:A *682:10 0
8 *2992:A *866:35 0
9 *2992:A *883:61 0
10 *352:8 *1097:14 0.000609685
11 *352:8 *1114:14 0
12 *352:16 *3124:D 0
13 *352:16 *3132:D 0
14 *352:16 *3138:A 0
15 *352:16 *3277:RESET_B 0.000339306
16 *352:16 *3339:CLK 0
17 *352:16 *3388:A 0
18 *352:16 *698:6 0
19 *352:16 *698:12 0.00118127
20 *352:16 *722:10 0
21 *352:16 *722:35 0
22 *352:16 *866:18 0
23 *352:16 *883:61 0
24 *345:14 *352:16 0
25 *350:10 *352:16 0
*RES
1 *2699:Y *352:8 42.8222 
2 *352:8 *352:16 40.334 
3 *352:16 *3124:A 20 
4 *352:16 *2992:A 22.8584 
*END

*D_NET *353 0.0023387
*CONN
*I *2988:A I *D sg13g2_nand4_1
*I *3120:A I *D sg13g2_nand4_1
*I *2700:Y O *D sg13g2_inv_1
*CAP
1 *2988:A 4.056e-05
2 *3120:A 0.000127132
3 *2700:Y 0.000316492
4 *353:14 0.000525905
5 *353:8 0.000674705
6 *3120:A *2989:A2 4.74248e-05
7 *3120:A *884:60 0.000231417
8 *3120:A *890:26 0
9 *353:8 *890:36 0
10 *353:8 *1012:18 0
11 *353:8 *1023:18 0
12 *351:14 *353:14 0.000375066
*RES
1 *2700:Y *353:8 43.3166 
2 *353:8 *353:14 44.2127 
3 *353:14 *3120:A 41.4111 
4 *353:14 *2988:A 40.3193 
*END

*D_NET *354 0.00906097
*CONN
*I *3116:A I *D sg13g2_nand4_1
*I *2984:A I *D sg13g2_nand4_1
*I *2701:Y O *D sg13g2_inv_1
*CAP
1 *3116:A 0
2 *2984:A 0
3 *2701:Y 0.000645874
4 *354:32 0.000501053
5 *354:24 0.00228451
6 *354:12 0.00242933
7 *354:12 *3000:D 0
8 *354:12 *3001:A2 0
9 *354:12 *359:14 4.79124e-05
10 *354:12 *803:30 0.000394931
11 *354:12 *873:31 0.00049993
12 *354:12 *1079:28 0
13 *354:12 *1097:14 0.000112328
14 *354:24 *3001:A2 0
15 *354:24 *3002:B 0
16 *354:24 *3134:A 0
17 *354:24 *3134:B 8.01776e-05
18 *354:24 *3275:RESET_B 4.77425e-05
19 *354:24 *3445:A 0
20 *354:24 *360:34 0
21 *354:24 *571:20 0
22 *354:24 *671:102 0
23 *354:24 *717:12 0
24 *354:24 *862:108 0.00024211
25 *354:24 *866:96 8.0216e-05
26 *354:24 *889:70 0.00131028
27 *354:24 *1012:18 0.000176501
28 *354:32 *571:20 0
29 *354:32 *571:37 0
30 *354:32 *576:8 1.54285e-05
31 *354:32 *671:102 0
32 *354:32 *803:98 0
33 *354:32 *862:108 0
34 *354:32 *865:12 0.000144899
35 *354:32 *865:72 4.77425e-05
*RES
1 *2701:Y *354:12 46.9216 
2 *354:12 *354:24 38.3134 
3 *354:24 *354:32 44.4702 
4 *354:32 *2984:A 20 
5 *354:24 *3116:A 20 
*END

*D_NET *355 0.0076748
*CONN
*I *2980:A I *D sg13g2_nand4_1
*I *3112:A I *D sg13g2_nand4_1
*I *2702:Y O *D sg13g2_inv_1
*CAP
1 *2980:A 0.000424439
2 *3112:A 0
3 *2702:Y 0.000352785
4 *355:24 0.000939909
5 *355:20 0.00112261
6 *355:12 0.000959925
7 *2980:A *573:12 0
8 *2980:A *803:81 0.000500971
9 *2980:A *862:82 0
10 *2980:A *862:93 0.000144728
11 *355:12 *2731:A 0
12 *355:12 *3427:A 1.54008e-05
13 *355:12 *883:8 4.78359e-05
14 *355:12 *889:16 0.000288317
15 *355:12 *1012:18 0
16 *355:20 *3427:A 0
17 *355:20 *3438:A 0.000207986
18 *355:20 *3449:A 4.75212e-05
19 *355:20 *671:14 0
20 *355:20 *678:8 0
21 *355:20 *862:72 0.000467355
22 *355:20 *881:51 4.77425e-05
23 *355:20 *881:68 0.000499719
24 *355:24 *2989:A2 0
25 *355:24 *3333:CLK 0.00085801
26 *355:24 *803:68 0.000566151
27 *355:24 *862:82 0
28 *351:10 *355:12 0.000183395
*RES
1 *2702:Y *355:12 43.7389 
2 *355:12 *355:20 46.2006 
3 *355:20 *355:24 25.9431 
4 *355:24 *3112:A 20 
5 *355:24 *2980:A 24.3466 
*END

*D_NET *356 0.0153534
*CONN
*I *3107:A I *D sg13g2_nand4_1
*I *2975:A I *D sg13g2_nand4_1
*I *2703:Y O *D sg13g2_inv_1
*CAP
1 *3107:A 2.71439e-05
2 *2975:A 0
3 *2703:Y 0.000354657
4 *356:46 0.000525382
5 *356:38 0.00078109
6 *356:30 0.00058935
7 *356:22 0.00308686
8 *356:18 0.00360431
9 *356:10 0.0012329
10 *3107:A *3108:A2 1.54008e-05
11 *3107:A *872:44 1.54008e-05
12 *356:10 *2919:B1 0.00038223
13 *356:10 *809:20 0
14 *356:10 *861:34 0.000125875
15 *356:10 *873:51 0.000330693
16 *356:10 *894:62 7.32394e-05
17 *356:10 *1075:26 0.0001122
18 *356:18 *891:81 0.000420686
19 *356:22 *2933:B1 0
20 *356:22 *2937:A1 0
21 *356:22 *3217:RESET_B 0
22 *356:22 *3223:RESET_B 0
23 *356:22 *3231:RESET_B 0
24 *356:22 *521:94 0
25 *356:22 *530:10 0.000336544
26 *356:22 *809:46 0
27 *356:22 *822:54 0
28 *356:22 *861:59 0
29 *356:22 *861:69 0
30 *356:22 *891:71 0.00101157
31 *356:22 *891:109 0.00020816
32 *356:30 *361:12 4.99851e-05
33 *356:30 *361:51 0.000183722
34 *356:30 *739:31 0.000520728
35 *356:38 *744:33 0
36 *356:38 *872:44 0.000208348
37 *356:46 *569:10 1.54008e-05
38 *356:46 *651:8 0.000127262
39 *356:46 *790:38 0
40 *356:46 *794:41 0
41 *356:46 *864:71 1.54008e-05
42 *356:46 *878:60 0.000180797
43 *356:46 *1121:52 0.000818047
44 *3217:D *356:22 0
45 *3223:D *356:22 0
46 *3245:D *356:22 0
47 *3:38 *356:22 0
*RES
1 *2703:Y *356:10 43.8213 
2 *356:10 *356:18 48.4872 
3 *356:18 *356:22 47.7894 
4 *356:22 *356:30 43.6977 
5 *356:30 *356:38 41.9982 
6 *356:38 *356:46 45.6135 
7 *356:46 *2975:A 20 
8 *356:38 *3107:A 20.3193 
*END

*D_NET *357 0.0129434
*CONN
*I *3103:A I *D sg13g2_nand4_1
*I *2971:A I *D sg13g2_nand4_1
*I *2704:Y O *D sg13g2_inv_1
*CAP
1 *3103:A 8.98892e-05
2 *2971:A 0
3 *2704:Y 6.07793e-05
4 *357:30 8.98892e-05
5 *357:28 0.00184312
6 *357:22 0.00304984
7 *357:16 0.00194829
8 *357:8 0.000802349
9 *3103:A *2971:B 7.93426e-05
10 *3103:A *758:35 0.000144025
11 *3103:A *879:30 0
12 *357:16 *3388:A 0
13 *357:16 *873:31 0.000211768
14 *357:16 *890:91 7.61961e-05
15 *357:22 *3139:A2 0.000102491
16 *357:22 *571:125 0.00127718
17 *357:22 *805:37 0.000566118
18 *357:22 *820:46 0
19 *357:22 *820:61 0
20 *357:28 *3249:RESET_B 0
21 *357:28 *3261:CLK 0
22 *357:28 *3335:CLK 0.000921141
23 *357:28 *571:133 8.00842e-05
24 *357:28 *697:27 0
25 *357:28 *707:8 0
26 *357:28 *707:16 0.000208878
27 *357:28 *724:29 0
28 *357:28 *778:29 0.000181192
29 *357:28 *808:29 0
30 *357:28 *820:61 0
31 *357:28 *820:72 0
32 *357:28 *866:64 0.000889587
33 *314:10 *357:28 0.000242252
34 *349:12 *357:8 7.89542e-05
*RES
1 *2704:Y *357:8 40.5356 
2 *357:8 *357:16 48.0855 
3 *357:16 *357:22 32.9986 
4 *357:22 *357:28 39.7657 
5 *357:28 *357:30 20 
6 *357:30 *2971:A 20 
7 *357:30 *3103:A 20.9682 
*END

*D_NET *358 0.0155948
*CONN
*I *3099:A I *D sg13g2_nand4_1
*I *2967:A I *D sg13g2_nand4_1
*I *2705:Y O *D sg13g2_inv_1
*CAP
1 *3099:A 0
2 *2967:A 0
3 *2705:Y 0.000805975
4 *358:27 0.00058576
5 *358:14 0.00425167
6 *358:12 0.00366591
7 *358:10 0.000805975
8 *358:10 *533:10 0
9 *358:10 *821:34 0.000657744
10 *358:10 *1023:18 0
11 *358:10 *1060:18 0.000143136
12 *358:10 *1075:14 0.000143136
13 *358:10 *1079:28 0
14 *358:14 *2967:C 0
15 *358:14 *3235:RESET_B 0
16 *358:14 *3235:CLK 0.000272631
17 *358:14 *3237:RESET_B 0.000273929
18 *358:14 *3241:RESET_B 0
19 *358:14 *3243:RESET_B 0
20 *358:14 *3247:RESET_B 0
21 *358:14 *3313:CLK 0
22 *358:14 *3593:A 0
23 *358:14 *3595:A 0
24 *358:14 *522:10 0
25 *358:14 *563:10 8.01447e-05
26 *358:14 *725:25 0
27 *358:14 *735:8 0
28 *358:14 *816:51 0
29 *358:14 *864:34 0.000986206
30 *358:14 *864:40 0.000208857
31 *358:14 *878:32 0
32 *358:14 *1114:8 0.000144052
33 *358:14 *1121:14 0
34 *358:27 *2967:C 0
35 *358:27 *3099:B 7.48105e-05
36 *358:27 *361:18 0
37 *358:27 *725:25 0
38 *358:27 *725:29 0.000501752
39 *358:27 *778:29 0.000708735
40 *358:27 *861:71 0.000209856
41 *358:27 *861:84 0.000356394
42 *3:30 *358:14 0
43 *294:8 *358:10 0.000718109
*RES
1 *2705:Y *358:10 49.476 
2 *358:10 *358:12 20 
3 *358:12 *358:14 35.1436 
4 *358:14 *2967:A 20 
5 *358:14 *358:27 47.313 
6 *358:27 *3099:A 20 
*END

*D_NET *359 0.0130807
*CONN
*I *3095:A I *D sg13g2_nand4_1
*I *2963:A I *D sg13g2_nand4_1
*I *2706:Y O *D sg13g2_inv_1
*CAP
1 *3095:A 0
2 *2963:A 0
3 *2706:Y 0.000605411
4 *359:47 0.000484393
5 *359:32 0.00235958
6 *359:28 0.00383419
7 *359:14 0.00256442
8 *359:14 *3339:RESET_B 8.0216e-05
9 *359:14 *687:10 0
10 *359:28 *2999:A2 4.77425e-05
11 *359:28 *3001:B1 0
12 *359:28 *3002:B 0
13 *359:28 *3339:RESET_B 0.00046793
14 *359:28 *360:34 0
15 *359:28 *757:18 0.000112536
16 *359:28 *757:33 0.0010279
17 *359:28 *803:20 0
18 *359:28 *803:30 0
19 *359:28 *817:17 0
20 *359:32 *3331:RESET_B 0.000273699
21 *359:32 *360:34 0
22 *359:32 *706:8 0
23 *359:32 *757:33 0
24 *359:32 *855:67 0
25 *359:32 *879:14 0.000533144
26 *359:32 *1137:50 0
27 *359:47 *2959:D 0
28 *359:47 *2960:A2 0.000306156
29 *359:47 *2963:B 4.77425e-05
30 *359:47 *3095:D 0
31 *359:47 *360:49 0
32 *359:47 *757:33 0
33 *359:47 *855:73 0.000287757
34 *359:47 *879:42 0
35 *312:10 *359:28 0
36 *354:12 *359:14 4.79124e-05
*RES
1 *2706:Y *359:14 45.2633 
2 *359:14 *359:28 40.085 
3 *359:28 *359:32 18.128 
4 *359:32 *2963:A 20 
5 *359:32 *359:47 45.0676 
6 *359:47 *3095:A 20 
*END

*D_NET *360 0.0134455
*CONN
*I *3091:A I *D sg13g2_nand4_1
*I *2959:A I *D sg13g2_nand4_1
*I *2707:Y O *D sg13g2_inv_1
*CAP
1 *3091:A 0
2 *2959:A 2.77263e-05
3 *2707:Y 0
4 *360:49 0.000487237
5 *360:34 0.00354265
6 *360:16 0.00307844
7 *360:10 0.00102321
8 *360:6 0.000972454
9 *360:10 *856:126 0.000407998
10 *360:16 *571:97 0.000126441
11 *360:34 *3116:D 0.000219036
12 *360:34 *3118:A 8.00842e-05
13 *360:34 *3118:B 0.000338607
14 *360:34 *3331:RESET_B 1.54556e-05
15 *360:34 *880:85 0.000112289
16 *360:34 *884:110 0
17 *360:34 *885:78 0
18 *360:34 *889:70 0
19 *360:34 *892:6 0.000273929
20 *360:34 *892:8 0
21 *360:34 *898:12 0
22 *360:34 *1137:50 0.00137482
23 *360:49 *2959:D 0
24 *360:49 *2960:A2 0.000306156
25 *360:49 *752:24 0.000389923
26 *360:49 *865:84 0.000335865
27 *360:49 *879:40 0
28 *360:49 *1137:50 0.000188315
29 *312:10 *360:16 0
30 *312:10 *360:34 0.000144861
31 *354:24 *360:34 0
32 *359:28 *360:34 0
33 *359:32 *360:34 0
34 *359:47 *360:49 0
*RES
1 *2707:Y *360:6 40 
2 *360:6 *360:10 31.9995 
3 *360:10 *360:16 40.5974 
4 *360:16 *360:34 27.1993 
5 *360:34 *2959:A 20.3502 
6 *360:34 *360:49 45.7062 
7 *360:49 *3091:A 20 
*END

*D_NET *361 0.0164984
*CONN
*I *3087:A I *D sg13g2_nand4_1
*I *2955:A I *D sg13g2_nand4_1
*I *2708:Y O *D sg13g2_inv_1
*CAP
1 *3087:A 0
2 *2955:A 0.00045994
3 *2708:Y 6.821e-05
4 *361:51 0.000198953
5 *361:18 0.00126113
6 *361:12 0.00492273
7 *361:10 0.00392259
8 *361:8 6.821e-05
9 *2955:A *732:25 0.000403192
10 *2955:A *806:46 8.01938e-05
11 *2955:A *819:66 0
12 *2955:A *820:97 1.54556e-05
13 *2955:A *820:110 0.00040317
14 *361:8 *1068:14 0.000289734
15 *361:8 *1079:28 0.000345253
16 *361:12 *742:23 0.00268553
17 *361:18 *3099:B 0
18 *361:18 *654:10 0.000177683
19 *361:18 *732:8 0
20 *361:18 *778:29 0
21 *361:18 *859:21 0
22 *361:18 *1121:39 0.00018128
23 *361:51 *654:10 7.89557e-05
24 *361:51 *742:23 0.000167746
25 *361:51 *778:29 0.000227897
26 *361:51 *872:27 7.89557e-05
27 *361:51 *873:86 0.000227897
28 *356:30 *361:12 4.99851e-05
29 *356:30 *361:51 0.000183722
30 *358:27 *361:18 0
*RES
1 *2708:Y *361:8 41.5862 
2 *361:8 *361:10 20 
3 *361:10 *361:12 39.2533 
4 *361:12 *361:18 48.0134 
5 *361:18 *2955:A 25.3869 
6 *361:12 *361:51 42.8119 
7 *361:51 *3087:A 20 
*END

*D_NET *362 0.0177391
*CONN
*I *3083:A I *D sg13g2_nand4_1
*I *2951:A I *D sg13g2_nand4_1
*I *2709:Y O *D sg13g2_inv_1
*CAP
1 *3083:A 0.000439318
2 *2951:A 0.000150244
3 *2709:Y 0.000303795
4 *362:32 0.00217474
5 *362:22 0.00174885
6 *362:16 0.00255385
7 *362:8 0.00269397
8 *2951:A *2951:C 0.000144441
9 *2951:A *2952:A2 0
10 *2951:A *2956:A2 0.000177219
11 *2951:A *819:66 0
12 *3083:A *554:8 0
13 *3083:A *725:29 0
14 *3083:A *790:38 0
15 *3083:A *864:78 0.000209125
16 *3083:A *885:119 0.000531717
17 *362:8 *873:39 0.000778858
18 *362:16 *2948:A2 0
19 *362:16 *3213:CLK 0
20 *362:16 *3279:CLK 0.000727628
21 *362:16 *3365:A 0
22 *362:16 *705:15 0
23 *362:16 *705:17 0
24 *362:16 *723:31 0
25 *362:16 *856:108 0.00158057
26 *362:16 *885:47 0
27 *362:16 *1120:22 0.000595997
28 *362:16 *1120:29 0.00105181
29 *362:16 *1120:46 4.77699e-05
30 *362:22 *3079:A 0
31 *362:22 *363:20 0
32 *362:22 *707:49 0.000178206
33 *362:22 *892:51 7.51285e-05
34 *362:22 *898:46 0.00039075
35 *362:32 *2947:C 0
36 *362:32 *2951:C 0
37 *362:32 *3259:RESET_B 0.000339459
38 *362:32 *697:63 0
39 *362:32 *697:97 0
40 *362:32 *761:10 0
41 *362:32 *761:34 0
42 *362:32 *819:37 0.000499381
43 *362:32 *885:119 0.000346273
*RES
1 *2709:Y *362:8 43.5638 
2 *362:8 *362:16 45.6762 
3 *362:16 *362:22 42.3278 
4 *362:22 *362:32 35.553 
5 *362:32 *2951:A 41.6171 
6 *362:32 *3083:A 44.6865 
*END

*D_NET *363 0.00734985
*CONN
*I *3079:A I *D sg13g2_nand4_1
*I *2947:A I *D sg13g2_nand4_1
*I *2710:Y O *D sg13g2_inv_1
*CAP
1 *3079:A 0.000145066
2 *2947:A 0
3 *2710:Y 0.00321104
4 *363:20 0.000258804
5 *363:16 0.00332478
6 *3079:A *864:10 0
7 *3079:A *864:19 0.000394739
8 *3079:A *898:46 0
9 *363:16 *2948:A2 0
10 *363:16 *3213:CLK 0
11 *363:16 *3279:CLK 0
12 *363:16 *3356:A 0
13 *363:16 *697:63 0
14 *363:16 *697:65 0
15 *363:16 *723:16 0
16 *363:16 *723:31 1.54205e-05
17 *363:16 *1117:14 0
18 *363:16 *1118:12 0
19 *363:20 *548:8 0
20 *363:20 *707:49 0
21 *3233:D *363:16 0
22 *348:10 *363:16 0
23 *362:22 *3079:A 0
24 *362:22 *363:20 0
*RES
1 *2710:Y *363:16 47.9027 
2 *363:16 *363:20 21.0918 
3 *363:20 *2947:A 40 
4 *363:20 *3079:A 42.0806 
*END

*D_NET *364 0.00448364
*CONN
*I *2942:A I *D sg13g2_nand4_1
*I *3074:A I *D sg13g2_nand4_1
*I *2711:Y O *D sg13g2_inv_1
*CAP
1 *2942:A 0.000154172
2 *3074:A 0
3 *2711:Y 0.000815708
4 *364:12 0.000166409
5 *364:6 0.00113629
6 *2942:A *2942:B 0
7 *2942:A *2942:C 0
8 *2942:A *378:14 0
9 *364:6 *2942:C 0
10 *364:6 *366:14 0.0010832
11 *364:6 *378:14 0
12 *364:12 *3070:D 0.00039332
13 *364:12 *3074:D 0.00012816
14 *364:12 *638:8 0
15 *364:12 *873:99 0.000606382
*RES
1 *2711:Y *364:6 27.8898 
2 *364:6 *364:12 43.0694 
3 *364:12 *3074:A 20 
4 *364:6 *2942:A 21.3184 
*END

*D_NET *365 0.00459893
*CONN
*I *2938:A I *D sg13g2_nand4_1
*I *3070:A I *D sg13g2_nand4_1
*I *2712:Y O *D sg13g2_inv_1
*CAP
1 *2938:A 0.000199703
2 *3070:A 0
3 *2712:Y 0.000592737
4 *365:22 0.00103553
5 *365:14 0.000920199
6 *365:8 0.000677104
7 *2938:A *2938:B 0
8 *2938:A *2938:C 0
9 *2938:A *3070:B 0.000101839
10 *2938:A *3071:A2 0
11 *2938:A *821:74 0
12 *365:8 *2732:A 0
13 *365:8 *2930:A 0
14 *365:8 *492:20 0
15 *365:8 *535:12 0.000823254
16 *365:22 *2934:A 0
17 *365:22 *3052:B 0.000176449
18 *365:22 *3070:B 6.16798e-05
19 *365:22 *3070:D 0
20 *365:22 *3301:RESET_B 1.04325e-05
21 *365:22 *3301:D 0
22 *365:22 *621:10 0
23 *365:22 *629:14 0
24 *365:22 *821:74 0
25 *365:22 *867:115 0
26 *365:22 *894:50 0
27 *3486:A *365:22 0
*RES
1 *2712:Y *365:8 45.7886 
2 *365:8 *365:14 40.9682 
3 *365:14 *365:22 27.5437 
4 *365:22 *3070:A 20 
5 *365:22 *2938:A 22.3072 
*END

*D_NET *366 0.00808384
*CONN
*I *3066:A I *D sg13g2_nand4_1
*I *2934:A I *D sg13g2_nand4_1
*I *2713:Y O *D sg13g2_inv_1
*CAP
1 *3066:A 0.000135975
2 *2934:A 0.000521767
3 *2713:Y 0.000127099
4 *366:14 0.001464
5 *366:8 0.000933356
6 *2934:A *2938:C 0
7 *2934:A *2942:C 0.000872268
8 *2934:A *3070:C 0.00151289
9 *2934:A *538:8 0
10 *2934:A *641:8 0
11 *2934:A *857:88 0.000662216
12 *2934:A *867:115 8.03692e-05
13 *2934:A *873:99 0
14 *3066:A *3070:C 0.000234224
15 *3066:A *378:14 0.000112426
16 *3066:A *868:50 8.00842e-05
17 *3066:A *868:61 3.23417e-05
18 *366:8 *708:69 0.000183828
19 *366:14 *2711:A 0
20 *366:14 *2726:A 4.7803e-05
21 *366:14 *378:8 0
22 *366:14 *378:14 0
23 *366:14 *379:22 0
24 *364:6 *366:14 0.0010832
25 *365:22 *2934:A 0
*RES
1 *2713:Y *366:8 41.339 
2 *366:8 *366:14 47.8898 
3 *366:14 *2934:A 49.2597 
4 *366:14 *3066:A 41.8437 
*END

*D_NET *367 0.00240183
*CONN
*I *3062:A I *D sg13g2_nand4_1
*I *2930:A I *D sg13g2_nand4_1
*I *2714:Y O *D sg13g2_inv_1
*CAP
1 *3062:A 0.000425046
2 *2930:A 8.1827e-05
3 *2714:Y 0
4 *367:6 0.000506873
5 *2930:A *868:46 0.000237902
6 *3062:A *868:46 0.000829939
7 *3062:A *868:94 0.000320247
8 *3062:A *1104:10 0
9 *365:8 *2930:A 0
*RES
1 *2714:Y *367:6 40 
2 *367:6 *2930:A 41.0918 
3 *367:6 *3062:A 45.5414 
*END

*D_NET *368 0.0091723
*CONN
*I *3058:A I *D sg13g2_nand4_1
*I *2926:A I *D sg13g2_nand4_1
*I *2715:Y O *D sg13g2_inv_1
*CAP
1 *3058:A 8.94386e-05
2 *2926:A 0
3 *2715:Y 0.000595015
4 *368:31 0.000708658
5 *368:16 0.000525757
6 *368:6 0.00173999
7 *3058:A *811:8 0
8 *368:6 *2715:A 0.000433712
9 *368:6 *2718:A 0
10 *368:6 *2930:C 0
11 *368:6 *3574:A 0
12 *368:6 *3576:A 0
13 *368:6 *624:10 0.000207986
14 *368:6 *626:10 0
15 *368:6 *809:10 4.75166e-05
16 *368:6 *809:108 0.000400677
17 *368:16 *2718:A 0
18 *368:16 *2914:A 0
19 *368:16 *2926:B 4.76068e-05
20 *368:16 *3046:B 0.000288619
21 *368:16 *3047:A1 0
22 *368:16 *3574:A 0
23 *368:16 *371:10 0
24 *368:16 *809:10 7.85947e-05
25 *368:16 *821:34 0.000716781
26 *368:16 *1027:14 7.93167e-05
27 *368:16 *1031:8 0
28 *368:31 *3058:D 0
29 *368:31 *3059:A2 4.75278e-05
30 *368:31 *811:8 0
31 *368:31 *811:16 0.00168721
32 *368:31 *876:10 0.00128933
33 *368:31 *876:14 7.62389e-05
34 *368:31 *886:76 0.000112332
*RES
1 *2715:Y *368:6 26.1594 
2 *368:6 *368:16 46.1182 
3 *368:16 *2926:A 20 
4 *368:6 *368:31 49.8571 
5 *368:31 *3058:A 20.7519 
*END

*D_NET *369 0.003282
*CONN
*I *3054:A I *D sg13g2_nand4_1
*I *2922:A I *D sg13g2_nand4_1
*I *2716:Y O *D sg13g2_inv_1
*CAP
1 *3054:A 0
2 *2922:A 0.000603199
3 *2716:Y 0.000321394
4 *369:10 0.000924594
5 *2922:A *2912:A 0
6 *2922:A *521:10 0
7 *2922:A *857:47 0
8 *2922:A *857:62 0
9 *2922:A *867:96 7.62389e-05
10 *2922:A *1121:10 0.000725026
11 *369:10 *2716:A 4.77425e-05
12 *369:10 *3052:B 0
13 *369:10 *625:12 0.000130162
14 *369:10 *867:96 2.24232e-05
15 *369:10 *894:50 0
16 *369:10 *1121:10 0.000431223
*RES
1 *2716:Y *369:10 43.6977 
2 *369:10 *2922:A 46.798 
3 *369:10 *3054:A 40 
*END

*D_NET *370 0.00295634
*CONN
*I *3050:A I *D sg13g2_nand4_1
*I *2918:A I *D sg13g2_nand4_1
*I *2717:Y O *D sg13g2_inv_1
*CAP
1 *3050:A 0
2 *2918:A 0
3 *2717:Y 0.00035698
4 *370:24 0.000480502
5 *370:10 0.000837482
6 *370:10 *2717:A 0.000143932
7 *370:10 *3044:A 0
8 *370:10 *3573:A 0
9 *370:10 *626:10 4.74248e-05
10 *370:10 *886:35 0
11 *370:24 *2926:C 0.000234224
12 *370:24 *3573:A 0.000111386
13 *370:24 *526:12 1.54008e-05
14 *370:24 *626:10 1.54008e-05
15 *370:24 *867:8 4.77425e-05
16 *370:24 *867:16 4.77425e-05
17 *370:24 *867:68 8.01609e-05
18 *370:24 *876:16 1.54008e-05
19 *370:24 *876:22 0.000161447
20 *370:24 *876:26 0.00018387
21 *370:24 *876:68 9.71568e-05
22 *370:24 *1027:14 8.00842e-05
*RES
1 *2717:Y *370:10 23.3681 
2 *370:10 *370:24 45.5208 
3 *370:24 *2918:A 20 
4 *370:10 *3050:A 20 
*END

*D_NET *371 0.00306121
*CONN
*I *3046:A I *D sg13g2_nand4_1
*I *2914:A I *D sg13g2_nand4_1
*I *2718:Y O *D sg13g2_inv_1
*CAP
1 *3046:A 0
2 *2914:A 0.000378777
3 *2718:Y 0.000449127
4 *371:10 0.000827904
5 *2914:A *2926:C 0.00034079
6 *2914:A *3046:B 0.000339735
7 *2914:A *526:12 0.000505148
8 *2914:A *532:16 7.56308e-05
9 *2914:A *857:16 0
10 *2914:A *867:16 0
11 *2914:A *876:22 0
12 *2914:A *886:10 0
13 *2914:A *886:16 0
14 *371:10 *2718:A 0.000144102
15 *371:10 *3297:D 0
16 *371:10 *821:34 0
17 *219:9 *371:10 0
18 *368:16 *2914:A 0
19 *368:16 *371:10 0
*RES
1 *2718:Y *371:10 43.7904 
2 *371:10 *2914:A 45.047 
3 *371:10 *3046:A 40 
*END

*D_NET *372 0.00899906
*CONN
*I *3041:A I *D sg13g2_nand4_1
*I *2909:A I *D sg13g2_nand4_1
*I *2719:Y O *D sg13g2_inv_1
*CAP
1 *3041:A 0.000413644
2 *2909:A 9.16537e-05
3 *2719:Y 0.000397916
4 *372:22 0.000505297
5 *372:20 0.0014098
6 *372:16 0.00198851
7 *372:8 0.000976629
8 *3041:A *2901:D 0.000178897
9 *3041:A *3033:B 0
10 *3041:A *3041:B 4.78192e-05
11 *3041:A *3041:D 5.18521e-05
12 *3041:A *373:24 0
13 *3041:A *619:10 1.54008e-05
14 *3041:A *824:12 0
15 *3041:A *875:29 0.00028545
16 *3041:A *875:45 0.000446016
17 *3041:A *887:56 0.000337302
18 *3041:A *1123:38 0
19 *372:8 *636:10 0
20 *372:8 *825:32 0
21 *372:8 *1139:14 0
22 *372:16 *377:6 0.000727211
23 *372:16 *639:10 0.000280969
24 *372:16 *697:204 0
25 *372:16 *811:62 0.000501212
26 *372:16 *811:77 3.24568e-05
27 *372:16 *811:92 0.000129135
28 *372:16 *873:99 0
29 *372:20 *812:33 0
30 *372:20 *872:69 0.00018189
31 *372:20 *1133:27 0
*RES
1 *2719:Y *372:8 43.3166 
2 *372:8 *372:16 46.4478 
3 *372:16 *372:20 34.1625 
4 *372:20 *372:22 20 
5 *372:22 *2909:A 40.7519 
6 *372:22 *3041:A 45.3045 
*END

*D_NET *373 0.010315
*CONN
*I *3037:A I *D sg13g2_nand4_1
*I *2905:A I *D sg13g2_nand4_1
*I *2720:Y O *D sg13g2_inv_1
*CAP
1 *3037:A 2.70858e-05
2 *2905:A 0
3 *2720:Y 0.00262093
4 *373:32 0.000436416
5 *373:24 0.00308443
6 *3037:A *3037:B 3.23417e-05
7 *373:24 *2719:A 0
8 *373:24 *3026:B1 0
9 *373:24 *3026:A2 0.000112535
10 *373:24 *3037:B 0.00011159
11 *373:24 *3037:C 0
12 *373:24 *3064:A 0.000339333
13 *373:24 *3076:A 0
14 *373:24 *3307:RESET_B 0
15 *373:24 *3311:RESET_B 0
16 *373:24 *3311:D 0
17 *373:24 *3386:A 0
18 *373:24 *374:18 0
19 *373:24 *376:14 0
20 *373:24 *619:10 0.000533766
21 *373:24 *709:8 0
22 *373:24 *709:14 0.000112826
23 *373:24 *825:32 0
24 *373:24 *874:8 0
25 *373:24 *887:67 0.000792593
26 *373:24 *895:67 0
27 *373:24 *1123:24 0.00118202
28 *373:24 *1145:37 0.000760745
29 *373:32 *3037:B 0
30 *373:32 *516:10 0.000120752
31 *373:32 *823:52 0
32 *373:32 *870:40 0
33 *373:32 *870:44 4.76296e-05
34 *373:32 *875:58 0
35 *3041:A *373:24 0
*RES
1 *2720:Y *373:24 49.458 
2 *373:24 *373:32 44.1303 
3 *373:32 *2905:A 20 
4 *373:24 *3037:A 20.3193 
*END

*D_NET *374 0.00623003
*CONN
*I *3033:A I *D sg13g2_nand4_1
*I *2901:A I *D sg13g2_nand4_1
*I *2721:Y O *D sg13g2_inv_1
*CAP
1 *3033:A 0
2 *2901:A 0.000200442
3 *2721:Y 0.00191875
4 *374:35 0.000223527
5 *374:18 0.00234272
6 *2901:A *513:10 1.54556e-05
7 *2901:A *870:23 0.000177109
8 *2901:A *870:32 4.78359e-05
9 *2901:A *875:31 0
10 *2901:A *875:58 0
11 *374:18 *3064:A 0
12 *374:18 *3065:A1 0
13 *374:18 *3073:A2 0.000306925
14 *374:18 *3075:A2 0.000111624
15 *374:18 *3076:A 0
16 *374:18 *377:6 0
17 *374:18 *604:10 0
18 *374:18 *621:87 0.000177378
19 *374:18 *621:100 0
20 *374:18 *639:10 0
21 *374:18 *811:70 4.77425e-05
22 *374:18 *811:92 0
23 *374:18 *821:121 4.25029e-05
24 *374:18 *825:32 0
25 *374:18 *825:53 0
26 *374:18 *825:61 0.000436418
27 *374:18 *870:23 0
28 *374:18 *874:8 0
29 *374:18 *874:19 0
30 *374:18 *895:67 0
31 *374:18 *1123:24 0
32 *374:18 *1123:38 0
33 *374:35 *596:8 0
34 *374:35 *824:12 0.000181608
35 *374:35 *887:48 0
36 *374:35 *1123:38 0
37 *3492:A *374:18 0
38 *373:24 *374:18 0
*RES
1 *2721:Y *374:18 37.5902 
2 *374:18 *2901:A 22.2454 
3 *374:18 *374:35 42.2454 
4 *374:35 *3033:A 20 
*END

*D_NET *375 0.0154563
*CONN
*I *3029:A I *D sg13g2_nand4_1
*I *2897:A I *D sg13g2_nand4_1
*I *2722:Y O *D sg13g2_inv_1
*CAP
1 *3029:A 0.00010129
2 *2897:A 0
3 *2722:Y 0.000261481
4 *375:30 0.000247234
5 *375:20 0.0011565
6 *375:18 0.00263735
7 *375:14 0.00399511
8 *375:8 0.00242722
9 *3029:A *3029:B 0.000112558
10 *3029:A *1143:48 0
11 *375:8 *2872:B 0
12 *375:8 *709:52 0
13 *375:8 *765:18 0
14 *375:14 *2877:A 3.23417e-05
15 *375:14 *3565:A 0
16 *375:14 *709:44 0
17 *375:14 *765:12 0.00020973
18 *375:14 *765:25 0.00029113
19 *375:14 *765:33 0.000339343
20 *375:18 *3285:CLK 0.000274781
21 *375:18 *3291:RESET_B 0
22 *375:18 *3291:CLK 0
23 *375:18 *3295:CLK 0
24 *375:18 *702:67 0
25 *375:18 *711:68 0
26 *375:18 *718:14 0
27 *375:18 *719:10 0
28 *375:18 *1001:8 0
29 *375:20 *3029:B 5.38157e-05
30 *375:20 *766:55 0
31 *375:20 *790:38 0.0026027
32 *375:20 *1146:27 0
33 *375:30 *3029:B 0.000238083
34 *375:30 *697:264 0
35 *375:30 *790:38 0.000237686
36 *375:30 *794:41 0.000237975
37 *375:30 *1143:48 0
38 s_axil_bvalid *375:14 0
*RES
1 *2722:Y *375:8 42.8222 
2 *375:8 *375:14 43.6591 
3 *375:14 *375:18 39.9408 
4 *375:18 *375:20 11.9686 
5 *375:20 *375:30 43.1518 
6 *375:30 *2897:A 40 
7 *375:20 *3029:A 40.9682 
*END

*D_NET *376 0.00784694
*CONN
*I *3025:A I *D sg13g2_nand4_1
*I *2893:A I *D sg13g2_nand4_1
*I *2723:Y O *D sg13g2_inv_1
*CAP
1 *3025:A 0
2 *2893:A 0.000437396
3 *2723:Y 0.002087
4 *376:18 0.00062809
5 *376:14 0.00227769
6 *2893:A *2889:A 2.14736e-05
7 *2893:A *3021:A 0.000371166
8 *2893:A *3025:B 0
9 *2893:A *3436:A 0
10 *2893:A *870:23 4.72458e-05
11 *2893:A *875:16 0
12 *2893:A *1123:24 0
13 *376:14 *2723:A 4.35843e-05
14 *376:14 *2873:B 0
15 *376:14 *3303:CLK 0
16 *376:14 *3305:RESET_B 0.000339437
17 *376:14 *3305:CLK 0
18 *376:14 *3307:RESET_B 0
19 *376:14 *3311:RESET_B 7.10607e-05
20 *376:14 *3311:D 0
21 *376:14 *3386:A 0.000330281
22 *376:14 *3592:A 0.000307002
23 *376:14 *493:56 0
24 *376:14 *709:14 0
25 *376:14 *1049:24 0
26 *376:14 *1076:34 0.000467465
27 *376:14 *1111:14 0.000418048
28 *376:14 *1123:10 0
29 *376:18 *3022:B1 0
30 *376:18 *812:10 0
31 *373:24 *376:14 0
*RES
1 *2723:Y *376:14 41.7742 
2 *376:14 *376:18 22.3278 
3 *376:18 *2893:A 44.4496 
4 *376:18 *3025:A 40 
*END

*D_NET *377 0.00669039
*CONN
*I *3021:A I *D sg13g2_nand4_1
*I *2889:A I *D sg13g2_nand4_1
*I *2724:Y O *D sg13g2_inv_1
*CAP
1 *3021:A 7.79765e-05
2 *2889:A 0.000235503
3 *2724:Y 0.00147267
4 *377:16 0.000313479
5 *377:14 0.000291371
6 *377:6 0.00176404
7 *2889:A *2893:C 0
8 *2889:A *869:27 7.31628e-05
9 *2889:A *870:23 0
10 *3021:A *869:27 0.00039202
11 *377:6 *2724:A 4.79124e-05
12 *377:6 *3062:B 0
13 *377:6 *3065:A1 0.000274414
14 *377:6 *3065:B1 8.0216e-05
15 *377:6 *3068:A 0
16 *377:6 *3074:C 0
17 *377:6 *3074:D 0
18 *377:6 *3503:A 0
19 *377:6 *636:10 0.000339135
20 *377:6 *811:47 0.000208631
21 *377:6 *811:62 0
22 *377:6 *811:92 0
23 *377:6 *825:61 0
24 *377:6 *873:99 0
25 *377:6 *886:112 0
26 *377:6 *895:67 0
27 *377:14 *870:23 0
28 *377:14 *875:16 0
29 *377:14 *1133:27 0
30 *2893:A *2889:A 2.14736e-05
31 *2893:A *3021:A 0.000371166
32 *328:10 *377:6 0
33 *372:16 *377:6 0.000727211
34 *374:18 *377:6 0
*RES
1 *2724:Y *377:6 34.8114 
2 *377:6 *377:14 42.8325 
3 *377:14 *377:16 20 
4 *377:16 *2889:A 42.0806 
5 *377:16 *3021:A 41.8334 
*END

*D_NET *378 0.0114978
*CONN
*I *3017:A I *D sg13g2_nand4_1
*I *2885:A I *D sg13g2_nand4_1
*I *2725:Y O *D sg13g2_inv_1
*CAP
1 *3017:A 0
2 *2885:A 2.65569e-05
3 *2725:Y 6.99234e-05
4 *378:27 7.40761e-05
5 *378:14 0.00380986
6 *378:8 0.00377915
7 *378:8 *2711:A 7.00878e-05
8 *378:8 *2725:A 4.79124e-05
9 *378:8 *889:56 0
10 *378:14 *2889:D 0.000112426
11 *378:14 *2903:B 0
12 *378:14 *2906:A1 0
13 *378:14 *2942:B 0
14 *378:14 *2942:D 0
15 *378:14 *3012:B1 8.01445e-05
16 *378:14 *3068:A 0
17 *378:14 *3281:RESET_B 0
18 *378:14 *3435:A 0
19 *378:14 *379:22 0
20 *378:14 *514:12 0
21 *378:14 *520:8 4.77425e-05
22 *378:14 *544:8 0
23 *378:14 *596:101 0
24 *378:14 *812:59 0
25 *378:14 *823:52 4.77425e-05
26 *378:14 *859:41 0.000724813
27 *378:14 *868:50 0
28 *378:14 *869:8 0
29 *378:14 *869:15 0
30 *378:14 *869:56 0
31 *378:14 *870:44 0
32 *378:14 *874:27 0.0005012
33 *378:14 *874:36 0.0003389
34 *378:14 *875:65 0
35 *378:14 *877:34 0
36 *378:14 *896:57 0.000856254
37 *378:27 *794:41 0.000399198
38 *378:27 *875:82 0.000399349
39 *2942:A *378:14 0
40 *3066:A *378:14 0.000112426
41 *328:10 *378:14 0
42 *364:6 *378:14 0
43 *366:14 *378:8 0
44 *366:14 *378:14 0
*RES
1 *2725:Y *378:8 20.8858 
2 *378:8 *378:14 36.1227 
3 *378:14 *2885:A 20.3502 
4 *378:14 *378:27 41.8334 
5 *378:27 *3017:A 20 
*END

*D_NET *379 0.00827887
*CONN
*I *3013:A I *D sg13g2_nand4_1
*I *2881:A I *D sg13g2_nand4_1
*I *2726:Y O *D sg13g2_inv_1
*CAP
1 *3013:A 0
2 *2881:A 0
3 *2726:Y 0.00265916
4 *379:28 0.000166103
5 *379:22 0.00282526
6 *379:22 *2726:A 4.7803e-05
7 *379:22 *2890:B1 0.000112557
8 *379:22 *2890:A1 0
9 *379:22 *2942:C 2.21754e-05
10 *379:22 *2942:D 8.0216e-05
11 *379:22 *3014:A2 1.54008e-05
12 *379:22 *544:8 0
13 *379:22 *596:101 0.000208643
14 *379:22 *708:59 0.00027465
15 *379:22 *708:69 0.000629376
16 *379:22 *858:32 0
17 *379:22 *875:45 0
18 *379:22 *1134:21 0
19 *379:22 *1134:27 0.000557299
20 *379:28 *2879:B 0
21 *379:28 *2881:B 0.00034079
22 *379:28 *824:12 0
23 *3221:D *379:22 0.000339437
24 *366:14 *379:22 0
25 *378:14 *379:22 0
*RES
1 *2726:Y *379:22 46.4195 
2 *379:22 *379:28 41.8334 
3 *379:28 *2881:A 20 
4 *379:22 *3013:A 20 
*END

*D_NET *380 0.00149341
*CONN
*I *2874:A I *D sg13g2_nand4_1
*I *2727:Y O *D sg13g2_inv_1
*CAP
1 *2874:A 0.000545662
2 *2727:Y 0.000545662
3 *2874:A *2727:A 0
4 *2874:A *3601:A 8.02379e-05
5 *2874:A *714:20 0
6 *2874:A *764:57 0
7 *2874:A *1049:14 0.000273997
8 *2874:A *1049:24 0
9 *2874:A *1076:34 0
10 *2874:A *1120:8 0
11 *2874:A *1136:8 4.78521e-05
*RES
1 *2727:Y *2874:A 45.3148 
*END

*D_NET *381 0.00319016
*CONN
*I *2873:B I *D sg13g2_nor3_1
*I *2728:Y O *D sg13g2_inv_1
*CAP
1 *2873:B 0.000751026
2 *2728:Y 0.000240819
3 *381:12 0.000991846
4 *2873:B *2720:A 0
5 *2873:B *2723:A 0
6 *2873:B *2873:C 0.000209147
7 *2873:B *3303:CLK 0.000241979
8 *2873:B *3392:A 0
9 *2873:B *3588:A 0
10 *2873:B *492:12 0
11 *2873:B *1108:14 0.00024199
12 *2873:B *1111:14 0.000144811
13 *381:12 *2719:A 0
14 *381:12 *2720:A 1.54556e-05
15 *381:12 *3303:CLK 0.000241924
16 *381:12 *3396:A 0
17 *381:12 *1076:34 2.19524e-05
18 *381:12 *1111:14 0
19 *381:12 *1122:14 8.92091e-05
20 *376:14 *2873:B 0
*RES
1 *2728:Y *381:12 42.5338 
2 *381:12 *2873:B 47.1103 
*END

*D_NET *382 0.0023283
*CONN
*I *3011:C I *D sg13g2_nor3_1
*I *2879:C I *D sg13g2_nor3_1
*I *2729:Y O *D sg13g2_inv_1
*CAP
1 *3011:C 6.51931e-05
2 *2879:C 0.000438658
3 *2729:Y 4.1066e-05
4 *382:8 0.000544917
5 *2879:C *2879:A 0
6 *2879:C *2879:B 1.54008e-05
7 *2879:C *3393:A 0.000112425
8 *2879:C *596:8 0.00012816
9 *2879:C *814:12 0
10 *2879:C *824:12 0
11 *2879:C *858:47 0.000394237
12 *2879:C *1135:32 0.000241847
13 *3011:C *858:32 1.54282e-05
14 *3011:C *858:47 0.000112453
15 *3011:C *859:41 0.000112453
16 *382:8 *596:8 0.000106064
*RES
1 *2729:Y *382:8 40.5974 
2 *382:8 *2879:C 44.9337 
3 *382:8 *3011:C 40.7519 
*END

*D_NET *383 0.00142816
*CONN
*I *3438:A I *D sg13g2_buf_1
*I *2730:Y O *D sg13g2_inv_1
*CAP
1 *3438:A 0.00041722
2 *2730:Y 0.00041722
3 *3438:A *2730:A 0
4 *3438:A *3427:A 0.00014402
5 *3438:A *3447:A 0.000129367
6 *3438:A *3449:A 0
7 *3438:A *1023:12 0.000112349
8 *355:20 *3438:A 0.000207986
*RES
1 *2730:Y *3438:A 44.4393 
*END

*D_NET *384 0.00252072
*CONN
*I *3427:A I *D sg13g2_buf_1
*I *2731:Y O *D sg13g2_inv_1
*CAP
1 *3427:A 0.00060103
2 *2731:Y 0.00060103
3 *3427:A *2731:A 7.92311e-05
4 *3427:A *3423:A 0
5 *3427:A *861:6 0
6 *3427:A *862:72 0.000532302
7 *3427:A *873:8 4.78524e-05
8 *3427:A *884:70 0.000499851
9 *3438:A *3427:A 0.00014402
10 *355:12 *3427:A 1.54008e-05
11 *355:20 *3427:A 0
*RES
1 *2731:Y *3427:A 46.489 
*END

*D_NET *385 0.00133505
*CONN
*I *3044:C I *D sg13g2_nor3_1
*I *2912:C I *D sg13g2_nor3_1
*I *2732:Y O *D sg13g2_inv_1
*CAP
1 *3044:C 0.000186516
2 *2912:C 0.000281551
3 *2732:Y 0
4 *385:6 0.000468067
5 *3044:C *2732:A 0.00039892
*RES
1 *2732:Y *385:6 40 
2 *385:6 *2912:C 42.0806 
3 *385:6 *3044:C 42.0806 
*END

*D_NET *386 0.00260538
*CONN
*I *2945:C I *D sg13g2_nor3_1
*I *3077:C I *D sg13g2_nor3_1
*I *2733:Y O *D sg13g2_inv_1
*CAP
1 *2945:C 0.000153761
2 *3077:C 0
3 *2733:Y 0.000132778
4 *386:16 0.000230912
5 *386:10 0.000517451
6 *2945:C *581:8 0.000179399
7 *2945:C *722:35 8.03091e-05
8 *2945:C *885:57 1.54008e-05
9 *2945:C *885:70 0.000287186
10 *386:10 *2991:A2 0
11 *386:10 *581:8 0.000127475
12 *386:10 *757:33 4.76068e-05
13 *386:10 *879:14 4.78156e-05
14 *386:10 *885:70 0.000342763
15 *386:16 *855:48 0.00044252
*RES
1 *2733:Y *386:10 41.9055 
2 *386:10 *386:16 42.9149 
3 *386:16 *3077:C 40 
4 *386:10 *2945:C 42.0291 
*END

*D_NET *387 0.000714678
*CONN
*I *2978:C I *D sg13g2_nor3_1
*I *3110:C I *D sg13g2_nor3_1
*I *2734:Y O *D sg13g2_inv_1
*CAP
1 *2978:C 0.00013829
2 *3110:C 4.89278e-05
3 *2734:Y 5.07123e-05
4 *387:6 0.00023793
5 *2978:C *3112:D 0
6 *2978:C *571:12 0
7 *2978:C *862:82 0
8 *2978:C *884:74 0.000143332
9 *3110:C *856:33 8.00842e-05
10 *3110:C *862:72 1.54008e-05
11 *387:6 *571:12 0
*RES
1 *2734:Y *387:6 20.5974 
2 *387:6 *3110:C 20.5356 
3 *387:6 *2978:C 21.3905 
*END

*D_NET *388 0.0154965
*CONN
*I *3406:A I *D sg13g2_buf_1
*I *3403:A I *D sg13g2_buf_1
*I *2735:Y O *D sg13g2_nor2b_1
*CAP
1 *3406:A 3.73836e-05
2 *3403:A 0
3 *2735:Y 0.000190023
4 *388:18 0.00143161
5 *388:14 0.0034265
6 *388:8 0.0022223
7 *388:8 *799:16 0
8 *388:8 *800:22 0.000585514
9 *388:14 *2809:A1 0
10 *388:14 *3225:RESET_B 0
11 *388:14 *751:29 0
12 *388:14 *799:16 0
13 *388:14 *800:22 0.00331777
14 *388:14 *1131:31 0.000306531
15 *388:14 *1133:45 0.000339146
16 *388:14 *1134:27 0
17 *388:18 *2782:A2 0.00023464
18 *388:18 *455:22 0
19 *388:18 *455:26 0.00156343
20 *388:18 *721:71 0
21 *388:18 *837:93 0
22 *388:18 *843:24 0.000872269
23 *388:18 *907:12 0.000446501
24 *388:18 *1135:46 0
25 *3225:D *388:14 0
26 *265:8 *388:18 0.000394238
27 *287:8 *388:14 0.000128663
*RES
1 *2735:Y *388:8 42.8222 
2 *388:8 *388:14 44.8333 
3 *388:14 *388:18 36.4182 
4 *388:18 *3403:A 40 
5 *388:8 *3406:A 40.3193 
*END

*D_NET *389 0.017565
*CONN
*I *3399:A I *D sg13g2_buf_1
*I *3401:A I *D sg13g2_buf_1
*I *2736:Y O *D sg13g2_nand2b_1
*CAP
1 *3399:A 0
2 *3401:A 0
3 *2736:Y 0.000806146
4 *389:41 0.00173948
5 *389:37 0.00180284
6 *389:31 0.00119143
7 *389:20 0.0017805
8 *389:12 0.00145858
9 *389:12 *3187:CLK 0
10 *389:12 *3211:RESET_B 0.000273859
11 *389:12 *702:46 0
12 *389:12 *763:32 0
13 *389:12 *835:26 0
14 *389:12 *835:41 0.000532388
15 *389:20 *2818:B1 0
16 *389:20 *393:14 0
17 *389:20 *719:30 4.79124e-05
18 *389:20 *774:25 0.00150889
19 *389:20 *843:10 0
20 *389:20 *843:125 0
21 *389:20 *905:94 0
22 *389:31 *2812:A2 0.000604573
23 *389:31 *2818:B1 0
24 *389:31 *2829:B1 0
25 *389:31 *393:31 0
26 *389:31 *458:14 0
27 *389:31 *719:30 0.000693493
28 *389:31 *832:8 0
29 *389:31 *832:23 0
30 *389:31 *835:89 0.00015929
31 *389:31 *905:27 0.000710954
32 *389:37 *443:20 0
33 *389:37 *905:27 0
34 *389:41 *2802:B1 0
35 *389:41 *2812:B1 0
36 *389:41 *2816:A1 0
37 *389:41 *3177:CLK 0
38 *389:41 *393:31 0.00425463
39 *389:41 *447:8 0
40 *389:41 *450:10 0
41 *389:41 *700:69 0
42 *389:41 *725:46 0
43 *389:41 *832:56 0
44 *389:41 *909:63 0
*RES
1 *2736:Y *389:12 46.8302 
2 *389:12 *389:20 28.1267 
3 *389:20 *3401:A 20 
4 *389:20 *389:31 32.9059 
5 *389:31 *389:37 40.7519 
6 *389:37 *389:41 41.115 
7 *389:41 *3399:A 20 
*END

*D_NET *390 0.000596701
*CONN
*I *2871:A I *D sg13g2_nand2_1
*I *2738:A I *D sg13g2_inv_1
*I *2737:Y O *D sg13g2_nand2_1
*CAP
1 *2871:A 7.29801e-05
2 *2738:A 0
3 *2737:Y 0.00022537
4 *390:8 0.000298351
5 *390:8 *2871:B 0
6 *390:8 *1139:29 0
7 *3145:D *2871:A 0
8 *3211:D *2871:A 0
9 *3211:D *390:8 0
*RES
1 *2737:Y *390:8 22.1836 
2 *390:8 *2738:A 20 
3 *390:8 *2871:A 20.8446 
*END

*D_NET *391 0.0217973
*CONN
*I *3421:A I *D sg13g2_buf_1
*I *3418:A I *D sg13g2_buf_1
*I *3528:A I *D sg13g2_dlygate4sd3_1
*I *2739:Y O *D sg13g2_nor2_1
*CAP
1 *3421:A 0.000357384
2 *3418:A 4.96768e-05
3 *3528:A 0.00102015
4 *2739:Y 0.000921625
5 *391:63 0.00154966
6 *391:40 0.00263585
7 *391:36 0.000251578
8 *391:28 0.000696673
9 *391:24 0.00106491
10 *391:20 0.000326622
11 *391:10 0.00110152
12 *3418:A *848:21 8.02267e-05
13 *3421:A *3205:CLK 0
14 *3421:A *483:10 9.69481e-05
15 *3421:A *854:10 0
16 *3421:A *1139:70 0.000242089
17 *3421:A *1144:57 0
18 *3528:A *2832:B1 0
19 *3528:A *3183:RESET_B 0.000339459
20 *3528:A *3191:CLK 4.77866e-05
21 *3528:A *3616:A 0.000468464
22 *3528:A *726:44 0.000533085
23 *3528:A *746:23 0
24 *3528:A *907:46 0.000208946
25 *391:10 *2840:A1 0.000241847
26 *391:10 *791:12 4.77425e-05
27 *391:10 *835:89 0.000759246
28 *391:10 *1143:52 0.000532061
29 *391:10 *1143:75 0
30 *391:10 *1144:28 0.000563408
31 *391:20 *788:37 0.000126552
32 *391:20 *791:12 0.000340704
33 *391:20 *842:24 0.000340466
34 *391:20 *1144:36 0.000126358
35 *391:24 *483:10 0.000209451
36 *391:28 *476:18 0.00224185
37 *391:28 *481:12 0.00160395
38 *391:28 *483:10 0
39 *391:36 *481:12 0.000180314
40 *391:36 *488:20 0
41 *391:40 *2857:B1 4.77425e-05
42 *391:40 *3616:A 0.00019323
43 *391:63 *2842:A2 0.00028545
44 *391:63 *2855:B1 0.000209001
45 *391:63 *425:18 0
46 *391:63 *470:10 0.000447498
47 *391:63 *476:12 0
48 *391:63 *478:18 0.00112878
49 *391:63 *733:60 0
50 *391:63 *748:39 0.000179006
*RES
1 *2739:Y *391:10 49.9704 
2 *391:10 *391:20 43.1518 
3 *391:20 *391:24 21.4008 
4 *391:24 *391:28 30.4854 
5 *391:28 *391:36 41.3802 
6 *391:36 *391:40 21.4008 
7 *391:40 *3528:A 31.5051 
8 *391:40 *391:63 34.6878 
9 *391:63 *3418:A 40.5356 
10 *391:24 *3421:A 23.5638 
*END

*D_NET *392 0.0149584
*CONN
*I *3414:A I *D sg13g2_buf_1
*I *3416:A I *D sg13g2_buf_1
*I *3413:A I *D sg13g2_buf_1
*I *2740:Y O *D sg13g2_nor2b_1
*CAP
1 *3414:A 0
2 *3416:A 0
3 *3413:A 0
4 *2740:Y 0.000471978
5 *392:26 0.0012242
6 *392:14 0.00172664
7 *392:12 0.00299286
8 *392:8 0.00296239
9 *392:8 *2808:B1 1.54008e-05
10 *392:8 *835:89 0
11 *392:8 *905:46 0.000323226
12 *392:8 *905:125 0.000420696
13 *392:8 *1143:75 0
14 *392:12 *2838:B1 0
15 *392:12 *2840:A1 0
16 *392:12 *460:16 0
17 *392:12 *461:10 0
18 *392:12 *467:16 0
19 *392:12 *468:8 0
20 *392:12 *697:287 0
21 *392:12 *717:32 0.00192841
22 *392:12 *751:39 0.000392316
23 *392:12 *831:52 0
24 *392:12 *841:58 0
25 *392:12 *854:24 0
26 *392:12 *854:30 0
27 *392:12 *905:125 0.000447269
28 *392:12 *1141:52 0
29 *392:14 *460:16 0
30 *392:14 *717:32 0
31 *392:14 *846:14 0
32 *392:26 *3159:RESET_B 0.00024139
33 *392:26 *414:8 0.000340288
34 *392:26 *460:16 0
35 *392:26 *717:32 0
36 *392:26 *798:22 0
37 *392:26 *830:33 0
38 *392:26 *830:40 0
39 *392:26 *834:81 0.00103003
40 *392:26 *901:86 0.000393406
41 *3159:D *392:26 4.79124e-05
*RES
1 *2740:Y *392:8 45.0779 
2 *392:8 *392:12 24.8951 
3 *392:12 *392:14 4.0582 
4 *392:14 *392:26 33.5548 
5 *392:26 *3413:A 20 
6 *392:14 *3416:A 40 
7 *392:12 *3414:A 40 
*END

*D_NET *393 0.0146701
*CONN
*I *3408:A I *D sg13g2_buf_1
*I *3411:A I *D sg13g2_buf_1
*I *2741:Y O *D sg13g2_nor2b_1
*CAP
1 *3408:A 0
2 *3411:A 0
3 *2741:Y 0.000339108
4 *393:31 0.00220733
5 *393:23 0.00264444
6 *393:14 0.00029567
7 *393:8 0.00107188
8 *393:8 *719:30 8.02267e-05
9 *393:8 *774:8 4.7803e-05
10 *393:8 *1147:20 0
11 *393:14 *774:25 0
12 *393:14 *843:10 0.000212215
13 *393:14 *843:20 0.000546444
14 *393:23 *719:30 0.000628877
15 *393:23 *1147:20 0
16 *393:31 *2812:B1 0
17 *393:31 *2812:A1 0.000708941
18 *393:31 *3177:D 0
19 *393:31 *3467:A 0
20 *393:31 *446:14 0
21 *393:31 *455:14 4.76243e-05
22 *393:31 *725:46 0
23 *393:31 *775:23 0.000873099
24 *393:31 *905:27 0.000711784
25 *389:20 *393:14 0
26 *389:31 *393:31 0
27 *389:41 *393:31 0.00425463
*RES
1 *2741:Y *393:8 23.0488 
2 *393:8 *393:14 43.5638 
3 *393:14 *3411:A 20 
4 *393:8 *393:23 24.2127 
5 *393:23 *393:31 48.2117 
6 *393:31 *3408:A 20 
*END

*D_NET *394 0.00218593
*CONN
*I *2745:A1 I *D sg13g2_a21oi_1
*I *2742:Y O *D sg13g2_a21oi_1
*CAP
1 *2745:A1 7.07748e-05
2 *2742:Y 0.000461946
3 *394:10 0.000532721
4 *2745:A1 *2745:A2 0.000112426
5 *2745:A1 *3149:CLK 0
6 *394:10 *395:10 0.000394566
7 *394:10 *778:12 0
8 *394:10 *828:51 0.000468727
9 *394:10 *839:93 0.000144767
10 *394:10 *901:121 0
11 *394:10 *968:12 0
*RES
1 *2742:Y *394:10 45.2118 
2 *394:10 *2745:A1 40.7519 
*END

*D_NET *395 0.00121817
*CONN
*I *2745:A2 I *D sg13g2_a21oi_1
*I *2743:Y O *D sg13g2_a22oi_1
*CAP
1 *2745:A2 9.25719e-05
2 *2743:Y 0.00023106
3 *395:10 0.000323632
4 *2745:A2 *3149:CLK 0
5 *395:10 *839:93 6.39133e-05
6 *2745:A1 *2745:A2 0.000112426
7 *394:10 *395:10 0.000394566
*RES
1 *2743:Y *395:10 42.7552 
2 *395:10 *2745:A2 40.7834 
*END

*D_NET *396 0.00175885
*CONN
*I *2745:B1 I *D sg13g2_a21oi_1
*I *2744:Y O *D sg13g2_o21ai_1
*CAP
1 *2745:B1 9.15727e-05
2 *2744:Y 0.000436381
3 *396:10 0.000527953
4 *2745:B1 *2753:B1 0
5 *2745:B1 *3149:CLK 0.000144843
6 *396:10 *400:10 0.000285106
7 *396:10 *728:31 0
8 *396:10 *833:75 4.76327e-05
9 *396:10 *833:83 7.30101e-05
10 *396:10 *833:94 7.30101e-05
11 *396:10 *901:121 7.93426e-05
12 *396:10 *968:12 0
13 *248:8 *396:10 0
*RES
1 *2744:Y *396:10 44.5938 
2 *396:10 *2745:B1 40.9682 
*END

*D_NET *397 0.00188641
*CONN
*I *2749:A1 I *D sg13g2_a21oi_1
*I *2746:Y O *D sg13g2_a21oi_1
*CAP
1 *2749:A1 0
2 *2746:Y 0.000657891
3 *397:16 0.000657891
4 *397:16 *2759:B2 0
5 *397:16 *2763:B2 0
6 *397:16 *2787:B2 0
7 *397:16 *407:14 0
8 *397:16 *715:10 0
9 *397:16 *730:28 0
10 *397:16 *738:10 0.000234263
11 *397:16 *740:27 0.00033636
12 *397:16 *844:62 0
13 *397:16 *893:8 0
14 *397:16 *912:16 0
15 *397:16 *935:10 0
*RES
1 *2746:Y *397:16 46.9731 
2 *397:16 *2749:A1 40 
*END

*D_NET *398 0.000354463
*CONN
*I *2749:A2 I *D sg13g2_a21oi_1
*I *2747:Y O *D sg13g2_a22oi_1
*CAP
1 *2749:A2 0.000177231
2 *2747:Y 0.000177231
3 *2749:A2 *860:12 0
4 *2749:A2 *912:16 0
*RES
1 *2747:Y *2749:A2 42.163 
*END

*D_NET *399 0.00114124
*CONN
*I *2749:B1 I *D sg13g2_a21oi_1
*I *2748:Y O *D sg13g2_o21ai_1
*CAP
1 *2749:B1 0
2 *2748:Y 0.000108523
3 *399:14 0.000462096
4 *399:8 0.000570619
5 *399:8 *401:10 0
6 *399:8 *828:57 0
7 *399:14 *740:23 0
8 *399:14 *756:51 0
*RES
1 *2748:Y *399:8 40.8446 
2 *399:8 *399:14 45.2942 
3 *399:14 *2749:B1 40 
*END

*D_NET *400 0.000974997
*CONN
*I *2753:A1 I *D sg13g2_a21oi_1
*I *2750:Y O *D sg13g2_a21oi_1
*CAP
1 *2753:A1 0.000132805
2 *2750:Y 0.000148538
3 *400:10 0.000281343
4 *2753:A1 *2753:A2 1.54008e-05
5 *2753:A1 *2753:B1 0
6 *2753:A1 *828:51 0
7 *400:10 *766:8 0
8 *400:10 *828:51 0
9 *400:10 *839:78 0
10 *250:10 *2753:A1 0.000111804
11 *396:10 *400:10 0.000285106
*RES
1 *2750:Y *400:10 41.6583 
2 *400:10 *2753:A1 41.1845 
*END

*D_NET *401 0.00212141
*CONN
*I *2753:A2 I *D sg13g2_a21oi_1
*I *2751:Y O *D sg13g2_a22oi_1
*CAP
1 *2753:A2 0.000201442
2 *2751:Y 0.000485172
3 *401:10 0.000686614
4 *2753:A2 *3149:CLK 0
5 *2753:A2 *828:51 0.000339004
6 *401:10 *2743:A2 0.000241137
7 *401:10 *2748:A1 4.77537e-05
8 *401:10 *2751:B1 4.77425e-05
9 *401:10 *2751:A2 0
10 *401:10 *778:12 5.71422e-05
11 *401:10 *828:57 0
12 *401:10 *839:93 0
13 *2753:A1 *2753:A2 1.54008e-05
14 *399:8 *401:10 0
*RES
1 *2751:Y *401:10 44.3466 
2 *401:10 *2753:A2 42.266 
*END

*D_NET *402 0.00214198
*CONN
*I *2753:B1 I *D sg13g2_a21oi_1
*I *2752:Y O *D sg13g2_o21ai_1
*CAP
1 *2753:B1 0.00038434
2 *2752:Y 0.000161486
3 *402:8 0.000545826
4 *2753:B1 *3149:CLK 0
5 *2753:B1 *699:25 0
6 *2753:B1 *699:32 0
7 *402:8 *766:8 0
8 *402:8 *909:26 0.000441805
9 *2745:B1 *2753:B1 0
10 *2753:A1 *2753:B1 0
11 *250:10 *2753:B1 0.000533309
12 *250:10 *402:8 7.52158e-05
*RES
1 *2752:Y *402:8 42.0806 
2 *402:8 *2753:B1 44.2127 
*END

*D_NET *403 0.00132935
*CONN
*I *2757:A1 I *D sg13g2_a21oi_1
*I *2754:Y O *D sg13g2_a21oi_1
*CAP
1 *2757:A1 4.75808e-05
2 *2754:Y 0.000148893
3 *403:8 0.000196474
4 *2757:A1 *2757:A2 1.54008e-05
5 *2757:A1 *3153:RESET_B 0
6 *2757:A1 *410:14 0
7 *2757:A1 *755:35 8.00842e-05
8 *403:8 *717:32 0.000552831
9 *403:8 *850:8 0.000288087
*RES
1 *2754:Y *403:8 42.575 
2 *403:8 *2757:A1 40.5356 
*END

*D_NET *404 0.00202826
*CONN
*I *2757:A2 I *D sg13g2_a21oi_1
*I *2755:Y O *D sg13g2_a22oi_1
*CAP
1 *2757:A2 0.000877779
2 *2755:Y 0.000877779
3 *2757:A2 *2755:B1 8.00842e-05
4 *2757:A2 *2755:A2 0.000177214
5 *2757:A2 *755:35 0
6 *2757:A2 *757:57 0
7 *2757:A1 *2757:A2 1.54008e-05
*RES
1 *2755:Y *2757:A2 47.4572 
*END

*D_NET *405 0.000432095
*CONN
*I *2757:B1 I *D sg13g2_a21oi_1
*I *2756:Y O *D sg13g2_o21ai_1
*CAP
1 *2757:B1 0
2 *2756:Y 3.44394e-05
3 *405:8 3.44394e-05
4 *405:8 *717:32 0.000181608
5 *405:8 *901:57 0.000181608
*RES
1 *2756:Y *405:8 40.8446 
2 *405:8 *2757:B1 40 
*END

*D_NET *406 0.00125118
*CONN
*I *2761:A1 I *D sg13g2_a21oi_1
*I *2758:Y O *D sg13g2_a21oi_1
*CAP
1 *2761:A1 0.000350894
2 *2758:Y 0.000350894
3 *2761:A1 *2758:A1 0
4 *2761:A1 *2760:B1 0
5 *2761:A1 *2761:B1 0
6 *2761:A1 *407:28 0.000274809
7 *2761:A1 *721:56 0.000274583
8 *2761:A1 *795:10 0
9 *2761:A1 *909:38 0
*RES
1 *2758:Y *2761:A1 43.9449 
*END

*D_NET *407 0.00939478
*CONN
*I *2761:A2 I *D sg13g2_a21oi_1
*I *2759:Y O *D sg13g2_a22oi_1
*CAP
1 *2761:A2 0
2 *2759:Y 0.000790088
3 *407:28 0.000589779
4 *407:18 0.00155586
5 *407:14 0.00175617
6 *407:14 *2743:A2 0
7 *407:14 *730:28 0
8 *407:14 *752:44 0.000499506
9 *407:14 *752:50 0.000177279
10 *407:14 *752:61 4.77425e-05
11 *407:14 *833:111 0.00023464
12 *407:14 *844:40 0
13 *407:14 *844:62 8.02434e-05
14 *407:14 *909:10 0.000181192
15 *407:14 *1137:50 0
16 *407:18 *428:10 0.00150205
17 *407:18 *909:14 0.00017634
18 *407:18 *909:16 0.000143861
19 *407:18 *909:26 0.000241668
20 *407:18 *1137:50 0
21 *407:28 *2760:B1 0
22 *407:28 *2761:B1 0.000209966
23 *407:28 *721:48 0
24 *407:28 *721:56 0
25 *407:28 *795:26 0
26 *407:28 *833:29 0.000544124
27 *407:28 *839:29 0.00038946
28 *407:28 *1128:32 0
29 *407:28 *1128:49 0
30 *2761:A1 *407:28 0.000274809
31 *397:16 *407:14 0
*RES
1 *2759:Y *407:14 48.137 
2 *407:14 *407:18 30.0528 
3 *407:18 *407:28 46.6126 
4 *407:28 *2761:A2 20 
*END

*D_NET *408 0.000950311
*CONN
*I *2761:B1 I *D sg13g2_a21oi_1
*I *2760:Y O *D sg13g2_o21ai_1
*CAP
1 *2761:B1 0.000329988
2 *2760:Y 0.000329988
3 *2761:B1 *909:38 8.03692e-05
4 *2761:B1 *1128:32 0
5 *2761:A1 *2761:B1 0
6 *407:28 *2761:B1 0.000209966
*RES
1 *2760:Y *2761:B1 43.811 
*END

*D_NET *409 0.00185533
*CONN
*I *2765:A1 I *D sg13g2_a21oi_1
*I *2762:Y O *D sg13g2_a21oi_1
*CAP
1 *2765:A1 0.000332927
2 *2762:Y 0.000145265
3 *409:8 0.000478192
4 *2765:A1 *410:14 0.000559441
5 *2765:A1 *766:37 0.000339507
6 *409:8 *828:28 0
*RES
1 *2762:Y *409:8 41.5862 
2 *409:8 *2765:A1 44.0479 
*END

*D_NET *410 0.00646956
*CONN
*I *2765:A2 I *D sg13g2_a21oi_1
*I *2763:Y O *D sg13g2_a22oi_1
*CAP
1 *2765:A2 0
2 *2763:Y 0.002297
3 *410:14 0.002297
4 *410:14 *2763:B1 4.77425e-05
5 *410:14 *2763:B2 4.77425e-05
6 *410:14 *2788:A1 1.80959e-05
7 *410:14 *3153:RESET_B 0
8 *410:14 *3157:RESET_B 0
9 *410:14 *3372:A 0
10 *410:14 *3462:A 0.000240196
11 *410:14 *428:10 0
12 *410:14 *730:20 0.000660622
13 *410:14 *757:53 0
14 *410:14 *757:57 0
15 *410:14 *766:37 0.000301716
16 *2757:A1 *410:14 0
17 *2765:A1 *410:14 0.000559441
*RES
1 *2763:Y *410:14 43.1338 
2 *410:14 *2765:A2 20 
*END

*D_NET *411 0.000107691
*CONN
*I *2765:B1 I *D sg13g2_a21oi_1
*I *2764:Y O *D sg13g2_o21ai_1
*CAP
1 *2765:B1 0
2 *2764:Y 5.38454e-05
3 *411:8 5.38454e-05
4 *411:8 *646:35 0
*RES
1 *2764:Y *411:8 40.5974 
2 *411:8 *2765:B1 40 
*END

*D_NET *412 0.000755845
*CONN
*I *2769:A1 I *D sg13g2_a21oi_1
*I *2766:Y O *D sg13g2_a21oi_1
*CAP
1 *2769:A1 3.78077e-05
2 *2766:Y 0.000260147
3 *412:12 0.000297954
4 *412:12 *2766:A1 0
5 *412:12 *460:16 0
6 *412:12 *724:43 0
7 *412:12 *830:33 0.000159937
8 *412:12 *901:86 0
*RES
1 *2766:Y *412:12 42.3793 
2 *412:12 *2769:A1 40.3193 
*END

*D_NET *413 0.00269888
*CONN
*I *2769:A2 I *D sg13g2_a21oi_1
*I *2767:Y O *D sg13g2_a22oi_1
*CAP
1 *2769:A2 0
2 *2767:Y 0.000445916
3 *413:16 0.000775457
4 *413:10 0.00122137
5 *413:10 *804:8 0
6 *413:10 *826:14 0
7 *413:10 *830:51 0
8 *413:10 *845:91 0.000256133
9 *413:10 *946:20 0
10 *413:16 *724:49 0
11 *413:16 *724:74 0
12 *413:16 *771:14 0
13 *413:16 *782:16 0
14 *3532:A *413:10 0
*RES
1 *2767:Y *413:10 43.914 
2 *413:10 *413:16 45.832 
3 *413:16 *2769:A2 40 
*END

*D_NET *414 0.000618389
*CONN
*I *2769:B1 I *D sg13g2_a21oi_1
*I *2768:Y O *D sg13g2_o21ai_1
*CAP
1 *2769:B1 0
2 *2768:Y 0.00013905
3 *414:8 0.00013905
4 *414:8 *460:16 0
5 *414:8 *901:86 0
6 *392:26 *414:8 0.000340288
*RES
1 *2768:Y *414:8 41.8334 
2 *414:8 *2769:B1 40 
*END

*D_NET *415 0.00242812
*CONN
*I *2773:A1 I *D sg13g2_a21oi_1
*I *2770:Y O *D sg13g2_a21oi_1
*CAP
1 *2773:A1 7.91482e-05
2 *2770:Y 9.64942e-05
3 *415:16 0.000355126
4 *415:8 0.000372472
5 *2773:A1 *2773:A2 0.00011229
6 *415:8 *730:65 0.000340651
7 *415:8 *752:61 0
8 *415:8 *844:28 0.000126769
9 *415:16 *433:8 1.54008e-05
10 *415:16 *826:14 0.000393947
11 *415:16 *1045:20 0
12 *415:16 *1105:10 0
13 *415:16 *1127:10 0.000392442
14 *3161:D *415:16 0.00014338
*RES
1 *2770:Y *415:8 41.5862 
2 *415:8 *415:16 43.6668 
3 *415:16 *2773:A1 40.7519 
*END

*D_NET *416 0.00194463
*CONN
*I *2773:A2 I *D sg13g2_a21oi_1
*I *2771:Y O *D sg13g2_a22oi_1
*CAP
1 *2773:A2 0.000306351
2 *2771:Y 0.00030695
3 *416:10 0.000613301
4 *2773:A2 *2767:A2 0.000467195
5 *2773:A2 *2773:B1 0
6 *416:10 *699:89 0
7 *416:10 *724:74 6.35337e-05
8 *416:10 *730:65 7.50102e-05
9 *416:10 *752:61 0
10 *416:10 *1105:18 0
11 *2773:A1 *2773:A2 0.00011229
*RES
1 *2771:Y *416:10 42.7552 
2 *416:10 *2773:A2 43.1312 
*END

*D_NET *417 0.00227517
*CONN
*I *2773:B1 I *D sg13g2_a21oi_1
*I *2772:Y O *D sg13g2_o21ai_1
*CAP
1 *2773:B1 0.00061875
2 *2772:Y 0.000148289
3 *417:8 0.000767039
4 *2773:B1 *2767:A2 0
5 *2773:B1 *3161:RESET_B 0.00026046
6 *2773:B1 *437:14 0
7 *2773:B1 *716:12 0.000176482
8 *2773:B1 *758:67 4.77863e-05
9 *417:8 *3417:A 0
10 *417:8 *758:67 7.52158e-05
11 *417:8 *833:130 0
12 *417:8 *845:16 0.000181144
13 *2773:A2 *2773:B1 0
*RES
1 *2772:Y *417:8 41.5862 
2 *417:8 *2773:B1 45.9637 
*END

*D_NET *418 0.00244681
*CONN
*I *2777:A1 I *D sg13g2_a21oi_1
*I *2774:Y O *D sg13g2_a21oi_1
*CAP
1 *2777:A1 0.000116519
2 *2774:Y 0.000365339
3 *418:10 0.000481858
4 *2777:A1 *2776:B1 0
5 *2777:A1 *2776:A2 0
6 *2777:A1 *419:14 0.000176455
7 *2777:A1 *723:67 0
8 *418:10 *2774:B1 0.000209637
9 *418:10 *700:63 0
10 *418:10 *700:69 0.000183074
11 *418:10 *830:14 0
12 *418:10 *834:30 0.000182742
13 *418:10 *834:32 0.000392191
14 *418:10 *902:40 0.000339
*RES
1 *2774:Y *418:10 44.841 
2 *418:10 *2777:A1 41.1845 
*END

*D_NET *419 0.00403165
*CONN
*I *2777:A2 I *D sg13g2_a21oi_1
*I *2775:Y O *D sg13g2_a22oi_1
*CAP
1 *2777:A2 0
2 *2775:Y 0.00173203
3 *419:14 0.00173203
4 *419:14 *2858:A2 0
5 *419:14 *3163:RESET_B 0.000263095
6 *419:14 *422:8 0
7 *419:14 *700:36 0
8 *419:14 *700:51 0
9 *419:14 *723:63 0
10 *419:14 *723:67 0
11 *419:14 *759:54 0
12 *419:14 *761:50 0
13 *419:14 *834:73 0
14 *419:14 *848:33 0.000128049
15 *419:14 *848:43 0
16 *419:14 *946:30 0
17 *2777:A1 *419:14 0.000176455
18 *3163:D *419:14 0
*RES
1 *2775:Y *419:14 34.7166 
2 *419:14 *2777:A2 20 
*END

*D_NET *420 0.000292473
*CONN
*I *2777:B1 I *D sg13g2_a21oi_1
*I *2776:Y O *D sg13g2_o21ai_1
*CAP
1 *2777:B1 0
2 *2776:Y 8.17226e-05
3 *420:8 8.17226e-05
4 *420:8 *723:63 0.000129028
5 *420:8 *903:48 0
*RES
1 *2776:Y *420:8 40.8446 
2 *420:8 *2777:B1 40 
*END

*D_NET *421 0.000376745
*CONN
*I *2781:A1 I *D sg13g2_a21oi_1
*I *2778:Y O *D sg13g2_a21oi_1
*CAP
1 *2781:A1 2.10472e-05
2 *2778:Y 0.000151538
3 *421:8 0.000172585
4 *2781:A1 *422:16 0
5 *2781:A1 *736:32 3.15744e-05
6 *421:8 *721:71 0
7 *421:8 *834:30 0
8 *257:8 *421:8 0
*RES
1 *2778:Y *421:8 41.339 
2 *421:8 *2781:A1 40.2112 
*END

*D_NET *422 0.007811
*CONN
*I *2781:A2 I *D sg13g2_a21oi_1
*I *2779:Y O *D sg13g2_a22oi_1
*CAP
1 *2781:A2 0
2 *2779:Y 0.000973222
3 *422:16 0.00101017
4 *422:8 0.0019834
5 *422:8 *723:67 0.00082154
6 *422:8 *762:35 0
7 *422:8 *851:73 0
8 *422:16 *2811:B1 0
9 *422:16 *440:10 0
10 *422:16 *446:8 0
11 *422:16 *458:10 0.000337824
12 *422:16 *716:26 0.00129129
13 *422:16 *736:32 0
14 *422:16 *737:39 0
15 *422:16 *846:14 0
16 *422:16 *852:94 0.000240514
17 *422:16 *1116:12 0.00097584
18 *422:16 *1130:35 0
19 *2781:A1 *422:16 0
20 *3173:D *422:8 0.000177203
21 *419:14 *422:8 0
*RES
1 *2779:Y *422:8 49.1876 
2 *422:8 *422:16 32.5454 
3 *422:16 *2781:A2 20 
*END

*D_NET *423 0.00188881
*CONN
*I *2781:B1 I *D sg13g2_a21oi_1
*I *2780:Y O *D sg13g2_o21ai_1
*CAP
1 *2781:B1 0.000228512
2 *2780:Y 0.000352071
3 *423:10 0.000580583
4 *2781:B1 *2778:A1 0
5 *2781:B1 *2778:B1 4.76665e-05
6 *2781:B1 *3082:B1 0
7 *2781:B1 *3165:RESET_B 7.97013e-05
8 *2781:B1 *736:32 3.15744e-05
9 *423:10 *2780:A2 0.00017695
10 *423:10 *3082:B1 0
11 *423:10 *721:71 0
12 *423:10 *726:14 0
13 *423:10 *1128:49 0.000391756
*RES
1 *2780:Y *423:10 43.8831 
2 *423:10 *2781:B1 42.3947 
*END

*D_NET *424 0.00128367
*CONN
*I *2785:A1 I *D sg13g2_a21oi_1
*I *2782:Y O *D sg13g2_a21oi_1
*CAP
1 *2785:A1 0.000166827
2 *2782:Y 6.18369e-05
3 *424:8 0.000228664
4 *2785:A1 *2785:A2 1.54008e-05
5 *2785:A1 *748:31 0.000240669
6 *2785:A1 *1132:31 0
7 *424:8 *452:26 0.000285099
8 *424:8 *770:22 0.000285178
*RES
1 *2782:Y *424:8 41.339 
2 *424:8 *2785:A1 41.6171 
*END

*D_NET *425 0.0107986
*CONN
*I *2785:A2 I *D sg13g2_a21oi_1
*I *2783:Y O *D sg13g2_a22oi_1
*CAP
1 *2785:A2 0.000862142
2 *2783:Y 0.000172403
3 *425:28 0.00176322
4 *425:18 0.00228421
5 *425:8 0.00155553
6 *2785:A2 *748:31 0
7 *2785:A2 *907:12 0.000496807
8 *2785:A2 *909:55 7.99869e-05
9 *2785:A2 *909:63 0.00040118
10 *2785:A2 *1132:31 0.000240699
11 *425:8 *729:35 0
12 *425:8 *762:35 0
13 *425:18 *2851:A2 8.00842e-05
14 *425:18 *3634:A 0
15 *425:18 *470:10 8.00842e-05
16 *425:18 *481:12 0
17 *425:18 *730:65 0.00023464
18 *425:18 *733:60 0.000815527
19 *425:18 *748:39 1.54008e-05
20 *425:28 *3197:RESET_B 7.0221e-05
21 *425:28 *3634:A 0
22 *425:28 *467:8 0
23 *425:28 *478:18 0.000180329
24 *425:28 *748:31 0.00126942
25 *425:28 *909:55 0
26 *425:28 *1132:46 0
27 *2785:A1 *2785:A2 1.54008e-05
28 *273:14 *425:28 0.000181325
29 *391:63 *425:18 0
*RES
1 *2783:Y *425:8 41.4008 
2 *425:8 *425:18 32.8338 
3 *425:18 *425:28 49.7335 
4 *425:28 *2785:A2 28.1061 
*END

*D_NET *426 0.00214817
*CONN
*I *2785:B1 I *D sg13g2_a21oi_1
*I *2784:Y O *D sg13g2_o21ai_1
*CAP
1 *2785:B1 0
2 *2784:Y 0.000346162
3 *426:10 0.000346162
4 *426:10 *2784:B1 1.54008e-05
5 *426:10 *2784:A2 0
6 *426:10 *722:58 0.00055058
7 *426:10 *754:31 0.000338872
8 *426:10 *772:27 0.000550996
*RES
1 *2784:Y *426:10 44.841 
2 *426:10 *2785:B1 40 
*END

*D_NET *427 0.000747107
*CONN
*I *2789:A1 I *D sg13g2_a21oi_1
*I *2786:Y O *D sg13g2_a21oi_1
*CAP
1 *2789:A1 5.06746e-05
2 *2786:Y 4.99994e-05
3 *427:8 0.000100674
4 *2789:A1 *428:10 8.00842e-05
5 *2789:A1 *1137:50 0
6 *427:8 *833:29 0.000232837
7 *427:8 *1128:49 0.000232837
*RES
1 *2786:Y *427:8 41.0918 
2 *427:8 *2789:A1 40.5356 
*END

*D_NET *428 0.00710843
*CONN
*I *2789:A2 I *D sg13g2_a21oi_1
*I *2787:Y O *D sg13g2_a22oi_1
*CAP
1 *2789:A2 0
2 *2787:Y 0.0015592
3 *428:10 0.0015592
4 *428:10 *2763:B2 0.000205655
5 *428:10 *730:20 0
6 *428:10 *730:28 0.000698945
7 *428:10 *757:53 0.00150329
8 *428:10 *1137:50 0
9 *2789:A1 *428:10 8.00842e-05
10 *407:18 *428:10 0.00150205
11 *410:14 *428:10 0
*RES
1 *2787:Y *428:10 38.1074 
2 *428:10 *2789:A2 20 
*END

*D_NET *429 0.000590554
*CONN
*I *2789:B1 I *D sg13g2_a21oi_1
*I *2788:Y O *D sg13g2_o21ai_1
*CAP
1 *2789:B1 1.91325e-05
2 *2788:Y 0.000116496
3 *429:8 0.000135629
4 *2789:B1 *1137:50 3.16733e-05
5 *429:8 *828:28 0.000287624
6 *429:8 *1128:49 0
*RES
1 *2788:Y *429:8 41.339 
2 *429:8 *2789:B1 40.2112 
*END

*D_NET *430 0.00145543
*CONN
*I *2793:A1 I *D sg13g2_a21oi_1
*I *2790:Y O *D sg13g2_a21oi_1
*CAP
1 *2793:A1 4.67739e-05
2 *2790:Y 0.000640835
3 *430:8 0.000687609
4 *2793:A1 *2793:B1 8.0216e-05
5 *2793:A1 *766:37 0
6 *430:8 *431:10 0
7 *430:8 *432:10 0
8 *430:8 *697:144 0
9 *430:8 *699:8 0
10 *430:8 *700:20 0
*RES
1 *2790:Y *430:8 45.7886 
2 *430:8 *2793:A1 40.5356 
*END

*D_NET *431 0.000672692
*CONN
*I *2793:A2 I *D sg13g2_a21oi_1
*I *2791:Y O *D sg13g2_a22oi_1
*CAP
1 *2793:A2 0
2 *2791:Y 0.000288527
3 *431:10 0.000288527
4 *431:10 *2791:B1 4.78192e-05
5 *431:10 *2793:B1 0
6 *431:10 *699:10 0
7 *431:10 *731:23 0
8 *431:10 *1045:20 4.78192e-05
9 *430:8 *431:10 0
*RES
1 *2791:Y *431:10 42.369 
2 *431:10 *2793:A2 40 
*END

*D_NET *432 0.00183296
*CONN
*I *2793:B1 I *D sg13g2_a21oi_1
*I *2792:Y O *D sg13g2_o21ai_1
*CAP
1 *2793:B1 0.000262177
2 *2792:Y 0.000436937
3 *432:10 0.000699113
4 *2793:B1 *766:37 0
5 *2793:B1 *1045:20 0
6 *432:10 *2792:B1 0.000177257
7 *432:10 *758:57 0.000177257
8 *432:10 *834:57 0
9 *432:10 *903:25 0
10 *2793:A1 *2793:B1 8.0216e-05
11 *3171:D *2793:B1 0
12 *430:8 *432:10 0
13 *431:10 *2793:B1 0
*RES
1 *2792:Y *432:10 44.9955 
2 *432:10 *2793:B1 42.8325 
*END

*D_NET *433 0.00663763
*CONN
*I *2797:A1 I *D sg13g2_a21oi_1
*I *2794:Y O *D sg13g2_a21oi_1
*CAP
1 *2797:A1 0
2 *2794:Y 0.000171227
3 *433:14 0.000690665
4 *433:8 0.000861892
5 *433:8 *844:28 0
6 *433:8 *1105:18 0
7 *433:14 *2771:A1 0.00097011
8 *433:14 *2797:B1 0
9 *433:14 *3417:A 0.000338453
10 *433:14 *733:60 0.000915594
11 *433:14 *752:61 0.00170898
12 *433:14 *759:77 0.000549605
13 *433:14 *850:30 0.000128662
14 *433:14 *851:25 0.000287036
15 *433:14 *851:31 0
16 *415:16 *433:8 1.54008e-05
*RES
1 *2794:Y *433:8 41.6171 
2 *433:8 *433:14 32.8132 
3 *433:14 *2797:A1 20 
*END

*D_NET *434 0.00214332
*CONN
*I *2797:A2 I *D sg13g2_a21oi_1
*I *2795:Y O *D sg13g2_a22oi_1
*CAP
1 *2797:A2 0
2 *2795:Y 0.00044047
3 *434:14 0.00044047
4 *434:14 *2795:A2 0
5 *434:14 *3622:A 0.000371253
6 *434:14 *3624:A 0.000209544
7 *434:14 *733:60 0.00034079
8 *434:14 *851:25 0.00034079
*RES
1 *2795:Y *434:14 45.495 
2 *434:14 *2797:A2 40 
*END

*D_NET *435 0.00117778
*CONN
*I *2797:B1 I *D sg13g2_a21oi_1
*I *2796:Y O *D sg13g2_o21ai_1
*CAP
1 *2797:B1 0.000500936
2 *2796:Y 0.000500936
3 *2797:B1 *729:35 1.54285e-05
4 *2797:B1 *731:42 0.000145025
5 *2797:B1 *762:35 0
6 *2797:B1 *902:40 1.54556e-05
7 *433:14 *2797:B1 0
*RES
1 *2796:Y *2797:B1 44.944 
*END

*D_NET *436 0.00110007
*CONN
*I *2801:A1 I *D sg13g2_a21oi_1
*I *2798:Y O *D sg13g2_a21oi_1
*CAP
1 *2801:A1 0.000161829
2 *2798:Y 0.000111843
3 *436:8 0.000273671
4 *2801:A1 *2801:B1 0
5 *2801:A1 *437:26 0.000112563
6 *436:8 *437:26 0.000182023
7 *436:8 *828:20 7.56308e-05
8 *436:8 *1131:23 0
9 *3175:D *2801:A1 0.000182514
*RES
1 *2798:Y *436:8 41.339 
2 *436:8 *2801:A1 41.854 
*END

*D_NET *437 0.00706578
*CONN
*I *2801:A2 I *D sg13g2_a21oi_1
*I *2799:Y O *D sg13g2_a22oi_1
*CAP
1 *2801:A2 0
2 *2799:Y 0.00165841
3 *437:26 0.000311729
4 *437:14 0.00197014
5 *437:14 *2790:B1 0
6 *437:14 *2792:B1 0
7 *437:14 *2792:A1 0.000144661
8 *437:14 *2799:B2 4.77425e-05
9 *437:14 *699:89 0.00100862
10 *437:14 *716:18 0
11 *437:14 *733:45 0
12 *437:14 *758:57 0
13 *437:14 *845:16 0.000370664
14 *437:14 *845:42 0.000112426
15 *437:14 *845:53 3.8502e-06
16 *437:14 *901:101 0
17 *437:14 *1129:33 0.000855693
18 *437:26 *722:58 0
19 *437:26 *828:20 0.000159096
20 *437:26 *828:24 0.00012816
21 *437:26 *1131:14 0
22 *2773:B1 *437:14 0
23 *2801:A1 *437:26 0.000112563
24 *436:8 *437:26 0.000182023
*RES
1 *2799:Y *437:14 37.6954 
2 *437:14 *437:26 43.9346 
3 *437:26 *2801:A2 20 
*END

*D_NET *438 0.000609968
*CONN
*I *2801:B1 I *D sg13g2_a21oi_1
*I *2800:Y O *D sg13g2_o21ai_1
*CAP
1 *2801:B1 3.40668e-05
2 *2800:Y 0.000230809
3 *438:12 0.000264876
4 *2801:B1 *3175:RESET_B 0
5 *2801:B1 *1131:14 0
6 *438:12 *2800:A1 0
7 *438:12 *2800:A2 0
8 *438:12 *722:58 0
9 *438:12 *769:31 0
10 *438:12 *798:22 8.0216e-05
11 *2801:A1 *2801:B1 0
*RES
1 *2800:Y *438:12 42.4411 
2 *438:12 *2801:B1 40.3193 
*END

*D_NET *439 0.00180758
*CONN
*I *2805:A1 I *D sg13g2_a21oi_1
*I *2802:Y O *D sg13g2_a21oi_1
*CAP
1 *2805:A1 8.45907e-05
2 *2802:Y 0.000213147
3 *439:8 0.000297738
4 *2805:A1 *2805:A2 1.54008e-05
5 *2805:A1 *455:14 0
6 *439:8 *446:14 0.000704829
7 *439:8 *1129:56 0
8 *263:8 *439:8 0.000491873
*RES
1 *2802:Y *439:8 43.3166 
2 *439:8 *2805:A1 40.7519 
*END

*D_NET *440 0.0022739
*CONN
*I *2805:A2 I *D sg13g2_a21oi_1
*I *2803:Y O *D sg13g2_a22oi_1
*CAP
1 *2805:A2 8.52654e-05
2 *2803:Y 0.000530282
3 *440:10 0.000615547
4 *2805:A2 *2805:B1 0
5 *2805:A2 *3177:RESET_B 0
6 *2805:A2 *449:8 7.91347e-05
7 *2805:A2 *455:14 0.000143652
8 *440:10 *2803:B1 4.77425e-05
9 *440:10 *734:27 0
10 *440:10 *734:44 0
11 *440:10 *770:22 0
12 *440:10 *846:29 0
13 *440:10 *852:94 0
14 *440:10 *1085:14 0.000756875
15 *440:10 *1129:56 0
16 *2805:A1 *2805:A2 1.54008e-05
17 *422:16 *440:10 0
*RES
1 *2803:Y *440:10 45.459 
2 *440:10 *2805:A2 40.9682 
*END

*D_NET *441 0.00221486
*CONN
*I *2805:B1 I *D sg13g2_a21oi_1
*I *2804:Y O *D sg13g2_o21ai_1
*CAP
1 *2805:B1 2.21802e-05
2 *2804:Y 0.000604562
3 *441:12 0.000626742
4 *441:12 *2802:B1 0
5 *441:12 *449:14 0.000440035
6 *441:12 *452:20 0
7 *441:12 *458:14 0.000441253
8 *441:12 *1132:31 0
9 *2805:A2 *2805:B1 0
10 *3529:A *441:12 8.00842e-05
*RES
1 *2804:Y *441:12 46.2109 
2 *441:12 *2805:B1 40.2112 
*END

*D_NET *442 0.000571302
*CONN
*I *2809:A1 I *D sg13g2_a21oi_1
*I *2806:Y O *D sg13g2_a21oi_1
*CAP
1 *2809:A1 5.92755e-05
2 *2806:Y 8.22884e-05
3 *442:8 0.000141564
4 *2809:A1 *751:29 0
5 *2809:A1 *1133:45 0
6 *442:8 *772:27 0
7 *442:8 *1133:45 0.000288174
8 *388:14 *2809:A1 0
*RES
1 *2806:Y *442:8 41.339 
2 *442:8 *2809:A1 40.5356 
*END

*D_NET *443 0.00915856
*CONN
*I *2809:A2 I *D sg13g2_a21oi_1
*I *2807:Y O *D sg13g2_a22oi_1
*CAP
1 *2809:A2 0
2 *2807:Y 0
3 *443:20 0.00135357
4 *443:16 0.00311367
5 *443:12 0.00185796
6 *443:6 9.78661e-05
7 *443:12 *736:59 0.00017865
8 *443:16 *724:53 0
9 *443:16 *1137:60 0.00255684
10 *389:37 *443:20 0
*RES
1 *2807:Y *443:6 40 
2 *443:6 *443:12 41.1845 
3 *443:12 *443:16 42.351 
4 *443:16 *443:20 36.3255 
5 *443:20 *2809:A2 40 
*END

*D_NET *444 0.00178185
*CONN
*I *2809:B1 I *D sg13g2_a21oi_1
*I *2808:Y O *D sg13g2_o21ai_1
*CAP
1 *2809:B1 0
2 *2808:Y 0.000551657
3 *444:10 0.000551657
4 *444:10 *2808:A2 0
5 *444:10 *772:27 0
6 *444:10 *1133:31 0.000233942
7 *444:10 *1133:45 0.000234726
8 *444:10 *1143:52 0.000209867
9 *264:8 *444:10 0
*RES
1 *2808:Y *444:10 45.459 
2 *444:10 *2809:B1 40 
*END

*D_NET *445 0.000796096
*CONN
*I *2813:A1 I *D sg13g2_a21oi_1
*I *2810:Y O *D sg13g2_a21oi_1
*CAP
1 *2813:A1 3.1926e-05
2 *2810:Y 5.41085e-05
3 *445:8 8.60344e-05
4 *2813:A1 *446:14 4.78524e-05
5 *445:8 *455:26 0.000288088
6 *445:8 *1135:75 0.000288087
*RES
1 *2810:Y *445:8 41.339 
2 *445:8 *2813:A1 40.3193 
*END

*D_NET *446 0.00691344
*CONN
*I *2813:A2 I *D sg13g2_a21oi_1
*I *2811:Y O *D sg13g2_a22oi_1
*CAP
1 *2813:A2 0
2 *2811:Y 6.4331e-05
3 *446:14 0.00194343
4 *446:8 0.00200776
5 *446:14 *2802:A2 0.000976963
6 *446:14 *2813:B1 0
7 *446:14 *3695:A 0
8 *446:14 *725:46 0
9 *446:14 *843:62 0.000340288
10 *446:14 *907:25 0.000339608
11 *446:14 *907:46 0
12 *446:14 *1128:69 0.000466279
13 *446:14 *1129:56 2.20966e-05
14 *2813:A1 *446:14 4.78524e-05
15 *393:31 *446:14 0
16 *422:16 *446:8 0
17 *439:8 *446:14 0.000704829
*RES
1 *2811:Y *446:8 40.5356 
2 *446:8 *446:14 39.7966 
3 *446:14 *2813:A2 20 
*END

*D_NET *447 0.00184309
*CONN
*I *2813:B1 I *D sg13g2_a21oi_1
*I *2812:Y O *D sg13g2_o21ai_1
*CAP
1 *2813:B1 0.000159513
2 *2812:Y 0.000314659
3 *447:8 0.000474173
4 *447:8 *2816:A1 0.000288379
5 *447:8 *776:27 0.000606369
6 *389:41 *447:8 0
7 *446:14 *2813:B1 0
*RES
1 *2812:Y *447:8 44.0582 
2 *447:8 *2813:B1 41.2926 
*END

*D_NET *448 0.0015618
*CONN
*I *2817:A1 I *D sg13g2_a21oi_1
*I *2814:Y O *D sg13g2_a21oi_1
*CAP
1 *2817:A1 7.2249e-05
2 *2814:Y 0.000337862
3 *448:10 0.000410111
4 *2817:A1 *449:14 1.54556e-05
5 *2817:A1 *721:77 0
6 *2817:A1 *743:21 0.000112548
7 *448:10 *2814:A1 1.54556e-05
8 *448:10 *2814:B1 0.000258514
9 *448:10 *450:10 0
10 *448:10 *746:23 0
11 *448:10 *832:56 0.000339602
*RES
1 *2814:Y *448:10 43.3269 
2 *448:10 *2817:A1 40.7519 
*END

*D_NET *449 0.00552013
*CONN
*I *2817:A2 I *D sg13g2_a21oi_1
*I *2815:Y O *D sg13g2_a22oi_1
*CAP
1 *2817:A2 0
2 *2815:Y 0.000207403
3 *449:14 0.0010383
4 *449:8 0.0012457
5 *449:8 *452:10 0
6 *449:8 *846:29 0.000112162
7 *449:14 *458:14 0
8 *449:14 *721:77 0.000402437
9 *449:14 *743:21 0
10 *449:14 *1085:14 0.0019795
11 *2805:A2 *449:8 7.91347e-05
12 *2817:A1 *449:14 1.54556e-05
13 *441:12 *449:14 0.000440035
*RES
1 *2815:Y *449:8 41.8334 
2 *449:8 *449:14 31.948 
3 *449:14 *2817:A2 20 
*END

*D_NET *450 0.00178913
*CONN
*I *2817:B1 I *D sg13g2_a21oi_1
*I *2816:Y O *D sg13g2_o21ai_1
*CAP
1 *2817:B1 1.96128e-05
2 *2816:Y 0.000633843
3 *450:10 0.000653456
4 *2817:B1 *743:21 3.1684e-05
5 *450:10 *2816:B1 8.00842e-05
6 *450:10 *746:23 0.000370455
7 *450:10 *773:23 0
8 *450:10 *837:29 0
9 *389:41 *450:10 0
10 *448:10 *450:10 0
*RES
1 *2816:Y *450:10 45.3045 
2 *450:10 *2817:B1 40.2112 
*END

*D_NET *451 0.000749081
*CONN
*I *2821:A1 I *D sg13g2_a21oi_1
*I *2818:Y O *D sg13g2_a21oi_1
*CAP
1 *2821:A1 0.000213618
2 *2818:Y 0.000213618
3 *2821:A1 *2818:B1 0
4 *2821:A1 *452:26 0.000144768
5 *2821:A1 *719:30 0
6 *2821:A1 *1140:37 0
7 *267:10 *2821:A1 0.000177077
*RES
1 *2818:Y *2821:A1 42.2145 
*END

*D_NET *452 0.0161867
*CONN
*I *2821:A2 I *D sg13g2_a21oi_1
*I *2819:Y O *D sg13g2_a22oi_1
*CAP
1 *2821:A2 0
2 *2819:Y 0.00117432
3 *452:26 0.00260831
4 *452:20 0.00361255
5 *452:16 0.00110039
6 *452:10 0.00127047
7 *452:10 *3177:RESET_B 0.000207912
8 *452:10 *3633:A 0
9 *452:10 *744:41 0
10 *452:10 *846:29 0
11 *452:10 *846:38 0
12 *452:10 *846:64 0
13 *452:10 *852:10 0
14 *452:10 *854:30 0.000112128
15 *452:16 *720:43 0
16 *452:16 *1085:14 0.000230627
17 *452:20 *2804:A1 0
18 *452:20 *726:10 0
19 *452:20 *744:41 0.0014957
20 *452:26 *2784:A1 0
21 *452:26 *719:30 0.000144768
22 *452:26 *767:29 0
23 *452:26 *770:22 0
24 *452:26 *770:28 0.0037997
25 *452:26 *772:27 0
26 *2821:A1 *452:26 0.000144768
27 *258:8 *452:26 0
28 *424:8 *452:26 0.000285099
29 *441:12 *452:20 0
30 *449:8 *452:10 0
*RES
1 *2819:Y *452:10 31.1858 
2 *452:10 *452:16 41.0918 
3 *452:16 *452:20 30.0528 
4 *452:20 *452:26 47.2744 
5 *452:26 *2821:A2 20 
*END

*D_NET *453 0.00247285
*CONN
*I *2821:B1 I *D sg13g2_a21oi_1
*I *2820:Y O *D sg13g2_o21ai_1
*CAP
1 *2821:B1 7.90101e-05
2 *2820:Y 0.000360229
3 *453:10 0.000439239
4 *2821:B1 *1140:37 0.000144768
5 *453:10 *2820:B1 0.000144894
6 *453:10 *702:33 0
7 *453:10 *767:29 0
8 *453:10 *770:28 0.000818821
9 *267:10 *2821:B1 0.000144768
10 *267:10 *453:10 0.000341119
*RES
1 *2820:Y *453:10 44.7792 
2 *453:10 *2821:B1 40.9682 
*END

*D_NET *454 0.00059861
*CONN
*I *2825:A1 I *D sg13g2_a21oi_1
*I *2822:Y O *D sg13g2_a21oi_1
*CAP
1 *2825:A1 3.31742e-05
2 *2822:Y 0.000125074
3 *454:8 0.000158249
4 *2825:A1 *905:81 4.78028e-05
5 *454:8 *455:26 0.000234311
6 *454:8 *773:23 0
*RES
1 *2822:Y *454:8 41.339 
2 *454:8 *2825:A1 40.3193 
*END

*D_NET *455 0.0159714
*CONN
*I *2825:A2 I *D sg13g2_a21oi_1
*I *2823:Y O *D sg13g2_a22oi_1
*CAP
1 *2825:A2 0
2 *2823:Y 0.0016484
3 *455:26 0.0018169
4 *455:22 0.00322269
5 *455:14 0.00305419
6 *455:14 *2778:A2 0.000110994
7 *455:14 *2778:B1 0
8 *455:14 *2811:B1 1.54008e-05
9 *455:14 *2835:A2 3.22653e-05
10 *455:14 *3177:D 0
11 *455:14 *736:32 0
12 *455:14 *737:39 0
13 *455:14 *744:41 0
14 *455:14 *782:22 0
15 *455:14 *830:10 0
16 *455:14 *840:8 4.76068e-05
17 *455:14 *846:14 0.000466851
18 *455:14 *846:64 0.000456667
19 *455:14 *852:10 0.000337159
20 *455:14 *852:18 0.000445297
21 *455:14 *852:94 2.14475e-05
22 *455:22 *2804:A1 0
23 *455:22 *3177:CLK 0
24 *455:22 *700:69 0
25 *455:22 *721:71 0
26 *455:22 *773:23 0
27 *455:22 *834:30 0
28 *455:22 *907:12 0.000445584
29 *455:26 *2814:A1 0
30 *455:26 *2818:B1 0
31 *455:26 *2822:A2 0.000181608
32 *455:26 *773:23 0
33 *455:26 *831:71 0.000340704
34 *455:26 *831:92 0
35 *455:26 *841:18 0.000287343
36 *455:26 *841:83 0.000763218
37 *455:26 *843:20 0
38 *455:26 *979:33 0
39 *2805:A1 *455:14 0
40 *2805:A2 *455:14 0.000143652
41 *388:18 *455:22 0
42 *388:18 *455:26 0.00156343
43 *393:31 *455:14 4.76243e-05
44 *445:8 *455:26 0.000288088
45 *454:8 *455:26 0.000234311
*RES
1 *2823:Y *455:14 36.2122 
2 *455:14 *455:22 31.8656 
3 *455:22 *455:26 41.3622 
4 *455:26 *2825:A2 20 
*END

*D_NET *456 0.001125
*CONN
*I *2825:B1 I *D sg13g2_a21oi_1
*I *2824:Y O *D sg13g2_o21ai_1
*CAP
1 *2825:B1 0
2 *2824:Y 0.000385101
3 *456:12 0.000385101
4 *456:12 *3187:RESET_B 1.54008e-05
5 *456:12 *773:23 0
6 *456:12 *835:52 0
7 *456:12 *837:21 0.000339398
8 *456:12 *843:125 0
*RES
1 *2824:Y *456:12 44.2024 
2 *456:12 *2825:B1 40 
*END

*D_NET *457 0.000425325
*CONN
*I *2829:A1 I *D sg13g2_a21oi_1
*I *2826:Y O *D sg13g2_a21oi_1
*CAP
1 *2829:A1 3.49027e-05
2 *2826:Y 0.000113636
3 *457:10 0.000148539
4 *2829:A1 *2829:B1 0
5 *2829:A1 *719:30 0
6 *457:10 *832:23 0
7 *269:12 *457:10 0.000128247
*RES
1 *2826:Y *457:10 41.4111 
2 *457:10 *2829:A1 40.3193 
*END

*D_NET *458 0.0133524
*CONN
*I *2829:A2 I *D sg13g2_a21oi_1
*I *2827:Y O *D sg13g2_a22oi_1
*CAP
1 *2829:A2 0
2 *2827:Y 0.00117236
3 *458:14 0.00267002
4 *458:12 0.00267002
5 *458:10 0.00117236
6 *458:10 *2827:A1 0
7 *458:10 *736:53 0
8 *458:10 *737:39 0
9 *458:10 *848:21 0
10 *458:10 *1130:35 0.000886161
11 *458:14 *2831:B2 0
12 *458:14 *3467:A 0
13 *458:14 *697:287 0
14 *458:14 *697:301 0
15 *458:14 *736:45 0.0003365
16 *458:14 *905:50 0
17 *458:14 *1085:14 0
18 *458:14 *1129:56 0.00366595
19 *458:14 *1141:52 0
20 *389:31 *458:14 0
21 *422:16 *458:10 0.000337824
22 *441:12 *458:14 0.000441253
23 *449:14 *458:14 0
*RES
1 *2827:Y *458:10 31.8038 
2 *458:10 *458:12 20 
3 *458:12 *458:14 30.2614 
4 *458:14 *2829:A2 40 
*END

*D_NET *459 0.00172955
*CONN
*I *2829:B1 I *D sg13g2_a21oi_1
*I *2828:Y O *D sg13g2_o21ai_1
*CAP
1 *2829:B1 0.000223223
2 *2828:Y 0.000484907
3 *459:10 0.00070813
4 *2829:B1 *2826:B1 1.54556e-05
5 *2829:B1 *719:30 0
6 *2829:B1 *832:23 0
7 *459:10 *775:23 0
8 *459:10 *780:16 0
9 *459:10 *905:65 0
10 *459:10 *905:81 1.54556e-05
11 *459:10 *1139:54 0.00023464
12 *459:10 *1139:62 4.77425e-05
13 *459:10 *1142:39 0
14 *2829:A1 *2829:B1 0
15 *389:31 *2829:B1 0
*RES
1 *2828:Y *459:10 44.8101 
2 *459:10 *2829:B1 41.9673 
*END

*D_NET *460 0.00592022
*CONN
*I *2833:A1 I *D sg13g2_a21oi_1
*I *2830:Y O *D sg13g2_a21oi_1
*CAP
1 *2833:A1 0
2 *2830:Y 6.40138e-05
3 *460:16 0.00265234
4 *460:10 0.00271636
5 *460:10 *829:20 7.57164e-05
6 *460:10 *840:40 0
7 *460:10 *1125:42 0
8 *460:16 *2768:A1 0
9 *460:16 *2839:A2 0
10 *460:16 *464:12 0
11 *460:16 *467:16 0
12 *460:16 *745:18 0
13 *460:16 *754:31 0.000175709
14 *460:16 *770:39 0
15 *460:16 *834:81 0
16 *460:16 *840:40 0
17 *460:16 *846:14 0
18 *460:16 *852:18 0
19 *460:16 *901:86 0
20 *460:16 *907:29 0.000236081
21 *460:16 *1125:42 0
22 *460:16 *1130:35 0
23 *460:16 *1132:46 0
24 *392:12 *460:16 0
25 *392:14 *460:16 0
26 *392:26 *460:16 0
27 *412:12 *460:16 0
28 *414:8 *460:16 0
*RES
1 *2830:Y *460:10 40.9167 
2 *460:10 *460:16 44.0299 
3 *460:16 *2833:A1 20 
*END

*D_NET *461 0.00184976
*CONN
*I *2833:A2 I *D sg13g2_a21oi_1
*I *2831:Y O *D sg13g2_a22oi_1
*CAP
1 *2833:A2 0
2 *2831:Y 0.000492986
3 *461:10 0.000492986
4 *461:10 *2831:A2 0
5 *461:10 *467:16 0.000655594
6 *461:10 *720:53 0
7 *461:10 *725:56 0.000208195
8 *392:12 *461:10 0
*RES
1 *2831:Y *461:10 44.9028 
2 *461:10 *2833:A2 40 
*END

*D_NET *462 0.00201816
*CONN
*I *2833:B1 I *D sg13g2_a21oi_1
*I *2832:Y O *D sg13g2_o21ai_1
*CAP
1 *2833:B1 4.07233e-05
2 *2832:Y 0.00022379
3 *462:10 0.000264513
4 *2833:B1 *754:31 6.39133e-05
5 *462:10 *2832:B1 7.98097e-05
6 *462:10 *467:16 0.00060077
7 *462:10 *725:56 0.000144025
8 *462:10 *1126:52 0.000600615
*RES
1 *2832:Y *462:10 43.7904 
2 *462:10 *2833:B1 40.4274 
*END

*D_NET *463 0.000605459
*CONN
*I *2837:A1 I *D sg13g2_a21oi_1
*I *2834:Y O *D sg13g2_a21oi_1
*CAP
1 *2837:A1 0.000271134
2 *2834:Y 0.000271134
3 *2837:A1 *2837:A2 1.54556e-05
4 *2837:A1 *1139:62 0
5 *2837:A1 *1142:39 0
6 *2837:A1 *1146:41 4.77347e-05
7 *271:10 *2837:A1 0
*RES
1 *2834:Y *2837:A1 43.0591 
*END

*D_NET *464 0.00963422
*CONN
*I *2837:A2 I *D sg13g2_a21oi_1
*I *2835:Y O *D sg13g2_a22oi_1
*CAP
1 *2837:A2 0.00023821
2 *2835:Y 6.35312e-05
3 *464:12 0.00304878
4 *464:10 0.0028741
5 *2837:A2 *832:110 0
6 *2837:A2 *1139:62 0
7 *2837:A2 *1146:41 0
8 *464:10 *2835:A2 0
9 *464:10 *846:38 3.14953e-05
10 *464:12 *2839:A2 0
11 *464:12 *2844:A1 0
12 *464:12 *2844:A2 0.000969994
13 *464:12 *471:14 0
14 *464:12 *718:44 0
15 *464:12 *723:102 0
16 *464:12 *745:18 0
17 *464:12 *781:10 0
18 *464:12 *781:27 0
19 *464:12 *785:23 0
20 *464:12 *832:33 0
21 *464:12 *832:110 0
22 *464:12 *836:10 0
23 *464:12 *836:12 0
24 *464:12 *837:44 0.000393012
25 *464:12 *846:44 0.000654738
26 *464:12 *1125:42 0.0013449
27 *464:12 *1132:46 0
28 *464:12 *1146:49 0
29 *464:12 *1147:26 0
30 *2837:A1 *2837:A2 1.54556e-05
31 *460:16 *464:12 0
*RES
1 *2835:Y *464:10 40.7467 
2 *464:10 *464:12 31.9918 
3 *464:12 *2837:A2 42.266 
*END

*D_NET *465 0.000390885
*CONN
*I *2837:B1 I *D sg13g2_a21oi_1
*I *2836:Y O *D sg13g2_o21ai_1
*CAP
1 *2837:B1 0
2 *2836:Y 0.000195443
3 *465:8 0.000195443
4 *465:8 *781:10 0
5 *465:8 *784:25 0
*RES
1 *2836:Y *465:8 42.0806 
2 *465:8 *2837:B1 40 
*END

*D_NET *466 0.000539876
*CONN
*I *2841:A1 I *D sg13g2_a21oi_1
*I *2838:Y O *D sg13g2_a21oi_1
*CAP
1 *2841:A1 5.40375e-05
2 *2838:Y 0.000175795
3 *466:10 0.000229833
4 *2841:A1 *751:39 0
5 *2841:A1 *1133:45 8.02102e-05
6 *466:10 *468:8 0
7 *466:10 *751:39 0
8 *466:10 *781:10 0
*RES
1 *2838:Y *466:10 41.442 
2 *466:10 *2841:A1 40.5356 
*END

*D_NET *467 0.00581512
*CONN
*I *2841:A2 I *D sg13g2_a21oi_1
*I *2839:Y O *D sg13g2_a22oi_1
*CAP
1 *2841:A2 0
2 *2839:Y 0.000224738
3 *467:16 0.00150469
4 *467:8 0.00172942
5 *467:8 *744:41 0
6 *467:8 *793:14 4.77425e-05
7 *467:8 *1132:46 0
8 *467:16 *3191:CLK 0.00039332
9 *467:16 *703:10 0.000583766
10 *467:16 *751:39 7.50805e-05
11 *467:16 *781:10 0
12 *467:16 *1126:52 0
13 *392:12 *467:16 0
14 *425:28 *467:8 0
15 *460:16 *467:16 0
16 *461:10 *467:16 0.000655594
17 *462:10 *467:16 0.00060077
*RES
1 *2839:Y *467:8 42.0497 
2 *467:8 *467:16 36.0989 
3 *467:16 *2841:A2 20 
*END

*D_NET *468 0.000914621
*CONN
*I *2841:B1 I *D sg13g2_a21oi_1
*I *2840:Y O *D sg13g2_o21ai_1
*CAP
1 *2841:B1 0
2 *2840:Y 0.000366507
3 *468:8 0.000366507
4 *468:8 *751:39 0.000181608
5 *468:8 *841:58 0
6 *392:12 *468:8 0
7 *466:10 *468:8 0
*RES
1 *2840:Y *468:8 43.3166 
2 *468:8 *2841:B1 40 
*END

*D_NET *469 0.00126987
*CONN
*I *2845:A1 I *D sg13g2_a21oi_1
*I *2842:Y O *D sg13g2_a21oi_1
*CAP
1 *2845:A1 6.14373e-05
2 *2842:Y 0.000263436
3 *469:8 0.000324874
4 *2845:A1 *3197:RESET_B 1.54008e-05
5 *469:8 *476:12 0.000604726
6 *469:8 *481:12 0
*RES
1 *2842:Y *469:8 42.8222 
2 *469:8 *2845:A1 40.5356 
*END

*D_NET *470 0.00148356
*CONN
*I *2845:A2 I *D sg13g2_a21oi_1
*I *2843:Y O *D sg13g2_a22oi_1
*CAP
1 *2845:A2 0
2 *2843:Y 0.000320855
3 *470:10 0.000320855
4 *470:10 *2851:A2 0
5 *470:10 *3634:A 0
6 *470:10 *476:12 0.000234185
7 *470:10 *804:18 8.00842e-05
8 *391:63 *470:10 0.000447498
9 *425:18 *470:10 8.00842e-05
*RES
1 *2843:Y *470:10 43.914 
2 *470:10 *2845:A2 40 
*END

*D_NET *471 0.00123444
*CONN
*I *2845:B1 I *D sg13g2_a21oi_1
*I *2844:Y O *D sg13g2_o21ai_1
*CAP
1 *2845:B1 0.000272549
2 *2844:Y 0
3 *471:14 0.000479936
4 *471:6 0.000207387
5 *2845:B1 *3197:RESET_B 0
6 *2845:B1 *748:31 0
7 *2845:B1 *753:28 0.000274567
8 *471:14 *1125:48 0
9 *273:14 *2845:B1 0
10 *464:12 *471:14 0
*RES
1 *2844:Y *471:6 40 
2 *471:6 *471:14 41.9673 
3 *471:14 *2845:B1 42.7243 
*END

*D_NET *472 0.0013307
*CONN
*I *2849:A1 I *D sg13g2_a21oi_1
*I *2846:Y O *D sg13g2_a21oi_1
*CAP
1 *2849:A1 0.000411303
2 *2846:Y 0.000411303
3 *2849:A1 *3609:A 1.54285e-05
4 *2849:A1 *1145:54 0.000492661
*RES
1 *2846:Y *2849:A1 44.017 
*END

*D_NET *473 0.00870738
*CONN
*I *2849:A2 I *D sg13g2_a21oi_1
*I *2847:Y O *D sg13g2_a22oi_1
*CAP
1 *2849:A2 0
2 *2847:Y 7.45137e-05
3 *473:14 0.00160824
4 *473:8 0.00168275
5 *473:8 *2847:B1 4.77083e-05
6 *473:8 *2847:A1 3.15716e-05
7 *473:8 *815:20 3.15716e-05
8 *473:8 *853:33 0
9 *473:14 *2867:B1 0.000232418
10 *473:14 *3205:CLK 0.000553662
11 *473:14 *485:22 0
12 *473:14 *485:32 0
13 *473:14 *486:12 0.00039332
14 *473:14 *703:55 0.00150461
15 *473:14 *746:27 0.00170632
16 *473:14 *750:31 0
17 *473:14 *791:21 0
18 *473:14 *847:14 0.000127853
19 *473:14 *848:90 0
20 *473:14 *854:59 0
21 *473:14 *907:99 0
22 *473:14 *1136:64 0
23 *473:14 *1139:62 0.000712845
*RES
1 *2847:Y *473:8 40.7519 
2 *473:8 *473:14 40.9399 
3 *473:14 *2849:A2 20 
*END

*D_NET *474 0.00199823
*CONN
*I *2849:B1 I *D sg13g2_a21oi_1
*I *2848:Y O *D sg13g2_o21ai_1
*CAP
1 *2849:B1 0
2 *2848:Y 0.000500834
3 *474:10 0.000500834
4 *474:10 *3610:A 8.00842e-05
5 *474:10 *719:36 0.000468045
6 *474:10 *791:21 0.000448428
7 *474:10 *1139:62 0
8 *474:10 *1140:56 0
*RES
1 *2848:Y *474:10 45.6444 
2 *474:10 *2849:B1 40 
*END

*D_NET *475 0.00133088
*CONN
*I *2853:A1 I *D sg13g2_a21oi_1
*I *2850:Y O *D sg13g2_a21oi_1
*CAP
1 *2853:A1 0.000326308
2 *2850:Y 0.000326308
3 *2853:A1 *2853:B1 0.000403945
4 *2853:A1 *2866:B1 0
5 *2853:A1 *476:18 0.00027432
6 *2853:A1 *786:8 0
*RES
1 *2850:Y *2853:A1 43.5638 
*END

*D_NET *476 0.0125699
*CONN
*I *2853:A2 I *D sg13g2_a21oi_1
*I *2851:Y O *D sg13g2_a22oi_1
*CAP
1 *2853:A2 0
2 *2851:Y 0.000664839
3 *476:18 0.00156656
4 *476:12 0.0022314
5 *476:12 *2842:A2 0.00028545
6 *476:12 *2855:B1 0.000177442
7 *476:12 *481:12 0
8 *476:18 *2860:A1 0.000712014
9 *476:18 *2866:B1 0
10 *476:18 *479:10 0
11 *476:18 *480:10 0.000392957
12 *476:18 *481:12 0
13 *476:18 *488:20 0.000112426
14 *476:18 *704:43 0
15 *476:18 *788:37 0
16 *476:18 *789:23 0.001276
17 *476:18 *854:14 0
18 *476:18 *1144:36 0
19 *476:18 *1148:43 0.00166783
20 *2853:A1 *476:18 0.00027432
21 *276:8 *476:12 0
22 *276:8 *476:18 0.00012794
23 *391:28 *476:18 0.00224185
24 *391:63 *476:12 0
25 *469:8 *476:12 0.000604726
26 *470:10 *476:12 0.000234185
*RES
1 *2851:Y *476:12 47.416 
2 *476:12 *476:18 42.9484 
3 *476:18 *2853:A2 20 
*END

*D_NET *477 0.0019435
*CONN
*I *2853:B1 I *D sg13g2_a21oi_1
*I *2852:Y O *D sg13g2_o21ai_1
*CAP
1 *2853:B1 0.00030651
2 *2852:Y 0.000383414
3 *477:10 0.000689924
4 *2853:B1 *786:8 1.54008e-05
5 *2853:B1 *1139:62 0
6 *477:10 *2868:B1 0.000144311
7 *477:10 *3201:RESET_B 0
8 *477:10 *704:43 0
9 *477:10 *788:37 0
10 *2853:A1 *2853:B1 0.000403945
11 *3209:D *2853:B1 0
*RES
1 *2852:Y *477:10 43.0488 
2 *477:10 *2853:B1 43.0488 
*END

*D_NET *478 0.00863978
*CONN
*I *2857:A1 I *D sg13g2_a21oi_1
*I *2854:Y O *D sg13g2_a21oi_1
*CAP
1 *2857:A1 0
2 *2854:Y 0.000239978
3 *478:26 7.87415e-05
4 *478:18 0.00236308
5 *478:8 0.00252431
6 *478:8 *733:60 0.000177109
7 *478:8 *752:69 0
8 *478:8 *798:10 0
9 *478:18 *703:44 0
10 *478:18 *723:102 0
11 *478:18 *733:45 7.35141e-05
12 *478:18 *733:60 0
13 *478:18 *736:53 0
14 *478:18 *748:39 0.000179006
15 *478:18 *782:22 0
16 *478:18 *851:25 0.000106392
17 *478:18 *851:27 0.000708853
18 *478:18 *1144:36 0.000494451
19 *478:26 *2855:B1 7.52149e-05
20 *478:26 *1144:36 7.57164e-05
21 *261:8 *478:18 0.000234311
22 *273:14 *478:18 0
23 *391:63 *478:18 0.00112878
24 *425:28 *478:18 0.000180329
*RES
1 *2854:Y *478:8 42.266 
2 *478:8 *478:18 44.1123 
3 *478:18 *478:26 40.8858 
4 *478:26 *2857:A1 20 
*END

*D_NET *479 0.00125492
*CONN
*I *2857:A2 I *D sg13g2_a21oi_1
*I *2855:Y O *D sg13g2_a22oi_1
*CAP
1 *2857:A2 0
2 *2855:Y 0.000242156
3 *479:10 0.000242156
4 *479:10 *2855:B1 0.000488534
5 *479:10 *2855:B2 4.77425e-05
6 *479:10 *480:10 0.000234329
7 *479:10 *1144:36 0
8 *476:18 *479:10 0
*RES
1 *2855:Y *479:10 42.8634 
2 *479:10 *2857:A2 40 
*END

*D_NET *480 0.00248834
*CONN
*I *2857:B1 I *D sg13g2_a21oi_1
*I *2856:Y O *D sg13g2_o21ai_1
*CAP
1 *2857:B1 3.11082e-05
2 *2856:Y 0.000389396
3 *480:10 0.000420504
4 *480:10 *2855:B1 2.20966e-05
5 *480:10 *2856:A2 0.000370417
6 *480:10 *726:52 0.000499745
7 *480:10 *907:86 8.00473e-05
8 *391:40 *2857:B1 4.77425e-05
9 *476:18 *480:10 0.000392957
10 *479:10 *480:10 0.000234329
*RES
1 *2856:Y *480:10 45.1809 
2 *480:10 *2857:B1 40.3193 
*END

*D_NET *481 0.0109964
*CONN
*I *2861:A1 I *D sg13g2_a21oi_1
*I *2858:Y O *D sg13g2_a21oi_1
*CAP
1 *2861:A1 0.000392124
2 *2858:Y 0.000105322
3 *481:12 0.00362771
4 *481:8 0.00334091
5 *2861:A1 *2861:A2 7.09348e-05
6 *2861:A1 *2861:B1 0
7 *2861:A1 *1133:45 0.000370666
8 *2861:A1 *1135:85 0
9 *481:8 *2858:A1 0.00014474
10 *481:8 *2858:B1 0.000144179
11 *481:12 *2856:A1 0
12 *481:12 *488:10 0
13 *481:12 *488:20 0
14 *481:12 *730:65 0.00076208
15 *481:12 *752:69 0
16 *481:12 *804:18 0
17 *481:12 *853:14 0
18 *481:12 *853:33 0
19 *3205:D *2861:A1 2.21754e-05
20 *276:8 *481:12 0.000231326
21 *391:28 *481:12 0.00160395
22 *391:36 *481:12 0.000180314
23 *425:18 *481:12 0
24 *469:8 *481:12 0
25 *476:12 *481:12 0
26 *476:18 *481:12 0
*RES
1 *2858:Y *481:8 41.1845 
2 *481:8 *481:12 48.531 
3 *481:12 *2861:A1 23.8316 
*END

*D_NET *482 0.00146586
*CONN
*I *2861:A2 I *D sg13g2_a21oi_1
*I *2859:Y O *D sg13g2_a22oi_1
*CAP
1 *2861:A2 0.000447526
2 *2859:Y 0.000447526
3 *2861:A2 *751:54 0.000499871
4 *2861:A2 *1135:85 0
5 *2861:A1 *2861:A2 7.09348e-05
*RES
1 *2859:Y *2861:A2 44.4934 
*END

*D_NET *483 0.00246719
*CONN
*I *2861:B1 I *D sg13g2_a21oi_1
*I *2860:Y O *D sg13g2_o21ai_1
*CAP
1 *2861:B1 0.0002727
2 *2860:Y 0.000401558
3 *483:10 0.000674258
4 *2861:B1 *3205:RESET_B 0
5 *2861:B1 *486:12 0.000209583
6 *2861:B1 *906:8 0
7 *2861:B1 *1135:85 0
8 *483:10 *2860:A1 0
9 *483:10 *488:20 0.00039332
10 *483:10 *854:10 0.000209374
11 *483:10 *1135:85 0
12 *2861:A1 *2861:B1 0
13 *3205:D *2861:B1 0
14 *3421:A *483:10 9.69481e-05
15 *391:24 *483:10 0.000209451
16 *391:28 *483:10 0
*RES
1 *2860:Y *483:10 44.532 
2 *483:10 *2861:B1 42.6018 
*END

*D_NET *484 0.00303445
*CONN
*I *2865:A1 I *D sg13g2_a21oi_1
*I *2862:Y O *D sg13g2_a21oi_1
*CAP
1 *2865:A1 0.00060213
2 *2862:Y 0.0002776
3 *484:8 0.000879729
4 *2865:A1 *2865:B1 0
5 *2865:A1 *3695:A 0.000274211
6 *2865:A1 *485:32 0.000112757
7 *2865:A1 *788:31 0.000338086
8 *2865:A1 *1131:31 0
9 *2865:A1 *1133:59 1.54556e-05
10 *2865:A1 *1141:52 0.000242077
11 *484:8 *2859:B1 0.000179892
12 *484:8 *788:37 0
13 *484:8 *832:37 0
14 *3207:D *2865:A1 0.000112514
*RES
1 *2862:Y *484:8 42.3278 
2 *484:8 *2865:A1 46.2418 
*END

*D_NET *485 0.00622071
*CONN
*I *2865:A2 I *D sg13g2_a21oi_1
*I *2863:Y O *D sg13g2_a22oi_1
*CAP
1 *2865:A2 0
2 *2863:Y 0.000169287
3 *485:32 0.000225541
4 *485:22 0.00138094
5 *485:14 0.00127263
6 *485:8 0.000286517
7 *485:8 *753:43 0
8 *485:8 *847:14 3.23417e-05
9 *485:8 *847:22 4.77425e-05
10 *485:8 *848:98 4.6975e-05
11 *485:8 *871:16 0.000144401
12 *485:14 *1125:48 0.00021124
13 *485:14 *1137:66 0
14 *485:22 *2863:A2 0.000127853
15 *485:22 *2867:B1 0.000210322
16 *485:22 *488:10 0.000707192
17 *485:22 *488:20 0
18 *485:22 *703:55 0.000602565
19 *485:22 *847:14 0.000127853
20 *485:22 *853:14 0.00012816
21 *485:22 *1131:43 0.000176872
22 *485:32 *3695:A 0
23 *485:32 *907:99 0
24 *485:32 *1133:59 0
25 gpio_dir[22] *485:22 0.000209526
26 *2865:A1 *485:32 0.000112757
27 *473:14 *485:22 0
28 *473:14 *485:32 0
*RES
1 *2863:Y *485:8 41.6171 
2 *485:8 *485:14 41.4008 
3 *485:14 *485:22 31.9583 
4 *485:22 *485:32 42.4102 
5 *485:32 *2865:A2 20 
*END

*D_NET *486 0.00270322
*CONN
*I *2865:B1 I *D sg13g2_a21oi_1
*I *2864:Y O *D sg13g2_o21ai_1
*CAP
1 *2865:B1 0.000119019
2 *2864:Y 0.000536792
3 *486:12 0.000655811
4 *2865:B1 *751:54 0.0002095
5 *2865:B1 *1133:59 1.54556e-05
6 *486:12 *2862:A2 1.54008e-05
7 *486:12 *3205:RESET_B 0
8 *486:12 *906:8 0
9 *486:12 *1133:45 0
10 *2861:B1 *486:12 0.000209583
11 *2865:A1 *2865:B1 0
12 *3205:D *486:12 0.000403556
13 *3207:D *2865:B1 0.000144783
14 *473:14 *486:12 0.00039332
*RES
1 *2864:Y *486:12 46.18 
2 *486:12 *2865:B1 41.4008 
*END

*D_NET *487 0.00063857
*CONN
*I *2869:A1 I *D sg13g2_a21oi_1
*I *2866:Y O *D sg13g2_a21oi_1
*CAP
1 *2869:A1 0.000311557
2 *2866:Y 0.000311557
3 *2869:A1 *2866:B1 0
4 *2869:A1 *3209:RESET_B 0
5 *2869:A1 *488:20 1.54556e-05
6 *2869:A1 *842:12 0
7 *2869:A1 *843:125 0
8 *2869:A1 *1146:60 0
*RES
1 *2866:Y *2869:A1 43.4608 
*END

*D_NET *488 0.0085959
*CONN
*I *2869:A2 I *D sg13g2_a21oi_1
*I *2867:Y O *D sg13g2_a22oi_1
*CAP
1 *2869:A2 0
2 *2867:Y 0.000284011
3 *488:20 0.00232034
4 *488:10 0.00260435
5 *488:20 *2856:A1 0.000499492
6 *488:20 *2860:A1 0
7 *488:20 *2866:A1 0.000584925
8 *488:20 *703:55 0
9 *488:20 *719:36 0.000128248
10 *488:20 *788:31 0.000234224
11 *488:20 *789:23 0
12 *488:20 *791:21 0
13 *488:20 *842:12 0
14 *488:20 *843:125 0
15 *488:20 *925:8 0.000711927
16 *488:20 *1139:62 0
17 *2869:A1 *488:20 1.54556e-05
18 *3209:D *488:20 0
19 *391:36 *488:20 0
20 *476:18 *488:20 0.000112426
21 *481:12 *488:10 0
22 *481:12 *488:20 0
23 *483:10 *488:20 0.00039332
24 *485:22 *488:10 0.000707192
25 *485:22 *488:20 0
*RES
1 *2867:Y *488:10 43.6359 
2 *488:10 *488:20 43.8033 
3 *488:20 *2869:A2 20 
*END

*D_NET *489 0.00033883
*CONN
*I *2869:B1 I *D sg13g2_a21oi_1
*I *2868:Y O *D sg13g2_o21ai_1
*CAP
1 *2869:B1 0
2 *2868:Y 0.000169415
3 *489:8 0.000169415
4 *489:8 *791:21 0
5 *489:8 *842:8 0
*RES
1 *2868:Y *489:8 41.8334 
2 *489:8 *2869:B1 40 
*END

*D_NET *490 0.000564616
*CONN
*I *2871:B I *D sg13g2_nand2_1
*I *2870:Y O *D sg13g2_nand3b_1
*CAP
1 *2871:B 0.000269987
2 *2870:Y 0.000269987
3 *2871:B *3145:RESET_B 2.46413e-05
4 *2871:B *763:32 0
5 *3211:D *2871:B 0
6 *390:8 *2871:B 0
*RES
1 *2870:Y *2871:B 42.9767 
*END

*D_NET *491 0.00521458
*CONN
*I *3143:A2 I *D sg13g2_o21ai_1
*I *2873:C I *D sg13g2_nor3_1
*I *2872:Y O *D sg13g2_nand2_1
*CAP
1 *3143:A2 0.000255571
2 *2873:C 0.000388594
3 *2872:Y 0.000373044
4 *491:10 0.00101721
5 *2873:C *3589:A 0.000208386
6 *2873:C *493:20 0
7 *2873:C *990:14 0
8 *2873:C *1107:8 0.000652261
9 *2873:C *1124:45 0.000124547
10 *3143:A2 *2878:A 0
11 *3143:A2 *714:39 0.000112769
12 *3143:A2 *764:57 1.54008e-05
13 *3143:A2 *1049:14 0.000306579
14 *491:10 *2872:A 4.77425e-05
15 *491:10 *2872:B 0.000144673
16 *491:10 *714:20 0
17 *491:10 *1024:8 0.000183877
18 *491:10 *1107:8 0.000557296
19 *491:10 *1124:26 0.0001122
20 *2873:B *2873:C 0.000209147
21 *282:12 *491:10 0.000505285
*RES
1 *2872:Y *491:10 45.2427 
2 *491:10 *2873:C 44.4702 
3 *491:10 *3143:A2 42.6986 
*END

*D_NET *492 0.0118333
*CONN
*I *3396:A I *D sg13g2_buf_1
*I *3391:A I *D sg13g2_buf_1
*I *2873:Y O *D sg13g2_nor3_1
*CAP
1 *3396:A 0.000277834
2 *3391:A 6.2988e-05
3 *2873:Y 0.00042067
4 *492:20 0.00225261
5 *492:16 0.00278276
6 *492:12 0.000735977
7 *3391:A *521:27 0
8 *3391:A *820:27 0
9 *3396:A *2720:A 0
10 *3396:A *2721:A 0
11 *3396:A *3303:RESET_B 9.72884e-05
12 *3396:A *3491:A 0
13 *3396:A *821:10 0
14 *3396:A *825:10 0
15 *492:12 *3588:A 0
16 *492:12 *764:31 0
17 *492:12 *1106:14 0.000397371
18 *492:12 *1108:14 0.000112426
19 *492:16 *3303:RESET_B 0.000466257
20 *492:16 *1064:10 0
21 *492:20 *535:12 0.00259366
22 *492:20 *626:10 0
23 *492:20 *635:10 0.000769446
24 *492:20 *708:69 0.000291717
25 *492:20 *809:108 0.000234931
26 *492:20 *821:14 0
27 *492:20 *867:84 0
28 *492:20 *1104:10 0.000337384
29 *492:20 *1120:10 0
30 *492:20 *1121:10 0
31 *2873:B *492:12 0
32 *3481:A *492:16 0
33 *365:8 *492:20 0
34 *381:12 *3396:A 0
*RES
1 *2873:Y *492:12 44.2333 
2 *492:12 *492:16 23.1312 
3 *492:16 *492:20 45.3174 
4 *492:20 *3391:A 40.5356 
5 *492:16 *3396:A 22.329 
*END

*D_NET *493 0.0220971
*CONN
*I *3386:A I *D sg13g2_buf_1
*I *3383:A I *D sg13g2_buf_1
*I *3380:A I *D sg13g2_buf_1
*I *2874:Y O *D sg13g2_nand4_1
*CAP
1 *3386:A 0.000668307
2 *3383:A 2.67103e-05
3 *3380:A 0
4 *2874:Y 0.000219876
5 *493:56 0.0015181
6 *493:48 0.00209207
7 *493:28 0.00417022
8 *493:22 0.00433234
9 *493:20 0.000971776
10 *493:12 0.00229851
11 *3383:A *3587:A 1.54556e-05
12 *3383:A *877:19 0
13 *3383:A *886:97 4.78521e-05
14 *3386:A *3026:B1 0
15 *3386:A *3026:A2 0
16 *3386:A *3034:A1 0.000242182
17 *3386:A *812:6 4.77425e-05
18 *3386:A *813:16 0
19 *3386:A *813:27 0
20 *493:12 *714:20 0
21 *493:12 *990:14 0.000210627
22 *493:12 *1124:45 0.000140177
23 *493:20 *811:16 0.00012927
24 *493:20 *990:14 7.34889e-05
25 *493:20 *1034:16 0
26 *493:20 *1107:8 0
27 *493:20 *1124:45 2.14736e-05
28 *493:22 *764:31 0
29 *493:22 *1120:10 0
30 *493:28 *3135:A2 0.000214938
31 *493:28 *3341:CLK 0.000826092
32 *493:28 *3570:A 0.000399098
33 *493:28 *624:10 0
34 *493:28 *671:25 7.65288e-05
35 *493:28 *764:31 0
36 *493:28 *820:16 0.000234461
37 *493:28 *820:27 0
38 *493:28 *889:31 0
39 *493:28 *1060:18 0.000496436
40 *493:28 *1075:26 0
41 *493:28 *1092:8 0
42 *493:28 *1118:12 0
43 *493:28 *1120:10 0
44 *493:48 *979:12 0
45 *493:48 *990:16 0.00192108
46 *493:56 *3311:CLK 0
47 *493:56 *709:75 0.000371965
48 *2873:C *493:20 0
49 *3504:A *493:56 0
50 *373:24 *3386:A 0
51 *376:14 *3386:A 0.000330281
52 *376:14 *493:56 0
*RES
1 *2874:Y *493:12 42.1939 
2 *493:12 *493:20 49.1052 
3 *493:20 *493:22 1.0918 
4 *493:22 *493:28 38.3469 
5 *493:28 *3380:A 40 
6 *493:22 *3383:A 40.3193 
7 *493:12 *493:48 32.6484 
8 *493:48 *493:56 47.8692 
9 *493:56 *3386:A 27.4469 
*END

*D_NET *494 0.000617921
*CONN
*I *3475:A I *D sg13g2_dlygate4sd3_1
*I *2876:X O *D sg13g2_a21o_1
*CAP
1 *3475:A 2.32363e-05
2 *2876:X 9.45723e-05
3 *494:10 0.000117809
4 *3475:A *1048:16 4.77425e-05
5 *494:10 *3592:A 0
6 *494:10 *765:18 0.000126358
7 *494:10 *1048:16 0
8 *494:10 *1076:12 8.0194e-05
9 *494:10 *1124:26 0.00012801
*RES
1 *2876:X *494:10 41.3493 
2 *494:10 *3475:A 40.3193 
*END

*D_NET *495 0.00248332
*CONN
*I *3144:C I *D sg13g2_nand3_1
*I *2878:B I *D sg13g2_and3_1
*I *2877:Y O *D sg13g2_nand2_1
*CAP
1 *3144:C 0.000134926
2 *2878:B 0.000218728
3 *2877:Y 0.000355534
4 *495:8 0.000709188
5 *2878:B *3144:B 0
6 *2878:B *895:100 1.57249e-05
7 *2878:B *1124:14 0
8 *3144:C *3144:B 0.000257659
9 *3144:C *1124:14 0
10 *495:8 *982:10 0.000614396
11 *3473:A *3144:C 0.000177164
12 *347:8 *2878:B 0
*RES
1 *2877:Y *495:8 44.3054 
2 *495:8 *2878:B 41.9055 
3 *495:8 *3144:C 41.6171 
*END

*D_NET *496 0.0146706
*CONN
*I *2896:A2 I *D sg13g2_a21oi_1
*I *2900:A2 I *D sg13g2_a21oi_1
*I *2884:A2 I *D sg13g2_a21oi_1
*I *2904:A2 I *D sg13g2_a21oi_1
*I *2880:A2 I *D sg13g2_a21oi_1
*I *2892:A2 I *D sg13g2_a21oi_1
*I *2908:A2 I *D sg13g2_a21oi_1
*I *2888:A2 I *D sg13g2_a21oi_1
*I *2879:Y O *D sg13g2_nor3_1
*CAP
1 *2896:A2 0.000393311
2 *2900:A2 0
3 *2884:A2 0
4 *2904:A2 0
5 *2880:A2 0
6 *2892:A2 0
7 *2908:A2 0.000349716
8 *2888:A2 0.000380637
9 *2879:Y 4.72978e-05
10 *496:104 0.000303756
11 *496:94 0.000965276
12 *496:83 0.00117238
13 *496:68 0.00157539
14 *496:50 0.000682964
15 *496:40 0.000682964
16 *496:27 0.000925364
17 *496:19 0.00141836
18 *496:6 0.000599425
19 *2888:A2 *2879:A 0.000323735
20 *2888:A2 *2879:B 0
21 *2888:A2 *3221:CLK 0.000404071
22 *2888:A2 *822:12 8.00842e-05
23 *2888:A2 *822:16 0
24 *2888:A2 *883:104 0.000274622
25 *2896:A2 *3219:CLK 0
26 *2896:A2 *1130:66 8.03091e-05
27 *2896:A2 *1135:46 0
28 *2908:A2 *2880:A1 0
29 *2908:A2 *2892:A1 0.0001447
30 *2908:A2 *497:8 0.000181695
31 *2908:A2 *499:8 0
32 *2908:A2 *710:49 0
33 *2908:A2 *747:32 0
34 *2908:A2 *822:37 0.000209117
35 *496:19 *2879:B 0
36 *496:19 *3221:CLK 0.000171356
37 *496:27 *498:10 0
38 *496:27 *520:16 0
39 *496:27 *710:8 0.000128248
40 *496:27 *710:21 0
41 *496:27 *896:10 0
42 *496:50 *2880:A1 1.54008e-05
43 *496:50 *2880:B1 0
44 *496:50 *2892:A1 0.000532942
45 *496:50 *499:8 0
46 *496:50 *747:28 0
47 *496:50 *898:67 0
48 *496:50 *898:86 0.00017735
49 *496:68 *2904:A1 1.54008e-05
50 *496:68 *822:16 0.000209384
51 *496:68 *822:78 0.000694267
52 *496:68 *824:18 0
53 *496:83 *2904:A1 0.00012873
54 *496:83 *3229:CLK 0
55 *496:83 *822:78 0.00014413
56 *496:83 *822:95 0.000145031
57 *496:83 *822:108 1.54008e-05
58 *496:83 *824:18 0
59 *496:83 *1135:46 0
60 *496:94 *3219:CLK 0
61 *496:94 *822:108 0
62 *496:94 *1135:46 8.03091e-05
63 *496:104 *2900:A1 0.000338601
64 *496:104 *797:33 0.000340288
65 *496:104 *1134:27 0.000338601
*RES
1 *2879:Y *496:6 20.5974 
2 *496:6 *2888:A2 24.429 
3 *496:6 *496:19 21.8128 
4 *496:19 *496:27 6.0358 
5 *496:27 *2908:A2 43.605 
6 *496:27 *496:40 20 
7 *496:40 *496:50 47.1688 
8 *496:50 *2892:A2 20 
9 *496:40 *2880:A2 20 
10 *496:19 *496:68 27.0452 
11 *496:68 *2904:A2 20 
12 *496:68 *496:83 49.0846 
13 *496:83 *2884:A2 20 
14 *496:83 *496:94 3.09 
15 *496:94 *496:104 44.017 
16 *496:104 *2900:A2 20 
17 *496:94 *2896:A2 23.9346 
*END

*D_NET *497 0.0014056
*CONN
*I *2883:A I *D sg13g2_nor2_1
*I *2880:Y O *D sg13g2_a21oi_1
*CAP
1 *2883:A 0.00013098
2 *2880:Y 0.000123396
3 *497:8 0.000254376
4 *2883:A *3223:CLK 0.000240488
5 *2883:A *748:31 0.000240502
6 *497:8 *499:8 0
7 *497:8 *710:23 0
8 *497:8 *745:10 0.000234162
9 *2908:A2 *497:8 0.000181695
*RES
1 *2880:Y *497:8 41.8334 
2 *497:8 *2883:A 41.6171 
*END

*D_NET *498 0.0015461
*CONN
*I *2882:A2 I *D sg13g2_o21ai_1
*I *2881:Y O *D sg13g2_nand4_1
*CAP
1 *2882:A2 0
2 *2881:Y 0.000642255
3 *498:10 0.000642255
4 *498:10 *747:28 0
5 *498:10 *814:12 0
6 *498:10 *824:12 0
7 *498:10 *824:18 0
8 *498:10 *858:54 0
9 *498:10 *896:10 0.00018128
10 *498:10 *1135:32 8.03091e-05
11 *496:27 *498:10 0
*RES
1 *2881:Y *498:10 47.0658 
2 *498:10 *2882:A2 40 
*END

*D_NET *499 0.000653163
*CONN
*I *2883:B I *D sg13g2_nor2_1
*I *2882:Y O *D sg13g2_o21ai_1
*CAP
1 *2883:B 0
2 *2882:Y 0.000326582
3 *499:8 0.000326582
4 *499:8 *745:10 0
5 *499:8 *747:28 0
6 *499:8 *898:59 0
7 *2908:A2 *499:8 0
8 *496:50 *499:8 0
9 *497:8 *499:8 0
*RES
1 *2882:Y *499:8 43.3166 
2 *499:8 *2883:B 40 
*END

*D_NET *500 0.000198475
*CONN
*I *2887:A I *D sg13g2_nor2_1
*I *2884:Y O *D sg13g2_a21oi_1
*CAP
1 *2887:A 9.92373e-05
2 *2884:Y 9.92373e-05
3 *2887:A *822:95 0
4 *2887:A *824:18 0
*RES
1 *2884:Y *2887:A 41.133 
*END

*D_NET *501 0.00127118
*CONN
*I *2886:A2 I *D sg13g2_o21ai_1
*I *2885:Y O *D sg13g2_nand4_1
*CAP
1 *2886:A2 0.000224348
2 *2885:Y 0.000102163
3 *501:8 0.000326511
4 *2886:A2 *2886:A1 0.000112535
5 *2886:A2 *858:92 8.01118e-05
6 *2886:A2 *908:43 8.00842e-05
7 *2886:A2 *1134:27 0
8 *2886:A2 *1135:46 0
9 *501:8 *766:55 0
10 *501:8 *790:38 0.000345425
*RES
1 *2885:Y *501:8 41.5862 
2 *501:8 *2886:A2 42.266 
*END

*D_NET *502 0.00132011
*CONN
*I *2887:B I *D sg13g2_nor2_1
*I *2886:Y O *D sg13g2_o21ai_1
*CAP
1 *2887:B 0
2 *2886:Y 0.000482722
3 *502:10 0.000482722
4 *502:10 *908:43 1.54008e-05
5 *502:10 *1134:27 0
6 *502:10 *1135:46 0.000339267
*RES
1 *2886:Y *502:10 45.3354 
2 *502:10 *2887:B 40 
*END

*D_NET *503 0.000334748
*CONN
*I *2891:A I *D sg13g2_nor2_1
*I *2888:Y O *D sg13g2_a21oi_1
*CAP
1 *2891:A 0.000167374
2 *2888:Y 0.000167374
3 *2891:A *697:188 0
4 *2891:A *1135:32 0
5 *285:10 *2891:A 0
*RES
1 *2888:Y *2891:A 41.6171 
*END

*D_NET *504 0.000842885
*CONN
*I *2890:A2 I *D sg13g2_o21ai_1
*I *2889:Y O *D sg13g2_nand4_1
*CAP
1 *2890:A2 4.18655e-05
2 *2889:Y 0.000208691
3 *504:8 0.000250557
4 *2890:A2 *2890:B1 8.03692e-05
5 *2890:A2 *2890:A1 8.02102e-05
6 *504:8 *858:10 0
7 *504:8 *874:21 5.30319e-05
8 *504:8 *874:27 0.00012816
*RES
1 *2889:Y *504:8 42.0806 
2 *504:8 *2890:A2 40.5356 
*END

*D_NET *505 0.000594109
*CONN
*I *2891:B I *D sg13g2_nor2_1
*I *2890:Y O *D sg13g2_o21ai_1
*CAP
1 *2891:B 0
2 *2890:Y 0.000297054
3 *505:8 0.000297054
4 *505:8 *708:19 0
5 *505:8 *883:100 0
6 *285:10 *505:8 0
*RES
1 *2890:Y *505:8 43.5638 
2 *505:8 *2891:B 40 
*END

*D_NET *506 0.000204853
*CONN
*I *2895:A I *D sg13g2_nor2_1
*I *2892:Y O *D sg13g2_a21oi_1
*CAP
1 *2895:A 0.000102426
2 *2892:Y 0.000102426
3 *2895:A *898:67 0
*RES
1 *2892:Y *2895:A 41.133 
*END

*D_NET *507 0.000947533
*CONN
*I *2894:A2 I *D sg13g2_o21ai_1
*I *2893:Y O *D sg13g2_nand4_1
*CAP
1 *2894:A2 0
2 *2893:Y 0.000268023
3 *507:10 0.000268023
4 *507:10 *2893:D 1.54008e-05
5 *507:10 *3436:A 0.000144872
6 *507:10 *812:14 0.000176396
7 *507:10 *812:16 7.48178e-05
8 *507:10 *814:12 0
9 *507:10 *870:23 0
*RES
1 *2893:Y *507:10 42.7089 
2 *507:10 *2894:A2 40 
*END

*D_NET *508 0.00349014
*CONN
*I *2895:B I *D sg13g2_nor2_1
*I *2894:Y O *D sg13g2_o21ai_1
*CAP
1 *2895:B 0
2 *2894:Y 0
3 *508:10 0.00148555
4 *508:6 0.00148555
5 *508:10 *2882:A1 0
6 *508:10 *2890:A1 0.000497577
7 *508:10 *747:8 0
8 *508:10 *748:8 0
9 *508:10 *812:16 2.14736e-05
10 *508:10 *814:12 0
11 *508:10 *883:100 0
12 *508:10 *883:110 0
13 *508:10 *898:59 0
14 *508:10 *898:67 0
15 *508:10 *1020:8 0
16 *285:10 *508:10 0
*RES
1 *2894:Y *508:6 40 
2 *508:6 *508:10 35.1822 
3 *508:10 *2895:B 20 
*END

*D_NET *509 0.000726412
*CONN
*I *2899:A I *D sg13g2_nor2_1
*I *2896:Y O *D sg13g2_a21oi_1
*CAP
1 *2899:A 4.28726e-05
2 *2896:Y 9.63203e-05
3 *509:8 0.000139193
4 *2899:A *1130:66 8.01773e-05
5 *2899:A *1135:46 8.01773e-05
6 *509:8 *800:22 0.000287672
*RES
1 *2896:Y *509:8 41.339 
2 *509:8 *2899:A 40.5356 
*END

*D_NET *510 0.00302525
*CONN
*I *2898:A2 I *D sg13g2_o21ai_1
*I *2897:Y O *D sg13g2_nand4_1
*CAP
1 *2898:A2 0.000414912
2 *2897:Y 0.000106804
3 *510:8 0.000521716
4 *2898:A2 *2898:B1 0.000404076
5 *2898:A2 *2898:A1 0.000436418
6 *2898:A2 *2903:B 0
7 *2898:A2 *2906:A1 0
8 *510:8 *2885:B 0.000291899
9 *510:8 *790:38 0.000559304
10 *510:8 *870:59 0.000290118
*RES
1 *2897:Y *510:8 42.575 
2 *510:8 *2898:A2 44.429 
*END

*D_NET *511 0.00295077
*CONN
*I *2899:B I *D sg13g2_nor2_1
*I *2898:Y O *D sg13g2_o21ai_1
*CAP
1 *2899:B 0.000451704
2 *2898:Y 0.000162044
3 *511:8 0.000613748
4 *2899:B *1134:27 0.000792152
5 *2899:B *1135:46 0.000588675
6 *511:8 *2900:A1 0.00034245
7 *511:8 *797:33 0
*RES
1 *2898:Y *511:8 42.3278 
2 *511:8 *2899:B 45.2942 
*END

*D_NET *512 0.000326856
*CONN
*I *2903:A I *D sg13g2_nor2_1
*I *2900:Y O *D sg13g2_a21oi_1
*CAP
1 *2903:A 4.75997e-05
2 *2900:Y 0.000115828
3 *512:8 0.000163428
4 *2903:A *2900:A1 0
5 *2903:A *2900:B1 0
6 *2903:A *2903:B 0
7 *512:8 *2900:B1 0
*RES
1 *2900:Y *512:8 41.339 
2 *512:8 *2903:A 40.5356 
*END

*D_NET *513 0.0016942
*CONN
*I *2902:A2 I *D sg13g2_o21ai_1
*I *2901:Y O *D sg13g2_nand4_1
*CAP
1 *2902:A2 0
2 *2901:Y 0.000536962
3 *513:10 0.000536962
4 *513:10 *3037:B 0
5 *513:10 *3362:A 0
6 *513:10 *697:240 0
7 *513:10 *812:59 7.30101e-05
8 *513:10 *858:62 0
9 *513:10 *870:32 0
10 *513:10 *875:58 0.000531812
11 *513:10 *888:74 0
12 *2901:A *513:10 1.54556e-05
*RES
1 *2901:Y *513:10 45.15 
2 *513:10 *2902:A2 40 
*END

*D_NET *514 0.0045641
*CONN
*I *2903:B I *D sg13g2_nor2_1
*I *2902:Y O *D sg13g2_o21ai_1
*CAP
1 *2903:B 0.000983645
2 *2902:Y 0.000253462
3 *514:18 0.00140378
4 *514:12 0.000673597
5 *2903:B *2898:A1 0.000436418
6 *2903:B *2900:A1 0
7 *2903:B *3017:C 0
8 *2903:B *3018:A2 8.0057e-05
9 *2903:B *3227:RESET_B 0
10 *2903:B *697:264 0
11 *2903:B *875:65 0
12 *514:12 *2905:C 0
13 *514:12 *516:10 0.000345124
14 *514:12 *870:44 7.84876e-05
15 *514:18 *1133:27 0
16 *514:18 *1143:14 0.000309525
17 *2898:A2 *2903:B 0
18 *2903:A *2903:B 0
19 *378:14 *2903:B 0
20 *378:14 *514:12 0
*RES
1 *2902:Y *514:12 42.6883 
2 *514:12 *514:18 45.0779 
3 *514:18 *2903:B 49.9704 
*END

*D_NET *515 0.000952806
*CONN
*I *2907:A I *D sg13g2_nor2_1
*I *2904:Y O *D sg13g2_a21oi_1
*CAP
1 *2907:A 7.69254e-05
2 *2904:Y 5.51732e-05
3 *515:8 0.000132099
4 *2907:A *2907:B 0
5 *2907:A *822:78 0.000112558
6 *515:8 *898:97 0.000288379
7 *515:8 *1011:8 0.000287672
*RES
1 *2904:Y *515:8 41.339 
2 *515:8 *2907:A 40.7519 
*END

*D_NET *516 0.00200363
*CONN
*I *2906:A2 I *D sg13g2_o21ai_1
*I *2905:Y O *D sg13g2_nand4_1
*CAP
1 *2906:A2 9.30983e-05
2 *2905:Y 0.000532375
3 *516:10 0.000625473
4 *2906:A2 *2906:B1 0.000144946
5 *2906:A2 *2906:A1 1.54556e-05
6 *2906:A2 *599:10 0
7 *516:10 *2905:C 0
8 *516:10 *859:21 0
9 *516:10 *870:40 0.000126412
10 *516:10 *872:63 0
11 *516:10 *875:58 0
12 *373:32 *516:10 0.000120752
13 *514:12 *516:10 0.000345124
*RES
1 *2905:Y *516:10 45.0882 
2 *516:10 *2906:A2 40.9682 
*END

*D_NET *517 0.00173323
*CONN
*I *2907:B I *D sg13g2_nor2_1
*I *2906:Y O *D sg13g2_o21ai_1
*CAP
1 *2907:B 0.000153578
2 *2906:Y 0.000339936
3 *517:10 0.000493514
4 *2907:B *711:37 0
5 *2907:B *822:78 0
6 *517:10 *2906:B1 1.54556e-05
7 *517:10 *2906:A1 0
8 *517:10 *697:234 0
9 *517:10 *898:97 0.000554272
10 *517:10 *1134:27 0.000176475
11 *2907:A *2907:B 0
*RES
1 *2906:Y *517:10 43.7595 
2 *517:10 *2907:B 41.1845 
*END

*D_NET *518 0.000203379
*CONN
*I *2911:A I *D sg13g2_nor2_1
*I *2908:Y O *D sg13g2_a21oi_1
*CAP
1 *2911:A 0.00010169
2 *2908:Y 0.00010169
3 *2911:A *520:16 0
4 *2911:A *710:49 0
5 *2911:A *710:60 0
*RES
1 *2908:Y *2911:A 41.133 
*END

*D_NET *519 0.000950746
*CONN
*I *2910:A2 I *D sg13g2_o21ai_1
*I *2909:Y O *D sg13g2_nand4_1
*CAP
1 *2910:A2 0.000355247
2 *2909:Y 0.000355247
3 *2910:A2 *2909:C 0
4 *2910:A2 *2910:B1 8.00842e-05
5 *2910:A2 *812:59 1.54008e-05
6 *2910:A2 *858:62 0
7 *2910:A2 *869:56 0.000144768
8 *2910:A2 *896:57 0
*RES
1 *2909:Y *2910:A2 43.6462 
*END

*D_NET *520 0.00485868
*CONN
*I *2911:B I *D sg13g2_nor2_1
*I *2910:Y O *D sg13g2_o21ai_1
*CAP
1 *2911:B 0
2 *2910:Y 2.90123e-05
3 *520:16 0.00108417
4 *520:8 0.00111318
5 *520:8 *2910:B1 1.54008e-05
6 *520:16 *2880:A1 0
7 *520:16 *3014:A1 0.000446352
8 *520:16 *3221:CLK 0
9 *520:16 *710:8 0.000181695
10 *520:16 *710:21 0.000446767
11 *520:16 *710:49 0
12 *520:16 *711:12 0.000181192
13 *520:16 *711:18 0
14 *520:16 *888:74 0
15 *520:16 *896:32 0.00129777
16 *520:16 *898:86 1.54008e-05
17 *520:16 *898:97 0
18 *2911:A *520:16 0
19 *378:14 *520:8 4.77425e-05
20 *496:27 *520:16 0
*RES
1 *2910:Y *520:8 40.3193 
2 *520:8 *520:16 33.1325 
3 *520:16 *2911:B 20 
*END

*D_NET *521 0.0134482
*CONN
*I *2933:A2 I *D sg13g2_a21oi_1
*I *2937:A2 I *D sg13g2_a21oi_1
*I *2921:A2 I *D sg13g2_a21oi_1
*I *2941:A2 I *D sg13g2_a21oi_1
*I *2929:A2 I *D sg13g2_a21oi_1
*I *2925:A2 I *D sg13g2_a21oi_1
*I *2917:A2 I *D sg13g2_a21oi_1
*I *2913:A2 I *D sg13g2_a21oi_1
*I *2912:Y O *D sg13g2_nor3_1
*CAP
1 *2933:A2 0
2 *2937:A2 0
3 *2921:A2 0.000350163
4 *2941:A2 0.000125819
5 *2929:A2 0
6 *2925:A2 0.000329966
7 *2917:A2 0.000153464
8 *2913:A2 0.000402187
9 *2912:Y 0.000621849
10 *521:100 0.000254757
11 *521:94 0.00051194
12 *521:64 0.000620512
13 *521:60 0.000870394
14 *521:53 0.000739844
15 *521:27 0.000905805
16 *521:12 0.000903595
17 *521:10 0.000972046
18 *2913:A2 *736:14 0.000371184
19 *2913:A2 *816:36 1.54556e-05
20 *2913:A2 *816:51 0.00100154
21 *2913:A2 *1121:14 0
22 *2917:A2 *2917:A1 1.53311e-05
23 *2921:A2 *2936:B 0
24 *2921:A2 *816:70 9.6255e-06
25 *2921:A2 *816:85 0.000174569
26 *2921:A2 *891:109 1.53311e-05
27 *2925:A2 *2917:A1 0
28 *2925:A2 *2925:A1 1.54008e-05
29 *2925:A2 *809:31 0
30 *2925:A2 *891:81 0.000112141
31 *2941:A2 *545:8 0.000286886
32 *2941:A2 *736:14 4.78192e-05
33 *2941:A2 *816:85 4.77425e-05
34 *2941:A2 *891:65 0
35 *521:10 *2912:A 0.000304254
36 *521:10 *529:8 0
37 *521:10 *809:46 0
38 *521:10 *857:47 0
39 *521:10 *886:43 1.54282e-05
40 *521:10 *1121:10 0
41 *521:12 *816:51 0.000105445
42 *521:27 *820:16 0
43 *521:27 *891:81 0
44 *521:53 *816:51 0.000497436
45 *521:53 *816:70 1.53311e-05
46 *521:53 *891:71 0.000497436
47 *521:60 *2936:B 0.000305185
48 *521:60 *816:70 0.000224766
49 *521:60 *891:71 0.000625917
50 *521:60 *891:109 0.000192759
51 *521:64 *2943:A1 0.000341031
52 *521:64 *544:14 0.000393891
53 *521:64 *545:8 2.16263e-05
54 *521:64 *891:109 0
55 *521:94 *2936:A 0
56 *521:94 *2936:B 3.23417e-05
57 *521:94 *816:100 0
58 *521:100 *2943:A1 0
59 *521:100 *3247:CLK 0
60 *521:100 *742:21 0
61 *2922:A *521:10 0
62 *3391:A *521:27 0
63 *295:10 *2913:A2 0
64 *296:8 *521:64 0
65 *356:22 *521:94 0
*RES
1 *2912:Y *521:10 45.8607 
2 *521:10 *521:12 0.8446 
3 *521:12 *2913:A2 45.5517 
4 *521:12 *521:27 23.9964 
5 *521:27 *2917:A2 21.8437 
6 *521:27 *2925:A2 23.5329 
7 *521:10 *521:53 23.3475 
8 *521:53 *2929:A2 20 
9 *521:53 *521:60 5.9431 
10 *521:60 *521:64 22.3278 
11 *521:64 *2941:A2 41.6583 
12 *521:64 *2921:A2 43.8313 
13 *521:60 *521:94 2.3999 
14 *521:94 *521:100 42.3278 
15 *521:100 *2937:A2 20 
16 *521:94 *2933:A2 20 
*END

*D_NET *522 0.00199608
*CONN
*I *2916:A I *D sg13g2_nor2_1
*I *2913:Y O *D sg13g2_a21oi_1
*CAP
1 *2916:A 0
2 *2913:Y 0.000430983
3 *522:10 0.000430983
4 *522:10 *527:10 0.000237307
5 *522:10 *735:8 0.000498467
6 *522:10 *1119:18 0.000398338
7 *358:14 *522:10 0
*RES
1 *2913:Y *522:10 45.1809 
2 *522:10 *2916:A 40 
*END

*D_NET *523 0.00290236
*CONN
*I *2915:A2 I *D sg13g2_o21ai_1
*I *2914:Y O *D sg13g2_nand4_1
*CAP
1 *2915:A2 0.000152566
2 *2914:Y 0.000423389
3 *523:10 0.000575954
4 *2915:A2 *809:20 0.000207843
5 *2915:A2 *891:87 0.000176249
6 *2915:A2 *1051:10 0
7 *523:10 *3569:A 0.000177241
8 *523:10 *526:12 0
9 *523:10 *809:12 0.000107631
10 *523:10 *809:14 0.000361235
11 *523:10 *809:20 0.000282079
12 *523:10 *861:22 2.20248e-05
13 *523:10 *873:39 0.000335935
14 *523:10 *1089:12 8.0216e-05
*RES
1 *2914:Y *523:10 44.9955 
2 *523:10 *2915:A2 41.6171 
*END

*D_NET *524 0.00138163
*CONN
*I *2916:B I *D sg13g2_nor2_1
*I *2915:Y O *D sg13g2_o21ai_1
*CAP
1 *2916:B 0
2 *2915:Y 0.00015699
3 *524:8 0.00015699
4 *524:8 *527:10 0.000602235
5 *524:8 *708:82 0.000230263
6 *524:8 *1119:18 0.000235154
*RES
1 *2915:Y *524:8 42.8222 
2 *524:8 *2916:B 40 
*END

*D_NET *525 0.000639157
*CONN
*I *2920:A I *D sg13g2_nor2_1
*I *2917:Y O *D sg13g2_a21oi_1
*CAP
1 *2920:A 0.000263524
2 *2917:Y 0.000263524
3 *2920:A *3239:RESET_B 0
4 *2920:A *736:14 0
5 *292:10 *2920:A 0.000112108
*RES
1 *2917:Y *2920:A 42.6986 
*END

*D_NET *526 0.00301441
*CONN
*I *2919:A2 I *D sg13g2_o21ai_1
*I *2918:Y O *D sg13g2_nand4_1
*CAP
1 *2919:A2 0.000232701
2 *2918:Y 0.000602458
3 *526:12 0.000835158
4 *2919:A2 *2919:B1 0.000175967
5 *2919:A2 *2919:A1 0.000207677
6 *2919:A2 *739:14 0
7 *2919:A2 *1060:18 1.53311e-05
8 *526:12 *532:16 7.52746e-05
9 *526:12 *821:34 0
10 *526:12 *867:16 0.000129089
11 *526:12 *873:39 0
12 *526:12 *1023:18 4.80489e-05
13 *526:12 *1074:18 4.76068e-05
14 *526:12 *1075:14 0.000124547
15 *2914:A *526:12 0.000505148
16 *370:24 *526:12 1.54008e-05
17 *523:10 *526:12 0
*RES
1 *2918:Y *526:12 46.1182 
2 *526:12 *2919:A2 42.266 
*END

*D_NET *527 0.00268363
*CONN
*I *2920:B I *D sg13g2_nor2_1
*I *2919:Y O *D sg13g2_o21ai_1
*CAP
1 *2920:B 3.27226e-05
2 *2919:Y 0.000411668
3 *527:10 0.00044439
4 *2920:B *735:8 0
5 *527:10 *2925:B1 0.000337243
6 *527:10 *739:14 0.000279309
7 *527:10 *861:22 0
8 *291:10 *527:10 0.000291013
9 *292:10 *2920:B 4.77425e-05
10 *522:10 *527:10 0.000237307
11 *524:8 *527:10 0.000602235
*RES
1 *2919:Y *527:10 45.8607 
2 *527:10 *2920:B 40.3193 
*END

*D_NET *528 0.000282044
*CONN
*I *2924:A I *D sg13g2_nor2_1
*I *2921:Y O *D sg13g2_a21oi_1
*CAP
1 *2924:A 0.0001009
2 *2921:Y 0.0001009
3 *2924:A *736:14 8.02431e-05
4 *2924:A *737:14 0
5 *2924:A *816:85 0
*RES
1 *2921:Y *2924:A 41.133 
*END

*D_NET *529 0.00160595
*CONN
*I *2923:A2 I *D sg13g2_o21ai_1
*I *2922:Y O *D sg13g2_nand4_1
*CAP
1 *2923:A2 0.000267821
2 *2922:Y 0.00027588
3 *529:8 0.000543701
4 *2923:A2 *2923:A1 7.18392e-05
5 *2923:A2 *809:46 0
6 *529:8 *809:54 0.000446711
7 *521:10 *529:8 0
*RES
1 *2922:Y *529:8 42.3846 
2 *529:8 *2923:A2 42.7192 
*END

*D_NET *530 0.00175437
*CONN
*I *2924:B I *D sg13g2_nor2_1
*I *2923:Y O *D sg13g2_o21ai_1
*CAP
1 *2924:B 0
2 *2923:Y 0.000708915
3 *530:10 0.000708915
4 *530:10 *539:8 0
5 *530:10 *737:27 0
6 *530:10 *816:70 0
7 *530:10 *861:59 0
8 *530:10 *883:85 0
9 *530:10 *891:65 0
10 *293:8 *530:10 0
11 *356:22 *530:10 0.000336544
*RES
1 *2923:Y *530:10 46.8186 
2 *530:10 *2924:B 40 
*END

*D_NET *531 0.00100946
*CONN
*I *2928:A I *D sg13g2_nor2_1
*I *2925:Y O *D sg13g2_a21oi_1
*CAP
1 *2928:A 0.000409136
2 *2925:Y 0.000409136
3 *2928:A *2708:A 1.54008e-05
4 *2928:A *2925:A1 0
5 *2928:A *3239:RESET_B 0
6 *2928:A *3239:CLK 0.000175783
7 *2928:A *1051:10 0
*RES
1 *2925:Y *2928:A 44.1509 
*END

*D_NET *532 0.00202795
*CONN
*I *2927:A2 I *D sg13g2_o21ai_1
*I *2926:Y O *D sg13g2_nand4_1
*CAP
1 *2927:A2 5.18137e-05
2 *2926:Y 0.000414203
3 *532:16 0.000466017
4 *2927:A2 *2927:B1 3.97982e-05
5 *2927:A2 *2927:A1 7.34141e-06
6 *2927:A2 *3569:A 0
7 *532:16 *2926:C 0
8 *532:16 *867:49 0.000346091
9 *532:16 *876:22 7.61961e-05
10 *532:16 *876:26 0.000399241
11 *532:16 *886:16 7.63467e-05
12 *532:16 *1089:12 0
13 *2914:A *532:16 7.56308e-05
14 *526:12 *532:16 7.52746e-05
*RES
1 *2926:Y *532:16 45.3354 
2 *532:16 *2927:A2 40.4815 
*END

*D_NET *533 0.0019234
*CONN
*I *2928:B I *D sg13g2_nor2_1
*I *2927:Y O *D sg13g2_o21ai_1
*CAP
1 *2928:B 0
2 *2927:Y 0.000503027
3 *533:10 0.000503027
4 *533:10 *3567:A 0.000207598
5 *533:10 *821:34 0
6 *533:10 *1068:14 0.000709747
7 *533:10 *1083:10 0
8 *358:10 *533:10 0
*RES
1 *2927:Y *533:10 45.2118 
2 *533:10 *2928:B 40 
*END

*D_NET *534 0.00118927
*CONN
*I *2932:A I *D sg13g2_nor2_1
*I *2929:Y O *D sg13g2_a21oi_1
*CAP
1 *2932:A 0.000372156
2 *2929:Y 0.00022248
3 *534:8 0.000594636
4 *2932:A *736:14 0
5 *2932:A *741:8 0
6 *2932:A *816:51 0
7 *295:10 *2932:A 0
*RES
1 *2929:Y *534:8 42.0806 
2 *534:8 *2932:A 42.9126 
*END

*D_NET *535 0.00579905
*CONN
*I *2931:A2 I *D sg13g2_o21ai_1
*I *2930:Y O *D sg13g2_nand4_1
*CAP
1 *2931:A2 0
2 *2930:Y 0
3 *535:12 0.0010269
4 *535:6 0.0010269
5 *535:12 *809:31 0
6 *535:12 *861:59 0
7 *535:12 *891:81 0.000328334
8 *535:12 *1121:10 0
9 *365:8 *535:12 0.000823254
10 *492:20 *535:12 0.00259366
*RES
1 *2930:Y *535:6 40 
2 *535:6 *535:12 34.1805 
3 *535:12 *2931:A2 20 
*END

*D_NET *536 0.000679345
*CONN
*I *2932:B I *D sg13g2_nor2_1
*I *2931:Y O *D sg13g2_o21ai_1
*CAP
1 *2932:B 0
2 *2931:Y 0.000339673
3 *536:8 0.000339673
4 *536:8 *816:51 0
5 *536:8 *1121:10 0
*RES
1 *2931:Y *536:8 42.8222 
2 *536:8 *2932:B 40 
*END

*D_NET *537 0.000341663
*CONN
*I *2936:A I *D sg13g2_nor2_1
*I *2933:Y O *D sg13g2_a21oi_1
*CAP
1 *2936:A 0.000170832
2 *2933:Y 0.000170832
3 *2936:A *2941:B1 0
4 *521:94 *2936:A 0
*RES
1 *2933:Y *2936:A 41.751 
*END

*D_NET *538 0.00185388
*CONN
*I *2935:A2 I *D sg13g2_o21ai_1
*I *2934:Y O *D sg13g2_nand4_1
*CAP
1 *2935:A2 0.000132991
2 *2934:Y 0.000424564
3 *538:8 0.000557555
4 *2935:A2 *2935:A1 1.53311e-05
5 *2935:A2 *883:100 0
6 *2935:A2 *894:8 1.53311e-05
7 *2935:A2 *894:12 0.000207804
8 *538:8 *857:62 0
9 *538:8 *857:88 0
10 *538:8 *873:66 0.000288087
11 *538:8 *873:99 0.000212215
12 *538:8 *877:50 0
13 *2934:A *538:8 0
*RES
1 *2934:Y *538:8 44.7998 
2 *538:8 *2935:A2 41.4008 
*END

*D_NET *539 0.00152159
*CONN
*I *2936:B I *D sg13g2_nor2_1
*I *2935:Y O *D sg13g2_o21ai_1
*CAP
1 *2936:B 0.000232185
2 *2935:Y 0.000297435
3 *539:8 0.00052962
4 *2936:B *544:14 0
5 *539:8 *544:14 0
6 *539:8 *891:65 0.000124824
7 *2921:A2 *2936:B 0
8 *521:60 *2936:B 0.000305185
9 *521:94 *2936:B 3.23417e-05
10 *530:10 *539:8 0
*RES
1 *2935:Y *539:8 43.0694 
2 *539:8 *2936:B 42.6162 
*END

*D_NET *540 0.000931825
*CONN
*I *2940:A I *D sg13g2_nor2_1
*I *2937:Y O *D sg13g2_a21oi_1
*CAP
1 *2940:A 4.5916e-05
2 *2937:Y 0.00015883
3 *540:8 0.000204746
4 *2940:A *3458:A 8.0216e-05
5 *540:8 *743:14 0
6 *297:10 *2940:A 4.78521e-05
7 *297:10 *540:8 0.000394265
*RES
1 *2937:Y *540:8 41.8334 
2 *540:8 *2940:A 40.5356 
*END

*D_NET *541 0.000740476
*CONN
*I *2939:A2 I *D sg13g2_o21ai_1
*I *2938:Y O *D sg13g2_nand4_1
*CAP
1 *2939:A2 0.000370238
2 *2938:Y 0.000370238
3 *2939:A2 *2938:C 0
4 *2939:A2 *2939:B1 0
5 *2939:A2 *873:80 0
*RES
1 *2938:Y *2939:A2 43.3063 
*END

*D_NET *542 0.000309191
*CONN
*I *2940:B I *D sg13g2_nor2_1
*I *2939:Y O *D sg13g2_o21ai_1
*CAP
1 *2940:B 0.000154596
2 *2939:Y 0.000154596
3 *2940:B *3458:A 0
4 *2940:B *873:80 0
*RES
1 *2939:Y *2940:B 41.4008 
*END

*D_NET *543 0.000708434
*CONN
*I *2944:A I *D sg13g2_nor2_1
*I *2941:Y O *D sg13g2_a21oi_1
*CAP
1 *2944:A 2.57114e-05
2 *2941:Y 4.66504e-05
3 *543:8 7.23618e-05
4 *2944:A *3243:CLK 4.78195e-05
5 *2944:A *736:14 4.77425e-05
6 *543:8 *545:8 0.000234074
7 *296:8 *543:8 0.000234074
*RES
1 *2941:Y *543:8 41.0918 
2 *543:8 *2944:A 40.3193 
*END

*D_NET *544 0.00650386
*CONN
*I *2943:A2 I *D sg13g2_o21ai_1
*I *2942:Y O *D sg13g2_nand4_1
*CAP
1 *2943:A2 0
2 *2942:Y 0.000136561
3 *544:14 0.00130321
4 *544:8 0.00143977
5 *544:14 *2943:A1 0
6 *544:14 *810:12 0
7 *544:14 *811:92 0
8 *544:14 *877:40 0
9 *544:14 *891:109 0.000526235
10 *544:14 *895:12 0.000127838
11 *544:14 *895:23 0.00108614
12 *544:14 *895:38 0.00149021
13 *2936:B *544:14 0
14 *378:14 *544:8 0
15 *379:22 *544:8 0
16 *521:64 *544:14 0.000393891
17 *539:8 *544:14 0
*RES
1 *2942:Y *544:8 41.1845 
2 *544:8 *544:14 37.9426 
3 *544:14 *2943:A2 20 
*END

*D_NET *545 0.000946247
*CONN
*I *2944:B I *D sg13g2_nor2_1
*I *2943:Y O *D sg13g2_o21ai_1
*CAP
1 *2944:B 0
2 *2943:Y 0.000201831
3 *545:8 0.000201831
4 *545:8 *891:65 0
5 *2941:A2 *545:8 0.000286886
6 *296:8 *545:8 0
7 *521:64 *545:8 2.16263e-05
8 *543:8 *545:8 0.000234074
*RES
1 *2943:Y *545:8 42.3278 
2 *545:8 *2944:B 40 
*END

*D_NET *546 0.0171195
*CONN
*I *2946:A2 I *D sg13g2_a21oi_1
*I *2966:A2 I *D sg13g2_a21oi_1
*I *2974:A2 I *D sg13g2_a21oi_1
*I *2954:A2 I *D sg13g2_a21oi_1
*I *2950:A2 I *D sg13g2_a21oi_1
*I *2970:A2 I *D sg13g2_a21oi_1
*I *2958:A2 I *D sg13g2_a21oi_1
*I *2962:A2 I *D sg13g2_a21oi_1
*I *2945:Y O *D sg13g2_nor3_1
*CAP
1 *2946:A2 2.77263e-05
2 *2966:A2 0
3 *2974:A2 0.000210633
4 *2954:A2 0
5 *2950:A2 2.60565e-05
6 *2970:A2 5.09034e-05
7 *2958:A2 2.30652e-05
8 *2962:A2 0
9 *2945:Y 7.31986e-05
10 *546:120 0.000931714
11 *546:110 0.0019834
12 *546:88 0.000808264
13 *546:67 0.00137543
14 *546:52 0.00124451
15 *546:39 0.000255371
16 *546:31 0.000926196
17 *546:20 0.000408032
18 *546:12 0.00148684
19 *546:8 0.002428
20 *2950:A2 *2950:A1 4.77425e-05
21 *2950:A2 *761:34 4.77425e-05
22 *2958:A2 *2958:A1 1.21797e-05
23 *2958:A2 *722:35 0
24 *2970:A2 *794:37 8.00842e-05
25 *2974:A2 *2954:B1 0
26 *2974:A2 *819:87 0.000179386
27 *2974:A2 *819:100 0
28 *546:8 *885:57 0
29 *546:12 *2994:A 0
30 *546:12 *3077:A 0.000209637
31 *546:12 *3271:RESET_B 0.00027432
32 *546:12 *646:14 0.000371342
33 *546:12 *755:23 0
34 *546:12 *818:87 0
35 *546:12 *883:61 8.00842e-05
36 *546:20 *722:35 0
37 *546:20 *790:38 0.000237686
38 *546:20 *818:94 1.54285e-05
39 *546:31 *2958:A1 0.000129438
40 *546:31 *722:35 0
41 *546:31 *818:94 0.000209317
42 *546:39 *2958:A1 0.000209796
43 *546:39 *712:61 0.000307057
44 *546:39 *722:45 7.52158e-05
45 *546:52 *731:8 0.000560538
46 *546:52 *808:54 0.000560796
47 *546:67 *553:10 0
48 *546:67 *555:12 0
49 *546:67 *724:43 0
50 *546:67 *761:40 0
51 *546:67 *794:37 0.000291765
52 *546:88 *2950:A1 8.01933e-05
53 *546:88 *3082:A1 0
54 *546:88 *3251:CLK 0
55 *546:88 *553:10 0
56 *546:88 *713:29 0
57 *546:88 *761:34 0.000128663
58 *546:88 *819:87 0
59 *546:88 *819:100 0
60 *546:110 *2946:A1 0
61 *546:110 *547:8 7.52158e-05
62 *546:110 *697:21 0
63 *546:110 *697:34 0
64 *546:110 *885:51 0
65 *546:110 *885:57 0
66 *546:120 *2946:A1 0
67 *546:120 *2968:B1 0
68 *546:120 *3081:A 0.000112766
69 *546:120 *3249:CLK 8.00842e-05
70 *546:120 *3259:CLK 0.000338733
71 *546:120 *697:17 0
72 *546:120 *707:60 0
73 *546:120 *723:51 0
74 *546:120 *761:26 0
75 *546:120 *819:18 0.000144898
76 *546:120 *819:24 0
77 *299:10 *546:110 0
78 *299:10 *546:120 0
79 *300:12 *546:67 0
80 *301:14 *546:88 0
81 *310:10 *546:12 0
*RES
1 *2945:Y *546:8 40.5974 
2 *546:8 *546:12 31.7832 
3 *546:12 *546:20 41.6274 
4 *546:20 *2962:A2 20 
5 *546:20 *546:31 22.8634 
6 *546:31 *546:39 43.1415 
7 *546:39 *2958:A2 40.2807 
8 *546:31 *546:52 25.5414 
9 *546:52 *2970:A2 20.5356 
10 *546:52 *546:67 48.0855 
11 *546:67 *2950:A2 20.3193 
12 *546:67 *546:88 24.4175 
13 *546:88 *2954:A2 40 
14 *546:88 *2974:A2 42.0806 
15 *546:8 *546:110 29.0434 
16 *546:110 *546:120 48.652 
17 *546:120 *2966:A2 20 
18 *546:110 *2946:A2 20.3502 
*END

*D_NET *547 0.000909939
*CONN
*I *2949:A I *D sg13g2_nor2_1
*I *2946:Y O *D sg13g2_a21oi_1
*CAP
1 *2949:A 0.000171683
2 *2946:Y 0.000157288
3 *547:8 0.000328971
4 *2949:A *724:43 0
5 *2949:A *885:47 0.000176781
6 *547:8 *3079:C 0
7 *547:8 *697:21 0
8 *547:8 *819:37 0
9 *299:10 *2949:A 0
10 *546:110 *547:8 7.52158e-05
*RES
1 *2946:Y *547:8 41.339 
2 *547:8 *2949:A 41.6171 
*END

*D_NET *548 0.00132506
*CONN
*I *2948:A2 I *D sg13g2_o21ai_1
*I *2947:Y O *D sg13g2_nand4_1
*CAP
1 *2948:A2 0.00023455
2 *2947:Y 0.000123985
3 *548:8 0.000358535
4 *2948:A2 *3279:CLK 0.000209334
5 *2948:A2 *697:63 0
6 *2948:A2 *806:16 4.77425e-05
7 *2948:A2 *885:47 0
8 *2948:A2 *892:51 8.00842e-05
9 *2948:A2 *892:64 1.54008e-05
10 *548:8 *3430:A 7.33225e-05
11 *548:8 *723:31 0
12 *548:8 *820:72 0
13 *548:8 *864:10 0.00018211
14 *362:16 *2948:A2 0
15 *363:16 *2948:A2 0
16 *363:20 *548:8 0
*RES
1 *2947:Y *548:8 41.5862 
2 *548:8 *2948:A2 42.266 
*END

*D_NET *549 0.000683304
*CONN
*I *2949:B I *D sg13g2_nor2_1
*I *2948:Y O *D sg13g2_o21ai_1
*CAP
1 *2949:B 0
2 *2948:Y 5.32712e-05
3 *549:8 5.32712e-05
4 *549:8 *3378:A 0.000288173
5 *549:8 *898:46 0.000288588
*RES
1 *2948:Y *549:8 41.339 
2 *549:8 *2949:B 40 
*END

*D_NET *550 0.000946405
*CONN
*I *2953:A I *D sg13g2_nor2_1
*I *2950:Y O *D sg13g2_a21oi_1
*CAP
1 *2953:A 5.76053e-05
2 *2950:Y 0.000243035
3 *550:8 0.000300641
4 *2953:A *723:51 0.000107529
5 *2953:A *759:42 0.00010754
6 *550:8 *552:18 0.000130055
7 *550:8 *555:12 0
8 *550:8 *795:28 0
*RES
1 *2950:Y *550:8 42.3278 
2 *550:8 *2953:A 40.7184 
*END

*D_NET *551 0.0007736
*CONN
*I *2952:A2 I *D sg13g2_o21ai_1
*I *2951:Y O *D sg13g2_nand4_1
*CAP
1 *2952:A2 0.000314605
2 *2951:Y 0.000314605
3 *2952:A2 *2951:C 0
4 *2952:A2 *2952:A1 0.000144389
5 *2952:A2 *2956:A2 0
6 *2952:A2 *697:97 0
7 *2952:A2 *761:34 0
8 *2951:A *2952:A2 0
*RES
1 *2951:Y *2952:A2 42.8949 
*END

*D_NET *552 0.00184547
*CONN
*I *2953:B I *D sg13g2_nor2_1
*I *2952:Y O *D sg13g2_o21ai_1
*CAP
1 *2953:B 0
2 *2952:Y 0.000142028
3 *552:18 0.000363191
4 *552:8 0.000505218
5 *552:8 *796:34 0.000343683
6 *552:8 *806:66 0
7 *552:18 *555:12 2.24232e-05
8 *552:18 *723:51 0.000338872
9 *552:18 *761:34 0
10 *550:8 *552:18 0.000130055
*RES
1 *2952:Y *552:8 41.5862 
2 *552:8 *552:18 43.8934 
3 *552:18 *2953:B 40 
*END

*D_NET *553 0.00196687
*CONN
*I *2957:A I *D sg13g2_nor2_1
*I *2954:Y O *D sg13g2_a21oi_1
*CAP
1 *2957:A 9.02982e-05
2 *2954:Y 0.000641108
3 *553:10 0.000731406
4 *2957:A *723:51 0
5 *2957:A *761:34 0.00014453
6 *553:10 *2950:A1 0.000236897
7 *553:10 *713:29 0
8 *553:10 *761:40 7.48178e-05
9 *553:10 *798:24 0
10 *553:10 *819:87 0
11 *301:14 *2957:A 4.7813e-05
12 *546:67 *553:10 0
13 *546:88 *553:10 0
*RES
1 *2954:Y *553:10 46.1392 
2 *553:10 *2957:A 40.9682 
*END

*D_NET *554 0.00126488
*CONN
*I *2956:A2 I *D sg13g2_o21ai_1
*I *2955:Y O *D sg13g2_nand4_1
*CAP
1 *2956:A2 0.000224403
2 *2955:Y 0.000118394
3 *554:8 0.000342797
4 *2956:A2 *2952:A1 0
5 *2956:A2 *2956:A1 0.000112535
6 *2956:A2 *819:66 0.000209451
7 *2956:A2 *900:12 8.00842e-05
8 *554:8 *790:38 0
9 *2951:A *2956:A2 0.000177219
10 *2952:A2 *2956:A2 0
11 *3083:A *554:8 0
*RES
1 *2955:Y *554:8 40.8446 
2 *554:8 *2956:A2 42.4823 
*END

*D_NET *555 0.0013671
*CONN
*I *2957:B I *D sg13g2_nor2_1
*I *2956:Y O *D sg13g2_o21ai_1
*CAP
1 *2957:B 0
2 *2956:Y 0.000518243
3 *555:12 0.000518243
4 *555:12 *2950:A1 0
5 *555:12 *761:34 0
6 *555:12 *762:22 0.000292789
7 *555:12 *819:66 0
8 *555:12 *900:12 1.54008e-05
9 *546:67 *555:12 0
10 *550:8 *555:12 0
11 *552:18 *555:12 2.24232e-05
*RES
1 *2956:Y *555:12 45.1912 
2 *555:12 *2957:B 40 
*END

*D_NET *556 0.000772151
*CONN
*I *2961:A I *D sg13g2_nor2_1
*I *2958:Y O *D sg13g2_a21oi_1
*CAP
1 *2961:A 4.18642e-05
2 *2958:Y 0.000263921
3 *556:8 0.000305786
4 *2961:A *2961:B 8.03692e-05
5 *2961:A *1137:50 8.02105e-05
6 *556:8 *795:26 0
7 *556:8 *899:22 0
8 *556:8 *899:73 0
*RES
1 *2958:Y *556:8 42.575 
2 *556:8 *2961:A 40.5356 
*END

*D_NET *557 0.00130876
*CONN
*I *2960:A2 I *D sg13g2_o21ai_1
*I *2959:Y O *D sg13g2_nand4_1
*CAP
1 *2960:A2 0.000300483
2 *2959:Y 0.000300483
3 *2960:A2 *2960:B1 1.54008e-05
4 *2960:A2 *752:34 0
5 *2960:A2 *807:84 8.00842e-05
6 *2960:A2 *1137:50 0
7 *359:47 *2960:A2 0.000306156
8 *360:49 *2960:A2 0.000306156
*RES
1 *2959:Y *2960:A2 43.3475 
*END

*D_NET *558 0.00072396
*CONN
*I *2961:B I *D sg13g2_nor2_1
*I *2960:Y O *D sg13g2_o21ai_1
*CAP
1 *2961:B 0.000257882
2 *2960:Y 0.000257882
3 *2961:B *2960:B1 4.77425e-05
4 *2961:B *752:34 0
5 *2961:B *1137:50 8.00842e-05
6 *2961:A *2961:B 8.03692e-05
7 *3255:D *2961:B 0
*RES
1 *2960:Y *2961:B 42.6162 
*END

*D_NET *559 0.00158265
*CONN
*I *2965:A I *D sg13g2_nor2_1
*I *2962:Y O *D sg13g2_a21oi_1
*CAP
1 *2965:A 8.41491e-05
2 *2962:Y 0.000446521
3 *559:10 0.00053067
4 *2965:A *2965:B 0
5 *2965:A *757:47 0.000112667
6 *2965:A *1137:50 0.000145003
7 *559:10 *2962:B1 0
8 *559:10 *757:47 0.00018387
9 *559:10 *790:38 0
10 *559:10 *795:26 0
11 *559:10 *818:94 7.97646e-05
*RES
1 *2962:Y *559:10 44.5938 
2 *559:10 *2965:A 40.9682 
*END

*D_NET *560 0.000632825
*CONN
*I *2964:A2 I *D sg13g2_o21ai_1
*I *2963:Y O *D sg13g2_nand4_1
*CAP
1 *2964:A2 0.000156141
2 *2963:Y 0.000156141
3 *2964:A2 *2964:B1 0.000144417
4 *2964:A2 *2964:A1 0.000176127
5 *2964:A2 *757:33 0
6 *2964:A2 *1137:50 0
*RES
1 *2963:Y *2964:A2 41.6171 
*END

*D_NET *561 0.000511625
*CONN
*I *2965:B I *D sg13g2_nor2_1
*I *2964:Y O *D sg13g2_o21ai_1
*CAP
1 *2965:B 0.000199533
2 *2964:Y 0.000199533
3 *2965:B *757:33 0
4 *2965:B *757:47 0.000112558
5 *2965:B *766:45 0
6 *2965:B *1137:50 0
7 *2965:A *2965:B 0
8 *3257:D *2965:B 0
*RES
1 *2964:Y *2965:B 41.9982 
*END

*D_NET *562 0.00149503
*CONN
*I *2969:A I *D sg13g2_nor2_1
*I *2966:Y O *D sg13g2_a21oi_1
*CAP
1 *2969:A 0.000391829
2 *2966:Y 0.000391829
3 *2969:A *2966:B1 0.000274769
4 *2969:A *3259:CLK 0
5 *2969:A *564:12 0
6 *2969:A *759:28 0
7 *2969:A *819:12 0.000436603
8 *2969:A *819:66 0
*RES
1 *2966:Y *2969:A 44.4084 
*END

*D_NET *563 0.000786335
*CONN
*I *2968:A2 I *D sg13g2_o21ai_1
*I *2967:Y O *D sg13g2_nand4_1
*CAP
1 *2968:A2 0
2 *2967:Y 0.000222176
3 *563:10 0.000222176
4 *563:10 *3078:B1 0
5 *563:10 *725:25 8.01447e-05
6 *563:10 *732:8 0
7 *563:10 *806:33 0
8 *563:10 *820:97 0
9 *563:10 *864:48 0.000181694
10 *358:14 *563:10 8.01447e-05
*RES
1 *2967:Y *563:10 42.369 
2 *563:10 *2968:A2 40 
*END

*D_NET *564 0.00181944
*CONN
*I *2969:B I *D sg13g2_nor2_1
*I *2968:Y O *D sg13g2_o21ai_1
*CAP
1 *2969:B 0
2 *2968:Y 0.000537809
3 *564:12 0.000537809
4 *564:12 *2966:B1 0.000274709
5 *564:12 *778:29 0
6 *564:12 *806:46 0
7 *564:12 *820:97 0.000436717
8 *564:12 *820:110 3.23965e-05
9 *2969:A *564:12 0
*RES
1 *2968:Y *564:12 45.7474 
2 *564:12 *2969:B 40 
*END

*D_NET *565 0.000855519
*CONN
*I *2973:A I *D sg13g2_nor2_1
*I *2970:Y O *D sg13g2_a21oi_1
*CAP
1 *2973:A 0.000420059
2 *2970:Y 0.000420059
3 *2973:A *3261:CLK 0
4 *2973:A *724:43 0
5 *2973:A *758:35 0
6 *2973:A *794:37 0
7 *2973:A *818:102 1.54008e-05
8 *305:12 *2973:A 0
*RES
1 *2970:Y *2973:A 43.6324 
*END

*D_NET *566 0.000783674
*CONN
*I *2972:A2 I *D sg13g2_o21ai_1
*I *2971:Y O *D sg13g2_nand4_1
*CAP
1 *2972:A2 0.000272591
2 *2971:Y 0.000103845
3 *566:8 0.000376436
4 *2972:A2 *2972:B1 1.54008e-05
5 *2972:A2 *806:66 1.54008e-05
6 *2972:A2 *808:46 0
7 *2972:A2 *879:30 0
8 *2972:A2 *885:100 0
*RES
1 *2971:Y *566:8 41.0918 
2 *566:8 *2972:A2 42.4823 
*END

*D_NET *567 0.00134711
*CONN
*I *2973:B I *D sg13g2_nor2_1
*I *2972:Y O *D sg13g2_o21ai_1
*CAP
1 *2973:B 0
2 *2972:Y 0.000137417
3 *567:8 0.000137417
4 *567:8 *766:45 0.000602498
5 *567:8 *864:52 0
6 *567:8 *866:70 0.000181608
7 *567:8 *879:34 0.000288173
*RES
1 *2972:Y *567:8 42.8042 
2 *567:8 *2973:B 40 
*END

*D_NET *568 0.000326376
*CONN
*I *2977:A I *D sg13g2_nor2_1
*I *2974:Y O *D sg13g2_a21oi_1
*CAP
1 *2977:A 0.000139278
2 *2974:Y 0.000139278
3 *2977:A *2974:B1 4.78195e-05
4 *2977:A *732:37 0
*RES
1 *2974:Y *2977:A 41.4523 
*END

*D_NET *569 0.00120709
*CONN
*I *2976:A2 I *D sg13g2_o21ai_1
*I *2975:Y O *D sg13g2_nand4_1
*CAP
1 *2976:A2 0
2 *2975:Y 0.000199947
3 *569:10 0.000199947
4 *569:10 *725:29 0.000208576
5 *569:10 *795:28 0.00029161
6 *569:10 *796:34 0.00029161
7 *356:46 *569:10 1.54008e-05
*RES
1 *2975:Y *569:10 42.7398 
2 *569:10 *2976:A2 40 
*END

*D_NET *570 0.00221689
*CONN
*I *2977:B I *D sg13g2_nor2_1
*I *2976:Y O *D sg13g2_o21ai_1
*CAP
1 *2977:B 0.000769324
2 *2976:Y 0.000769324
3 *2977:B *2976:B1 1.54008e-05
4 *2977:B *725:29 0
5 *2977:B *732:37 0.000662846
6 *2977:B *903:48 0
*RES
1 *2976:Y *2977:B 47.1118 
*END

*D_NET *571 0.0202379
*CONN
*I *3007:A2 I *D sg13g2_a21oi_1
*I *3003:A2 I *D sg13g2_a21oi_1
*I *2999:A2 I *D sg13g2_a21oi_1
*I *2991:A2 I *D sg13g2_a21oi_1
*I *2983:A2 I *D sg13g2_a21oi_1
*I *2987:A2 I *D sg13g2_a21oi_1
*I *2995:A2 I *D sg13g2_a21oi_1
*I *2979:A2 I *D sg13g2_a21oi_1
*I *2978:Y O *D sg13g2_nor3_1
*CAP
1 *3007:A2 0
2 *3003:A2 2.41961e-05
3 *2999:A2 2.62917e-05
4 *2991:A2 0.00039347
5 *2983:A2 2.24543e-05
6 *2987:A2 0
7 *2995:A2 0
8 *2979:A2 0
9 *2978:Y 0.000245279
10 *571:133 0.000101011
11 *571:125 0.00109396
12 *571:108 0.00151397
13 *571:97 0.000915375
14 *571:70 0.000182658
15 *571:62 0.000602958
16 *571:54 0.00103787
17 *571:43 0.000878282
18 *571:37 0.00126667
19 *571:20 0.0015782
20 *571:12 0.00158079
21 *2983:A2 *818:43 1.54556e-05
22 *2983:A2 *865:72 4.78359e-05
23 *2991:A2 *2991:A1 1.54008e-05
24 *2991:A2 *3271:CLK 0.000318191
25 *2991:A2 *706:10 0.000710124
26 *2991:A2 *756:10 0
27 *2991:A2 *757:33 4.77425e-05
28 *2991:A2 *885:70 0
29 *2999:A2 *2999:A1 1.54008e-05
30 *2999:A2 *3002:A 0
31 *571:12 *3110:A 7.31628e-05
32 *571:12 *883:42 0.000144371
33 *571:12 *884:70 0
34 *571:12 *884:74 0
35 *571:20 *3445:A 0
36 *571:20 *671:87 0
37 *571:20 *671:100 0
38 *571:20 *671:102 0.000274693
39 *571:20 *817:42 0.000242017
40 *571:20 *817:46 0
41 *571:20 *817:53 0.000565596
42 *571:20 *817:68 1.54556e-05
43 *571:20 *880:8 0.000176309
44 *571:20 *880:34 4.74145e-05
45 *571:20 *883:42 0
46 *571:20 *884:70 7.97045e-05
47 *571:37 *2984:C 0
48 *571:37 *2996:C 8.0342e-05
49 *571:37 *817:68 0.000201864
50 *571:37 *865:8 0.000229033
51 *571:37 *865:12 4.77425e-05
52 *571:37 *866:39 0.000176083
53 *571:37 *880:51 0
54 *571:37 *880:94 0.000273562
55 *571:43 *2984:C 0
56 *571:43 *2985:B1 4.77425e-05
57 *571:43 *2996:C 0
58 *571:43 *2997:A2 0
59 *571:43 *3517:A 0
60 *571:43 *807:37 0
61 *571:43 *807:51 0
62 *571:43 *818:52 1.54008e-05
63 *571:43 *865:72 0
64 *571:54 *2985:B1 0.000226709
65 *571:54 *584:8 0
66 *571:54 *706:10 0.000282008
67 *571:54 *818:52 0.000241979
68 *571:62 *2985:A1 0
69 *571:62 *575:10 0
70 *571:62 *807:51 0.00017691
71 *571:62 *865:72 0.000602363
72 *571:62 *909:38 0
73 *571:70 *575:10 0
74 *571:70 *740:10 0.000125014
75 *571:70 *740:21 5.27974e-05
76 *571:70 *818:28 4.78192e-05
77 *571:70 *818:43 1.54008e-05
78 *571:70 *898:8 0
79 *571:70 *909:38 4.77425e-05
80 *571:97 *698:38 0
81 *571:97 *698:40 0
82 *571:97 *757:18 0
83 *571:97 *817:21 0
84 *571:108 *3003:A1 0
85 *571:108 *3277:CLK 0
86 *571:108 *698:38 0
87 *571:108 *757:18 0.00012816
88 *571:125 *3277:CLK 0
89 *571:125 *671:29 0.000597467
90 *571:125 *805:37 2.20966e-05
91 *571:125 *808:29 0
92 *571:125 *1120:46 0
93 *571:133 *593:10 0.000181192
94 *571:133 *820:61 8.01776e-05
95 *2978:C *571:12 0
96 *312:10 *571:12 0
97 *312:10 *571:97 0
98 *313:8 *571:108 0.000554578
99 *354:24 *571:20 0
100 *354:32 *571:20 0
101 *354:32 *571:37 0
102 *357:22 *571:125 0.00127718
103 *357:28 *571:133 8.00842e-05
104 *359:28 *2999:A2 4.77425e-05
105 *360:16 *571:97 0.000126441
106 *386:10 *2991:A2 0
107 *387:6 *571:12 0
*RES
1 *2978:Y *571:12 42.163 
2 *571:12 *571:20 30.1352 
3 *571:20 *2979:A2 20 
4 *571:20 *571:37 46.4066 
5 *571:37 *571:43 5.9946 
6 *571:43 *2995:A2 20 
7 *571:43 *571:54 22.9561 
8 *571:54 *571:62 24.4496 
9 *571:62 *571:70 41.6583 
10 *571:70 *2987:A2 20 
11 *571:62 *2983:A2 20.3193 
12 *571:54 *2991:A2 45.1191 
13 *571:12 *571:97 4.1303 
14 *571:97 *2999:A2 40.3193 
15 *571:97 *571:108 6.0358 
16 *571:108 *3003:A2 40.3193 
17 *571:108 *571:125 30.9077 
18 *571:125 *571:133 41.3802 
19 *571:133 *3007:A2 20 
*END

*D_NET *572 0.00163947
*CONN
*I *2982:A I *D sg13g2_nor2_1
*I *2979:Y O *D sg13g2_a21oi_1
*CAP
1 *2982:A 0
2 *2979:Y 0.000509148
3 *572:10 0.000509148
4 *572:10 *574:8 0.000182438
5 *572:10 *817:53 0.000209763
6 *572:10 *862:108 0.000228976
7 *572:10 *880:51 0
8 *572:10 *890:8 0
9 *572:10 *890:14 0
10 *572:10 *891:10 0
*RES
1 *2979:Y *572:10 44.7174 
2 *572:10 *2982:A 40 
*END

*D_NET *573 0.000967633
*CONN
*I *2981:A2 I *D sg13g2_o21ai_1
*I *2980:Y O *D sg13g2_nand4_1
*CAP
1 *2981:A2 6.18688e-05
2 *2980:Y 0.000190325
3 *573:12 0.000252193
4 *2981:A2 *2981:B1 8.0216e-05
5 *2981:A2 *580:22 0
6 *2981:A2 *803:81 0.000112558
7 *573:12 *3113:B1 0
8 *573:12 *803:81 0.000144118
9 *573:12 *862:108 0
10 *573:12 *890:8 0.000126354
11 *2980:A *573:12 0
*RES
1 *2980:Y *573:12 41.9158 
2 *573:12 *2981:A2 40.7519 
*END

*D_NET *574 0.000526193
*CONN
*I *2982:B I *D sg13g2_nor2_1
*I *2981:Y O *D sg13g2_o21ai_1
*CAP
1 *2982:B 2.48775e-05
2 *2981:Y 9.91257e-05
3 *574:8 0.000124003
4 *2982:B *580:22 4.78356e-05
5 *307:14 *2982:B 4.79124e-05
6 *572:10 *574:8 0.000182438
*RES
1 *2981:Y *574:8 41.339 
2 *574:8 *2982:B 40.3193 
*END

*D_NET *575 0.00101982
*CONN
*I *2986:A I *D sg13g2_nor2_1
*I *2983:Y O *D sg13g2_a21oi_1
*CAP
1 *2986:A 2.68013e-05
2 *2983:Y 0.000368641
3 *575:10 0.000395443
4 *2986:A *2990:A 0
5 *2986:A *721:28 4.77425e-05
6 *575:10 *2985:A2 0
7 *575:10 *577:8 0.000181192
8 *575:10 *578:8 0
9 *575:10 *740:10 0
10 *575:10 *909:38 0
11 *571:62 *575:10 0
12 *571:70 *575:10 0
*RES
1 *2983:Y *575:10 43.5123 
2 *575:10 *2986:A 40.3193 
*END

*D_NET *576 0.00448225
*CONN
*I *2985:A2 I *D sg13g2_o21ai_1
*I *2984:Y O *D sg13g2_nand4_1
*CAP
1 *2985:A2 0.000339383
2 *2984:Y 0.00104258
3 *576:8 0.00138197
4 *2985:A2 *2985:B1 0.000274769
5 *2985:A2 *2985:A1 0.000209863
6 *2985:A2 *807:51 0
7 *2985:A2 *807:68 0
8 *2985:A2 *818:16 0.000386892
9 *2985:A2 *818:28 7.48178e-05
10 *576:8 *671:102 0.000209087
11 *576:8 *671:117 0.000225688
12 *576:8 *756:10 0.000209769
13 *576:8 *855:8 0.000112008
14 *576:8 *865:72 0
15 *576:8 *1137:20 0
16 *354:32 *576:8 1.54285e-05
17 *575:10 *2985:A2 0
*RES
1 *2984:Y *576:8 49.6202 
2 *576:8 *2985:A2 43.914 
*END

*D_NET *577 0.000387345
*CONN
*I *2986:B I *D sg13g2_nor2_1
*I *2985:Y O *D sg13g2_o21ai_1
*CAP
1 *2986:B 0
2 *2985:Y 0.000103076
3 *577:8 0.000103076
4 *577:8 *706:12 0
5 *577:8 *818:28 0
6 *308:8 *577:8 0
7 *575:10 *577:8 0.000181192
*RES
1 *2985:Y *577:8 41.339 
2 *577:8 *2986:B 40 
*END

*D_NET *578 0.00090875
*CONN
*I *2990:A I *D sg13g2_nor2_1
*I *2987:Y O *D sg13g2_a21oi_1
*CAP
1 *2990:A 0.00012698
2 *2987:Y 0.000222532
3 *578:8 0.000349513
4 *2990:A *3269:CLK 0.000209725
5 *2990:A *721:28 0
6 *578:8 *740:10 0
7 *2986:A *2990:A 0
8 *308:8 *578:8 0
9 *575:10 *578:8 0
*RES
1 *2987:Y *578:8 42.0806 
2 *578:8 *2990:A 41.4008 
*END

*D_NET *579 0.00087837
*CONN
*I *2989:A2 I *D sg13g2_o21ai_1
*I *2988:Y O *D sg13g2_nand4_1
*CAP
1 *2989:A2 0.000400072
2 *2988:Y 0.000400072
3 *2989:A2 *3121:A2 0
4 *2989:A2 *3333:CLK 0
5 *2989:A2 *803:68 1.54008e-05
6 *2989:A2 *881:68 0
7 *2989:A2 *890:26 0
8 *2989:A2 *890:61 1.54008e-05
9 *3120:A *2989:A2 4.74248e-05
10 *355:24 *2989:A2 0
*RES
1 *2988:Y *2989:A2 44.1612 
*END

*D_NET *580 0.00854284
*CONN
*I *2990:B I *D sg13g2_nor2_1
*I *2989:Y O *D sg13g2_o21ai_1
*CAP
1 *2990:B 0.000251855
2 *2989:Y 0.00269521
3 *580:22 0.00294707
4 *2990:B *3269:CLK 0
5 *2990:B *3273:RESET_B 0
6 *580:22 *2981:B1 0
7 *580:22 *2998:A 0
8 *580:22 *3113:B1 0
9 *580:22 *3114:B 8.03692e-05
10 *580:22 *3127:B1 4.77425e-05
11 *580:22 *3128:B 0
12 *580:22 *3128:C 0
13 *580:22 *3265:RESET_B 0
14 *580:22 *3265:CLK 1.54556e-05
15 *580:22 *3267:CLK 0
16 *580:22 *3273:RESET_B 8.03091e-05
17 *580:22 *3329:CLK 0
18 *580:22 *671:117 0
19 *580:22 *685:10 0
20 *580:22 *706:29 0.000631196
21 *580:22 *721:28 0
22 *580:22 *803:68 0
23 *580:22 *803:81 0
24 *580:22 *803:98 0
25 *580:22 *818:62 0.000241302
26 *580:22 *890:14 0.0011822
27 *580:22 *890:61 0
28 *580:22 *891:10 0
29 *580:22 *898:33 0
30 *2981:A2 *580:22 0
31 *2982:B *580:22 4.78356e-05
32 *307:14 *580:22 0
33 *309:16 *2990:B 8.03091e-05
34 *339:10 *580:22 0.000241983
*RES
1 *2989:Y *580:22 49.1434 
2 *580:22 *2990:B 22.678 
*END

*D_NET *581 0.00176628
*CONN
*I *2994:A I *D sg13g2_nor2_1
*I *2991:Y O *D sg13g2_a21oi_1
*CAP
1 *2994:A 0.000139328
2 *2991:Y 0.000223522
3 *581:8 0.000362851
4 *2994:A *2994:B 1.54008e-05
5 *2994:A *720:25 0
6 *581:8 *3271:CLK 0
7 *581:8 *646:20 0.00012816
8 *2945:C *581:8 0.000179399
9 *310:10 *2994:A 0.000144025
10 *310:10 *581:8 0.000446115
11 *386:10 *581:8 0.000127475
12 *546:12 *2994:A 0
*RES
1 *2991:Y *581:8 43.0694 
2 *581:8 *2994:A 41.4008 
*END

*D_NET *582 0.00136076
*CONN
*I *2993:A2 I *D sg13g2_o21ai_1
*I *2992:Y O *D sg13g2_nand4_1
*CAP
1 *2993:A2 0.000560254
2 *2992:Y 0.000560254
3 *2993:A2 *2992:C 0
4 *2993:A2 *3379:A 0
5 *2993:A2 *720:25 0
6 *2993:A2 *807:12 0.000112558
7 *2993:A2 *807:23 1.54008e-05
8 *2993:A2 *880:85 0.000112289
9 *2993:A2 *883:61 0
*RES
1 *2992:Y *2993:A2 45.4796 
*END

*D_NET *583 0.000881027
*CONN
*I *2994:B I *D sg13g2_nor2_1
*I *2993:Y O *D sg13g2_o21ai_1
*CAP
1 *2994:B 0.000432813
2 *2993:Y 0.000432813
3 *2994:B *3379:A 0
4 *2994:B *720:25 0
5 *2994:B *807:23 0
6 *2994:B *883:61 0
7 *2994:A *2994:B 1.54008e-05
*RES
1 *2993:Y *2994:B 44.2642 
*END

*D_NET *584 0.000659939
*CONN
*I *2998:A I *D sg13g2_nor2_1
*I *2995:Y O *D sg13g2_a21oi_1
*CAP
1 *2998:A 3.30561e-05
2 *2995:Y 0.000206317
3 *584:8 0.000239373
4 *584:8 *586:10 0.000181192
5 *584:8 *706:10 0
6 *584:8 *706:12 0
7 *584:8 *818:62 0
8 *571:54 *584:8 0
9 *580:22 *2998:A 0
*RES
1 *2995:Y *584:8 42.0806 
2 *584:8 *2998:A 40.3193 
*END

*D_NET *585 0.00138039
*CONN
*I *2997:A2 I *D sg13g2_o21ai_1
*I *2996:Y O *D sg13g2_nand4_1
*CAP
1 *2997:A2 0.00036853
2 *2996:Y 0.00036853
3 *2997:A2 *2996:C 0
4 *2997:A2 *3517:A 0
5 *2997:A2 *807:37 0.000177203
6 *2997:A2 *892:83 1.54008e-05
7 *2997:A2 *892:93 0.000144389
8 *2997:A2 *898:33 0.000306336
9 *571:43 *2997:A2 0
*RES
1 *2996:Y *2997:A2 44.0479 
*END

*D_NET *586 0.00153511
*CONN
*I *2998:B I *D sg13g2_nor2_1
*I *2997:Y O *D sg13g2_o21ai_1
*CAP
1 *2998:B 0
2 *2997:Y 0.000258111
3 *586:10 0.000258111
4 *586:10 *2985:B1 0.000259171
5 *586:10 *721:28 0.000242055
6 *586:10 *818:62 0.000288587
7 *586:10 *892:83 3.24568e-05
8 *586:10 *892:93 1.54285e-05
9 *311:8 *586:10 0
10 *584:8 *586:10 0.000181192
*RES
1 *2997:Y *586:10 43.605 
2 *586:10 *2998:B 40 
*END

*D_NET *587 0.000267125
*CONN
*I *3002:A I *D sg13g2_nor2_1
*I *2999:Y O *D sg13g2_a21oi_1
*CAP
1 *3002:A 0.000118134
2 *2999:Y 0.000118134
3 *3002:A *2999:A1 0
4 *3002:A *3002:B 1.54556e-05
5 *3002:A *889:70 0
6 *2999:A2 *3002:A 0
7 *312:10 *3002:A 1.54008e-05
*RES
1 *2999:Y *3002:A 41.2834 
*END

*D_NET *588 0.00119914
*CONN
*I *3001:A2 I *D sg13g2_o21ai_1
*I *3000:Y O *D sg13g2_nand4_1
*CAP
1 *3001:A2 0.000366395
2 *3000:Y 0.000366395
3 *3001:A2 *3000:D 0
4 *3001:A2 *3001:B1 1.54556e-05
5 *3001:A2 *3134:A 0
6 *3001:A2 *803:30 0.000370812
7 *3339:D *3001:A2 8.00842e-05
8 *354:12 *3001:A2 0
9 *354:24 *3001:A2 0
*RES
1 *3000:Y *3001:A2 43.6977 
*END

*D_NET *589 0.0014155
*CONN
*I *3002:B I *D sg13g2_nor2_1
*I *3001:Y O *D sg13g2_o21ai_1
*CAP
1 *3002:B 0.000700023
2 *3001:Y 0.000700023
3 *3002:B *2999:A1 0
4 *3002:B *3001:B1 0
5 *3002:B *3134:A 0
6 *3002:B *889:70 0
7 *3002:A *3002:B 1.54556e-05
8 *354:24 *3002:B 0
9 *359:28 *3002:B 0
*RES
1 *3001:Y *3002:B 46.8598 
*END

*D_NET *590 0.000312085
*CONN
*I *3006:A I *D sg13g2_nor2_1
*I *3003:Y O *D sg13g2_a21oi_1
*CAP
1 *3006:A 0.000148328
2 *3003:Y 0.000148328
3 *3006:A *3003:A1 0
4 *3006:A *3006:B 1.54282e-05
*RES
1 *3003:Y *3006:A 41.6274 
*END

*D_NET *591 0.00157154
*CONN
*I *3005:A2 I *D sg13g2_o21ai_1
*I *3004:Y O *D sg13g2_nand4_1
*CAP
1 *3005:A2 0.000537833
2 *3004:Y 0.000537833
3 *3005:A2 *3004:D 4.77425e-05
4 *3005:A2 *3005:B1 1.54008e-05
5 *3005:A2 *803:12 0.000112634
6 *3005:A2 *808:6 0
7 *3005:A2 *808:16 0.000320094
8 *3005:A2 *808:29 0
9 *3005:A2 *866:18 0
10 *345:14 *3005:A2 0
*RES
1 *3004:Y *3005:A2 45.4796 
*END

*D_NET *592 0.000977777
*CONN
*I *3006:B I *D sg13g2_nor2_1
*I *3005:Y O *D sg13g2_o21ai_1
*CAP
1 *3006:B 0.000481174
2 *3005:Y 0.000481174
3 *3006:B *3003:A1 0
4 *3006:B *808:29 0
5 *3006:B *866:35 0
6 *3006:A *3006:B 1.54282e-05
*RES
1 *3005:Y *3006:B 44.7586 
*END

*D_NET *593 0.00056064
*CONN
*I *3010:A I *D sg13g2_nor2_1
*I *3007:Y O *D sg13g2_a21oi_1
*CAP
1 *3010:A 0
2 *3007:Y 0.000152116
3 *593:10 0.000152116
4 *593:10 *595:14 7.52149e-05
5 *571:133 *593:10 0.000181192
*RES
1 *3007:Y *593:10 41.9055 
2 *593:10 *3010:A 40 
*END

*D_NET *594 0.00132787
*CONN
*I *3009:A2 I *D sg13g2_o21ai_1
*I *3008:Y O *D sg13g2_nand4_1
*CAP
1 *3009:A2 0.000358111
2 *3008:Y 0.000358111
3 *3009:A2 *3142:B 0
4 *3009:A2 *3343:RESET_B 0.000176405
5 *3009:A2 *595:14 0
6 *3009:A2 *724:29 0
7 *3009:A2 *805:54 0.000435239
*RES
1 *3008:Y *3009:A2 43.6977 
*END

*D_NET *595 0.00183048
*CONN
*I *3010:B I *D sg13g2_nor2_1
*I *3009:Y O *D sg13g2_o21ai_1
*CAP
1 *3010:B 0
2 *3009:Y 0.000661477
3 *595:14 0.000661477
4 *595:14 *3009:B1 3.15716e-05
5 *595:14 *724:29 0.000112563
6 *595:14 *759:10 0.000288173
7 *595:14 *856:108 0
8 *595:14 *885:47 0
9 *595:14 *947:12 0
10 *3009:A2 *595:14 0
11 *314:10 *595:14 0
12 *593:10 *595:14 7.52149e-05
*RES
1 *3009:Y *595:14 47.4263 
2 *595:14 *3010:B 40 
*END

*D_NET *596 0.0185081
*CONN
*I *3012:A2 I *D sg13g2_a21oi_1
*I *3028:A2 I *D sg13g2_a21oi_1
*I *3016:A2 I *D sg13g2_a21oi_1
*I *3036:A2 I *D sg13g2_a21oi_1
*I *3040:A2 I *D sg13g2_a21oi_1
*I *3032:A2 I *D sg13g2_a21oi_1
*I *3024:A2 I *D sg13g2_a21oi_1
*I *3020:A2 I *D sg13g2_a21oi_1
*I *3011:Y O *D sg13g2_nor3_1
*CAP
1 *3012:A2 0
2 *3028:A2 0
3 *3016:A2 0.000155696
4 *3036:A2 0
5 *3040:A2 2.77263e-05
6 *3032:A2 0
7 *3024:A2 5.06746e-05
8 *3020:A2 4.82721e-05
9 *3011:Y 0
10 *596:101 0.000865374
11 *596:75 0.000746795
12 *596:59 0.0011227
13 *596:46 0.000733195
14 *596:37 0.000604043
15 *596:30 0.00086424
16 *596:21 0.000737143
17 *596:8 0.00096175
18 *596:4 0.0015819
19 *3016:A2 *3016:A1 1.54556e-05
20 *3016:A2 *602:16 0
21 *3016:A2 *697:264 0
22 *3020:A2 *3034:A1 8.02431e-05
23 *3020:A2 *1145:14 0
24 *3020:A2 *1145:27 0
25 *3024:A2 *3395:A 0
26 *3024:A2 *823:6 8.00842e-05
27 *596:8 *814:10 0.000234311
28 *596:8 *814:12 0.00187437
29 *596:8 *824:12 0
30 *596:8 *825:67 0
31 *596:8 *1145:27 0.000445048
32 *596:21 *823:12 0
33 *596:21 *824:8 0
34 *596:21 *1145:27 0.000177127
35 *596:21 *1146:8 0.000179389
36 *596:30 *3034:A1 0
37 *596:30 *3394:A 0
38 *596:30 *3395:A 0
39 *596:30 *823:6 0.000161763
40 *596:30 *823:33 0.000533728
41 *596:30 *823:46 1.54008e-05
42 *596:30 *824:87 0.00043645
43 *596:30 *1136:25 0
44 *596:37 *3040:B1 0
45 *596:37 *3043:A 0
46 *596:37 *3043:B 0.00020884
47 *596:37 *823:46 0.000306167
48 *596:37 *823:63 0
49 *596:37 *824:87 0
50 *596:37 *897:16 0
51 *596:46 *3036:A1 0.000111929
52 *596:46 *3039:B 0
53 *596:46 *3040:B1 0
54 *596:46 *824:87 0
55 *596:59 *795:28 0.000447015
56 *596:59 *796:34 0.000447015
57 *596:59 *1136:31 0
58 *596:59 *1146:41 0
59 *596:75 *602:16 0.000144872
60 *596:75 *697:264 0
61 *596:75 *719:30 0.000144389
62 *596:75 *794:41 0.00115319
63 *596:75 *796:34 0
64 *596:75 *813:49 0.000810228
65 *596:75 *813:51 0.00018387
66 *596:75 *823:69 0.000144389
67 *596:75 *823:80 1.54008e-05
68 *596:101 *2881:D 0.000181608
69 *596:101 *3013:C 0
70 *596:101 *599:10 0.000596326
71 *596:101 *711:12 6.47768e-05
72 *596:101 *711:18 4.77425e-05
73 *596:101 *824:12 0
74 *596:101 *858:47 7.94957e-05
75 *596:101 *859:41 0.000112519
76 *596:101 *875:45 0.000132558
77 *2879:C *596:8 0.00012816
78 *3283:D *3016:A2 0
79 *374:35 *596:8 0
80 *378:14 *596:101 0
81 *379:22 *596:101 0.000208643
82 *382:8 *596:8 0.000106064
*RES
1 *3011:Y *596:4 20 
2 *596:4 *596:8 30.7326 
3 *596:8 *3020:A2 40.5356 
4 *596:8 *596:21 22.0806 
5 *596:21 *3024:A2 20.5356 
6 *596:21 *596:30 5.7268 
7 *596:30 *3032:A2 20 
8 *596:30 *596:37 3.9964 
9 *596:37 *3040:A2 20.3502 
10 *596:37 *596:46 1.8334 
11 *596:46 *3036:A2 20 
12 *596:46 *596:59 45.9802 
13 *596:59 *596:75 48.8992 
14 *596:75 *3016:A2 21.4008 
15 *596:59 *3028:A2 20 
16 *596:4 *596:101 48.858 
17 *596:101 *3012:A2 20 
*END

*D_NET *597 0.000365659
*CONN
*I *3015:A I *D sg13g2_nor2_1
*I *3012:Y O *D sg13g2_a21oi_1
*CAP
1 *3015:A 0.000142741
2 *3012:Y 0.000142741
3 *315:12 *3015:A 8.01773e-05
*RES
1 *3012:Y *3015:A 41.6274 
*END

*D_NET *598 0.000585074
*CONN
*I *3014:A2 I *D sg13g2_o21ai_1
*I *3013:Y O *D sg13g2_nand4_1
*CAP
1 *3014:A2 0.000237244
2 *3013:Y 0.000237244
3 *3014:A2 *3013:C 1.51e-05
4 *3014:A2 *3014:B1 8.00842e-05
5 *3014:A2 *1134:27 0
6 *379:22 *3014:A2 1.54008e-05
*RES
1 *3013:Y *3014:A2 42.1012 
*END

*D_NET *599 0.00223137
*CONN
*I *3015:B I *D sg13g2_nor2_1
*I *3014:Y O *D sg13g2_o21ai_1
*CAP
1 *3015:B 0
2 *3014:Y 0.000487993
3 *599:10 0.000487993
4 *599:10 *2905:C 0.000231067
5 *599:10 *2906:B1 0
6 *599:10 *2906:A1 0
7 *599:10 *3014:B1 1.54008e-05
8 *599:10 *823:52 0.00023098
9 *599:10 *859:21 0.000181608
10 *2906:A2 *599:10 0
11 *596:101 *599:10 0.000596326
*RES
1 *3014:Y *599:10 45.8298 
2 *599:10 *3015:B 40 
*END

*D_NET *600 0.000514773
*CONN
*I *3019:A I *D sg13g2_nor2_1
*I *3016:Y O *D sg13g2_a21oi_1
*CAP
1 *3019:A 0.0001202
2 *3016:Y 6.44585e-05
3 *600:8 0.000184659
4 *3019:A *908:84 1.54008e-05
5 *316:8 *600:8 0.000130055
*RES
1 *3016:Y *600:8 40.8446 
2 *600:8 *3019:A 41.1021 
*END

*D_NET *601 0.00096137
*CONN
*I *3018:A2 I *D sg13g2_o21ai_1
*I *3017:Y O *D sg13g2_nand4_1
*CAP
1 *3018:A2 0.000344402
2 *3017:Y 0.000344402
3 *3018:A2 *2897:D 0
4 *3018:A2 *3018:B1 8.00842e-05
5 *3018:A2 *3018:A1 0.000112426
6 *3018:A2 *697:264 0
7 *2903:B *3018:A2 8.0057e-05
*RES
1 *3017:Y *3018:A2 43.7286 
*END

*D_NET *602 0.00172154
*CONN
*I *3019:B I *D sg13g2_nor2_1
*I *3018:Y O *D sg13g2_o21ai_1
*CAP
1 *3019:B 0
2 *3018:Y 5.51195e-05
3 *602:16 0.00033462
4 *602:8 0.000389739
5 *602:8 *795:28 0.000291251
6 *602:8 *796:34 0.000291208
7 *602:16 *3016:A1 1.54556e-05
8 *602:16 *3016:B1 1.54008e-05
9 *602:16 *823:80 0.00018387
10 *602:16 *1143:48 0
11 *3016:A2 *602:16 0
12 *596:75 *602:16 0.000144872
*RES
1 *3018:Y *602:8 41.339 
2 *602:8 *602:16 43.1106 
3 *602:16 *3019:B 40 
*END

*D_NET *603 0.00103258
*CONN
*I *3023:A I *D sg13g2_nor2_1
*I *3020:Y O *D sg13g2_a21oi_1
*CAP
1 *3023:A 0.000172096
2 *3020:Y 0.000174534
3 *603:8 0.000346631
4 *3023:A *3027:A 0
5 *3023:A *3395:A 0
6 *603:8 *823:12 0
7 *603:8 *1145:14 0.000339315
*RES
1 *3020:Y *603:8 41.8334 
2 *603:8 *3023:A 41.4008 
*END

*D_NET *604 0.0018063
*CONN
*I *3022:A2 I *D sg13g2_o21ai_1
*I *3021:Y O *D sg13g2_nand4_1
*CAP
1 *3022:A2 0
2 *3021:Y 0.000403998
3 *604:10 0.000403998
4 *604:10 *608:8 0.000181608
5 *604:10 *812:10 7.51285e-05
6 *604:10 *812:12 0.000288087
7 *604:10 *812:14 0.000390334
8 *604:10 *825:67 0
9 *604:10 *874:19 1.54008e-05
10 *604:10 *887:67 0
11 *604:10 *1123:34 0
12 *604:10 *1123:38 4.77425e-05
13 *374:18 *604:10 0
*RES
1 *3021:Y *604:10 44.9337 
2 *604:10 *3022:A2 40 
*END

*D_NET *605 0.00104654
*CONN
*I *3023:B I *D sg13g2_nor2_1
*I *3022:Y O *D sg13g2_o21ai_1
*CAP
1 *3023:B 0
2 *3022:Y 0.000294435
3 *605:8 0.000294435
4 *605:8 *608:8 0.000332816
5 *605:8 *812:10 0.000124859
6 *317:8 *605:8 0
7 *318:8 *605:8 0
*RES
1 *3022:Y *605:8 43.0694 
2 *605:8 *3023:B 40 
*END

*D_NET *606 0.00039116
*CONN
*I *3027:A I *D sg13g2_nor2_1
*I *3024:Y O *D sg13g2_a21oi_1
*CAP
1 *3027:A 0.00019558
2 *3024:Y 0.00019558
3 *3027:A *3034:A1 0
4 *3023:A *3027:A 0
*RES
1 *3024:Y *3027:A 41.751 
*END

*D_NET *607 0.000614987
*CONN
*I *3026:A2 I *D sg13g2_o21ai_1
*I *3025:Y O *D sg13g2_nand4_1
*CAP
1 *3026:A2 0.000219655
2 *3025:Y 0.000219655
3 *3026:A2 *3026:B1 1.54008e-05
4 *3026:A2 *3026:A1 4.77425e-05
5 *3386:A *3026:A2 0
6 *373:24 *3026:A2 0.000112535
*RES
1 *3025:Y *3026:A2 42.3175 
*END

*D_NET *608 0.00141908
*CONN
*I *3027:B I *D sg13g2_nor2_1
*I *3026:Y O *D sg13g2_o21ai_1
*CAP
1 *3027:B 4.08322e-05
2 *3026:Y 0.000190591
3 *608:8 0.000231423
4 *608:8 *813:16 0.000441805
5 *608:8 *825:67 0
6 *604:10 *608:8 0.000181608
7 *605:8 *608:8 0.000332816
*RES
1 *3026:Y *608:8 42.8222 
2 *608:8 *3027:B 40.3193 
*END

*D_NET *609 0.000878708
*CONN
*I *3031:A I *D sg13g2_nor2_1
*I *3028:Y O *D sg13g2_a21oi_1
*CAP
1 *3031:A 0.000137028
2 *3028:Y 0.000157377
3 *609:8 0.000294406
4 *3031:A *3031:B 0
5 *3031:A *1145:37 0.00024211
6 *319:10 *3031:A 4.77863e-05
*RES
1 *3028:Y *609:8 41.339 
2 *609:8 *3031:A 41.6171 
*END

*D_NET *610 0.00177224
*CONN
*I *3508:A I *D sg13g2_dlygate4sd3_1
*I *3029:Y O *D sg13g2_nand4_1
*CAP
1 *3508:A 0.000117806
2 *3029:Y 0.000224414
3 *610:8 0.00034222
4 *3508:A *718:20 0.000208576
5 *3508:A *1145:37 0.000208576
6 *610:8 *794:41 0.000670648
*RES
1 *3029:Y *610:8 43.0694 
2 *610:8 *3508:A 41.4008 
*END

*D_NET *611 0.000894293
*CONN
*I *3031:B I *D sg13g2_nor2_1
*I *3030:Y O *D sg13g2_o21ai_1
*CAP
1 *3031:B 0.000342991
2 *3030:Y 0.000342991
3 *3031:B *3283:CLK 0
4 *3031:B *908:69 1.54008e-05
5 *3031:B *908:84 0.00019291
6 *3031:B *1145:37 0
7 *3031:A *3031:B 0
8 *319:10 *3031:B 0
*RES
1 *3030:Y *3031:B 43.811 
*END

*D_NET *612 0.000569053
*CONN
*I *3035:A I *D sg13g2_nor2_1
*I *3032:Y O *D sg13g2_a21oi_1
*CAP
1 *3035:A 0.000204327
2 *3032:Y 0.000204327
3 *3035:A *824:87 1.54556e-05
4 *3035:A *1136:25 0
5 *320:10 *3035:A 0.000144942
*RES
1 *3032:Y *3035:A 41.9673 
*END

*D_NET *613 0.00154749
*CONN
*I *3034:A2 I *D sg13g2_o21ai_1
*I *3033:Y O *D sg13g2_nand4_1
*CAP
1 *3034:A2 0.00012597
2 *3033:Y 0.000401831
3 *613:8 0.0005278
4 *3034:A2 *3034:B1 4.77425e-05
5 *3034:A2 *3034:A1 0.000209505
6 *3034:A2 *823:33 0
7 *613:8 *3026:B1 0
8 *613:8 *3034:B1 0
9 *613:8 *3041:B 0.00023464
10 *613:8 *3041:D 0
11 *613:8 *824:12 0
12 *613:8 *875:29 0
*RES
1 *3033:Y *613:8 44.0582 
2 *613:8 *3034:A2 41.4008 
*END

*D_NET *614 0.00064897
*CONN
*I *3035:B I *D sg13g2_nor2_1
*I *3034:Y O *D sg13g2_o21ai_1
*CAP
1 *3035:B 0
2 *3034:Y 0.000324485
3 *614:8 0.000324485
4 *614:8 *711:64 0
5 *614:8 *824:8 0
*RES
1 *3034:Y *614:8 42.575 
2 *614:8 *3035:B 40 
*END

*D_NET *615 0.00026079
*CONN
*I *3039:A I *D sg13g2_nor2_1
*I *3036:Y O *D sg13g2_a21oi_1
*CAP
1 *3039:A 0.000120577
2 *3036:Y 0.000120577
3 *3039:A *3036:B1 1.9636e-05
4 *3039:A *3039:B 0
5 *3039:A *719:30 0
6 *3039:A *1140:31 0
7 *3039:A *1146:41 0
*RES
1 *3036:Y *3039:A 41.4986 
*END

*D_NET *616 0.000937184
*CONN
*I *3038:A2 I *D sg13g2_o21ai_1
*I *3037:Y O *D sg13g2_nand4_1
*CAP
1 *3038:A2 0
2 *3037:Y 0.000468592
3 *616:10 0.000468592
4 *616:10 *3029:D 0
5 *616:10 *778:29 0
6 *616:10 *823:52 0
7 *616:10 *897:8 0
8 *616:10 *898:97 0
9 *616:10 *1145:37 0
*RES
1 *3037:Y *616:10 44.4084 
2 *616:10 *3038:A2 40 
*END

*D_NET *617 0.000516405
*CONN
*I *3039:B I *D sg13g2_nor2_1
*I *3038:Y O *D sg13g2_o21ai_1
*CAP
1 *3039:B 0.000178236
2 *3038:Y 0.000178236
3 *3039:B *3036:A1 0
4 *3039:B *3036:B1 0
5 *3039:B *719:30 0.000144532
6 *3039:B *823:63 1.54008e-05
7 *3039:A *3039:B 0
8 *596:46 *3039:B 0
*RES
1 *3038:Y *3039:B 41.751 
*END

*D_NET *618 0.000410534
*CONN
*I *3043:A I *D sg13g2_nor2_1
*I *3040:Y O *D sg13g2_a21oi_1
*CAP
1 *3043:A 0.000205267
2 *3040:Y 0.000205267
3 *3043:A *3043:B 0
4 *3043:A *823:63 0
5 *3043:A *897:16 0
6 *596:37 *3043:A 0
*RES
1 *3040:Y *3043:A 41.9673 
*END

*D_NET *619 0.0015128
*CONN
*I *3042:A2 I *D sg13g2_o21ai_1
*I *3041:Y O *D sg13g2_nand4_1
*CAP
1 *3042:A2 0
2 *3041:Y 0.000481818
3 *619:10 0.000481818
4 *619:10 *3037:C 0
5 *619:10 *711:64 0
6 *619:10 *823:52 0
7 *619:10 *1123:38 0
8 *3041:A *619:10 1.54008e-05
9 *373:24 *619:10 0.000533766
*RES
1 *3041:Y *619:10 45.3972 
2 *619:10 *3042:A2 40 
*END

*D_NET *620 0.000943117
*CONN
*I *3043:B I *D sg13g2_nor2_1
*I *3042:Y O *D sg13g2_o21ai_1
*CAP
1 *3043:B 0.000131211
2 *3042:Y 0.000235927
3 *620:8 0.000367138
4 *3043:B *897:16 0
5 *620:8 *711:64 0
6 *620:8 *1148:27 0
7 *3043:A *3043:B 0
8 *596:37 *3043:B 0.00020884
*RES
1 *3042:Y *620:8 42.0806 
2 *620:8 *3043:B 41.4008 
*END

*D_NET *621 0.015962
*CONN
*I *3073:A2 I *D sg13g2_a21oi_1
*I *3065:A2 I *D sg13g2_a21oi_1
*I *3061:A2 I *D sg13g2_a21oi_1
*I *3057:A2 I *D sg13g2_a21oi_1
*I *3049:A2 I *D sg13g2_a21oi_1
*I *3045:A2 I *D sg13g2_a21oi_1
*I *3069:A2 I *D sg13g2_a21oi_1
*I *3053:A2 I *D sg13g2_a21oi_1
*I *3044:Y O *D sg13g2_nor3_1
*CAP
1 *3073:A2 0.000237999
2 *3065:A2 6.39208e-05
3 *3061:A2 0
4 *3057:A2 0.000192306
5 *3049:A2 5.43495e-05
6 *3045:A2 0.000638997
7 *3069:A2 0
8 *3053:A2 3.09874e-05
9 *3044:Y 0.000441086
10 *621:102 0.00030192
11 *621:100 0.000593035
12 *621:87 0.000981543
13 *621:70 0.0012503
14 *621:57 0.00080743
15 *621:44 0.000755581
16 *621:37 0.00105961
17 *621:25 0.0012019
18 *621:12 0.000140292
19 *621:10 0.000441086
20 *3045:A2 *2714:A 0.000241149
21 *3045:A2 *2930:C 0
22 *3045:A2 *3048:A 0.000208288
23 *3045:A2 *809:108 0
24 *3045:A2 *821:28 0.000290066
25 *3045:A2 *821:34 1.54556e-05
26 *3045:A2 *821:50 0
27 *3045:A2 *868:35 0
28 *3045:A2 *868:46 0
29 *3045:A2 *1135:12 0.000112426
30 *3049:A2 *821:50 1.54556e-05
31 *3049:A2 *821:63 6.47546e-05
32 *3053:A2 *3053:A1 4.77425e-05
33 *3057:A2 *2721:A 0.000337902
34 *3057:A2 *3057:A1 0.000144339
35 *3057:A2 *821:115 0.000208663
36 *3065:A2 *3065:A1 4.78192e-05
37 *3065:A2 *811:92 0
38 *3073:A2 *825:53 0.000306925
39 *621:10 *3044:B 4.76053e-05
40 *621:10 *3054:C 0
41 *621:10 *625:12 0.000183784
42 *621:10 *628:8 0
43 *621:10 *873:66 0
44 *621:10 *1135:12 0.000183827
45 *621:25 *3053:A1 6.46834e-05
46 *621:25 *821:63 0.000341119
47 *621:37 *2930:C 0
48 *621:37 *3069:A1 1.54556e-05
49 *621:37 *3299:RESET_B 0
50 *621:37 *3299:D 0.000242138
51 *621:37 *3488:A 0
52 *621:37 *708:8 0.000241941
53 *621:37 *708:44 0
54 *621:37 *821:74 0
55 *621:37 *1135:12 0
56 *621:37 *1135:32 0
57 *621:44 *821:63 0.000181192
58 *621:57 *821:63 0.000288917
59 *621:70 *811:55 0.000340762
60 *621:87 *2721:A 0.000274452
61 *621:87 *811:62 4.79017e-05
62 *621:87 *821:115 0.000194296
63 *621:87 *821:121 1.00461e-05
64 *621:100 *811:62 0.000226682
65 *621:100 *821:121 4.25029e-05
66 *621:100 *825:38 0
67 *621:100 *895:38 0
68 *3479:A *3045:A2 0
69 *3479:A *3049:A2 0
70 *324:8 *621:10 0.000508536
71 *324:8 *621:25 0.000341621
72 *324:8 *621:44 0.000159424
73 *324:8 *621:57 0.000159511
74 *328:10 *3065:A2 7.34778e-05
75 *328:10 *3073:A2 7.44765e-05
76 *365:22 *621:10 0
77 *374:18 *3073:A2 0.000306925
78 *374:18 *621:87 0.000177378
79 *374:18 *621:100 0
*RES
1 *3044:Y *621:10 44.9337 
2 *621:10 *621:12 20 
3 *621:12 *3053:A2 20.3193 
4 *621:12 *621:25 22.1218 
5 *621:25 *621:37 30.3103 
6 *621:37 *3069:A2 20 
7 *621:25 *621:44 0.8446 
8 *621:44 *3045:A2 46.1909 
9 *621:44 *621:57 1.6583 
10 *621:57 *3049:A2 40.5356 
11 *621:57 *621:70 27.0246 
12 *621:70 *3057:A2 22.266 
13 *621:70 *621:87 4.4702 
14 *621:87 *3061:A2 20 
15 *621:87 *621:100 46.0461 
16 *621:100 *621:102 20 
17 *621:102 *3065:A2 40.6695 
18 *621:102 *3073:A2 42.8943 
*END

*D_NET *622 0.0010329
*CONN
*I *3048:A I *D sg13g2_nor2_1
*I *3045:Y O *D sg13g2_a21oi_1
*CAP
1 *3048:A 0.000121911
2 *3045:Y 3.48823e-05
3 *622:8 0.000156793
4 *3048:A *809:108 0
5 *622:8 *708:82 0.000183828
6 *622:8 *889:48 0.000183828
7 *3045:A2 *3048:A 0.000208288
8 *323:12 *3048:A 0.000143374
*RES
1 *3045:Y *622:8 40.8446 
2 *622:8 *3048:A 41.4008 
*END

*D_NET *623 0.00153309
*CONN
*I *3047:A2 I *D sg13g2_o21ai_1
*I *3046:Y O *D sg13g2_nand4_1
*CAP
1 *3047:A2 7.8848e-05
2 *3046:Y 0.000264213
3 *623:10 0.000343061
4 *3047:A2 *3576:A 0
5 *623:10 *3047:A1 0
6 *623:10 *3450:A 0.000112634
7 *623:10 *3574:A 1.674e-05
8 *623:10 *3576:A 0.000112634
9 *623:10 *708:82 0.000231417
10 *623:10 *886:8 0.000143171
11 *623:10 *889:48 0.000230373
*RES
1 *3046:Y *623:10 43.1415 
2 *623:10 *3047:A2 40.8909 
*END

*D_NET *624 0.000821558
*CONN
*I *3048:B I *D sg13g2_nor2_1
*I *3047:Y O *D sg13g2_o21ai_1
*CAP
1 *3048:B 0
2 *3047:Y 0.000306786
3 *624:10 0.000306786
4 *624:10 *3576:A 0
5 *624:10 *1092:8 0
6 *368:6 *624:10 0.000207986
7 *493:28 *624:10 0
*RES
1 *3047:Y *624:10 42.4926 
2 *624:10 *3048:B 40 
*END

*D_NET *625 0.00233316
*CONN
*I *3052:A I *D sg13g2_nor2_1
*I *3049:Y O *D sg13g2_a21oi_1
*CAP
1 *3052:A 0
2 *3049:Y 0.000701936
3 *625:12 0.000701936
4 *625:12 *1135:12 0.000615341
5 *369:10 *625:12 0.000130162
6 *621:10 *625:12 0.000183784
*RES
1 *3049:Y *625:12 47.1997 
2 *625:12 *3052:A 40 
*END

*D_NET *626 0.00196461
*CONN
*I *3051:A2 I *D sg13g2_o21ai_1
*I *3050:Y O *D sg13g2_nand4_1
*CAP
1 *3051:A2 0.000123419
2 *3050:Y 0.000415897
3 *626:10 0.000539316
4 *3051:A2 *3051:A1 0.000144361
5 *3051:A2 *894:50 1.54008e-05
6 *626:10 *2717:A 7.92837e-05
7 *626:10 *3574:A 0.000240536
8 *626:10 *1120:10 0.000343571
9 *368:6 *626:10 0
10 *370:10 *626:10 4.74248e-05
11 *370:24 *626:10 1.54008e-05
12 *492:20 *626:10 0
*RES
1 *3050:Y *626:10 44.0685 
2 *626:10 *3051:A2 41.1845 
*END

*D_NET *627 0.00103339
*CONN
*I *3052:B I *D sg13g2_nor2_1
*I *3051:Y O *D sg13g2_o21ai_1
*CAP
1 *3052:B 0.000139238
2 *3051:Y 0.000116183
3 *627:8 0.000255421
4 *3052:B *894:50 0
5 *627:8 *2732:A 0.0003461
6 *627:8 *1121:10 0
7 *365:22 *3052:B 0.000176449
8 *369:10 *3052:B 0
*RES
1 *3051:Y *627:8 41.5862 
2 *627:8 *3052:B 41.4008 
*END

*D_NET *628 0.00200449
*CONN
*I *3056:A I *D sg13g2_nor2_1
*I *3053:Y O *D sg13g2_a21oi_1
*CAP
1 *3056:A 0.000428016
2 *3053:Y 0.000379381
3 *628:8 0.000807397
4 *3056:A *2934:D 0
5 *3056:A *629:14 0
6 *3056:A *809:54 4.77425e-05
7 *3056:A *873:66 0
8 *3056:A *894:40 0
9 *3056:A *894:50 0
10 *628:8 *809:54 0
11 *628:8 *867:96 0
12 *628:8 *867:102 0
13 *628:8 *894:50 0
14 *628:8 *1037:8 0
15 *324:8 *628:8 0.00034195
16 *621:10 *628:8 0
*RES
1 *3053:Y *628:8 44.0582 
2 *628:8 *3056:A 43.9449 
*END

*D_NET *629 0.00167752
*CONN
*I *3485:A I *D sg13g2_dlygate4sd3_1
*I *3054:Y O *D sg13g2_nand4_1
*CAP
1 *3485:A 0
2 *3054:Y 0.000561611
3 *629:14 0.000561611
4 *629:14 *3301:CLK 0
5 *629:14 *821:63 0
6 *629:14 *894:50 0
7 *629:14 *1037:8 0.000554297
8 *3056:A *629:14 0
9 *365:22 *629:14 0
*RES
1 *3054:Y *629:14 46.1285 
2 *629:14 *3485:A 40 
*END

*D_NET *630 0.000490011
*CONN
*I *3056:B I *D sg13g2_nor2_1
*I *3055:Y O *D sg13g2_o21ai_1
*CAP
1 *3056:B 0.000140102
2 *3055:Y 0.000140102
3 *3056:B *894:40 0.000209807
4 *3486:A *3056:B 0
*RES
1 *3055:Y *3056:B 41.4008 
*END

*D_NET *631 0.000564908
*CONN
*I *3060:A I *D sg13g2_nor2_1
*I *3057:Y O *D sg13g2_a21oi_1
*CAP
1 *3060:A 0.000210868
2 *3057:Y 0.000210868
3 *3060:A *3060:B 0
4 *3060:A *811:8 0
5 *3060:A *811:47 0.000143171
6 *3060:A *825:10 0
7 *3060:A *886:97 0
*RES
1 *3057:Y *3060:A 41.9673 
*END

*D_NET *632 0.000963111
*CONN
*I *3059:A2 I *D sg13g2_o21ai_1
*I *3058:Y O *D sg13g2_nand4_1
*CAP
1 *3059:A2 0.000337924
2 *3058:Y 0.000337924
3 *3059:A2 *3059:B1 4.77425e-05
4 *3059:A2 *3303:RESET_B 0
5 *3059:A2 *3587:A 0
6 *3059:A2 *811:8 1.54008e-05
7 *3059:A2 *811:16 0.000176592
8 *3059:A2 *1064:10 0
9 *3501:A *3059:A2 0
10 *368:31 *3059:A2 4.75278e-05
*RES
1 *3058:Y *3059:A2 43.4923 
*END

*D_NET *633 0.000448436
*CONN
*I *3060:B I *D sg13g2_nor2_1
*I *3059:Y O *D sg13g2_o21ai_1
*CAP
1 *3060:B 0.000224218
2 *3059:Y 0.000224218
3 *3060:B *3303:RESET_B 0
4 *3060:B *811:8 0
5 *3060:B *825:10 0
6 *3060:B *886:97 0
7 *3060:A *3060:B 0
*RES
1 *3059:Y *3060:B 42.2454 
*END

*D_NET *634 0.00140428
*CONN
*I *3064:A I *D sg13g2_nor2_1
*I *3061:Y O *D sg13g2_a21oi_1
*CAP
1 *3064:A 0.00018603
2 *3061:Y 0.000150277
3 *634:8 0.000336307
4 *634:8 *645:8 0
5 *634:8 *895:67 0.000182525
6 *634:8 *1139:14 0
7 *3492:A *3064:A 0.000209807
8 *373:24 *3064:A 0.000339333
9 *374:18 *3064:A 0
*RES
1 *3061:Y *634:8 41.5862 
2 *634:8 *3064:A 42.266 
*END

*D_NET *635 0.00259375
*CONN
*I *3491:A I *D sg13g2_dlygate4sd3_1
*I *3062:Y O *D sg13g2_nand4_1
*CAP
1 *3491:A 0.000321795
2 *3062:Y 0.000263353
3 *635:10 0.000585148
4 *3491:A *2721:A 0
5 *3491:A *3303:D 0.000144624
6 *3491:A *825:10 0
7 *635:10 *886:97 0.0003316
8 *635:10 *1104:10 4.77251e-05
9 *635:10 *1108:14 0.000130062
10 *635:10 *1120:10 0
11 *3396:A *3491:A 0
12 *492:20 *635:10 0.000769446
*RES
1 *3062:Y *635:10 43.8831 
2 *635:10 *3491:A 42.6986 
*END

*D_NET *636 0.00170198
*CONN
*I *3064:B I *D sg13g2_nor2_1
*I *3063:Y O *D sg13g2_o21ai_1
*CAP
1 *3064:B 0
2 *3063:Y 0.000504074
3 *636:10 0.000504074
4 *636:10 *895:67 0.000339294
5 *636:10 *895:77 1.54008e-05
6 *372:8 *636:10 0
7 *377:6 *636:10 0.000339135
*RES
1 *3063:Y *636:10 45.0882 
2 *636:10 *3064:B 40 
*END

*D_NET *637 0.000722693
*CONN
*I *3068:A I *D sg13g2_nor2_1
*I *3065:Y O *D sg13g2_a21oi_1
*CAP
1 *3068:A 0.000175158
2 *3065:Y 0.000186189
3 *637:8 0.000361347
4 *3068:A *877:34 0
5 *637:8 *811:92 0
6 *637:8 *895:38 0
7 *328:10 *3068:A 0
8 *377:6 *3068:A 0
9 *378:14 *3068:A 0
*RES
1 *3065:Y *637:8 41.339 
2 *637:8 *3068:A 41.6171 
*END

*D_NET *638 0.0014185
*CONN
*I *3067:A2 I *D sg13g2_o21ai_1
*I *3066:Y O *D sg13g2_nand4_1
*CAP
1 *3067:A2 4.87124e-05
2 *3066:Y 0.000454069
3 *638:8 0.000502781
4 *3067:A2 *811:70 4.77425e-05
5 *3067:A2 *895:67 8.00842e-05
6 *638:8 *639:10 0
7 *638:8 *811:70 0.000285109
8 *638:8 *895:42 0
9 *638:8 *895:67 0
10 *364:12 *638:8 0
*RES
1 *3066:Y *638:8 44.5526 
2 *638:8 *3067:A2 40.5356 
*END

*D_NET *639 0.0013972
*CONN
*I *3068:B I *D sg13g2_nor2_1
*I *3067:Y O *D sg13g2_o21ai_1
*CAP
1 *3068:B 8.33181e-05
2 *3067:Y 0.000474795
3 *639:10 0.000558113
4 *3068:B *877:34 0
5 *639:10 *3076:A 0
6 *639:10 *645:8 0
7 *639:10 *697:204 0
8 *639:10 *873:99 0
9 *639:10 *895:42 0
10 *639:10 *895:57 0
11 *372:16 *639:10 0.000280969
12 *374:18 *639:10 0
13 *638:8 *639:10 0
*RES
1 *3067:Y *639:10 44.3157 
2 *639:10 *3068:B 40.7519 
*END

*D_NET *640 0.00110067
*CONN
*I *3072:A I *D sg13g2_nor2_1
*I *3069:Y O *D sg13g2_a21oi_1
*CAP
1 *3072:A 0.000166925
2 *3069:Y 0.000383412
3 *640:8 0.000550336
4 *3072:A *3072:B 0
5 *3072:A *873:80 0
6 *3072:A *1141:27 0
7 *640:8 *2937:A1 0
8 *640:8 *895:23 0
9 *640:8 *895:38 0
*RES
1 *3069:Y *640:8 43.5638 
2 *640:8 *3072:A 41.4008 
*END

*D_NET *641 0.00163097
*CONN
*I *3488:A I *D sg13g2_dlygate4sd3_1
*I *3070:Y O *D sg13g2_nand4_1
*CAP
1 *3488:A 0.00013954
2 *3070:Y 0.000150265
3 *641:8 0.000289806
4 *3488:A *821:74 0.000208195
5 *641:8 *3070:C 0
6 *641:8 *3070:D 0.000288589
7 *641:8 *873:99 0.000554578
8 *2934:A *641:8 0
9 *621:37 *3488:A 0
*RES
1 *3070:Y *641:8 42.575 
2 *641:8 *3488:A 41.4008 
*END

*D_NET *642 0.000390935
*CONN
*I *3072:B I *D sg13g2_nor2_1
*I *3071:Y O *D sg13g2_o21ai_1
*CAP
1 *3072:B 0.000173636
2 *3071:Y 0.000173636
3 *3072:B *3309:D 0
4 *3072:B *1141:27 4.36621e-05
5 *3072:A *3072:B 0
*RES
1 *3071:Y *3072:B 41.3725 
*END

*D_NET *643 0.00137866
*CONN
*I *3076:A I *D sg13g2_nor2_1
*I *3073:Y O *D sg13g2_a21oi_1
*CAP
1 *3076:A 0.000689331
2 *3073:Y 0.000689331
3 *3076:A *825:53 0
4 *3076:A *1123:24 0
5 *373:24 *3076:A 0
6 *374:18 *3076:A 0
7 *639:10 *3076:A 0
*RES
1 *3073:Y *3076:A 46.592 
*END

*D_NET *644 0.000368802
*CONN
*I *3503:A I *D sg13g2_dlygate4sd3_1
*I *3074:Y O *D sg13g2_nand4_1
*CAP
1 *3503:A 0.000184401
2 *3074:Y 0.000184401
3 *3503:A *877:34 0
4 *377:6 *3503:A 0
*RES
1 *3074:Y *3503:A 41.4008 
*END

*D_NET *645 0.00074357
*CONN
*I *3076:B I *D sg13g2_nor2_1
*I *3075:Y O *D sg13g2_o21ai_1
*CAP
1 *3076:B 0
2 *3075:Y 0.00019055
3 *645:8 0.00019055
4 *645:8 *811:70 0.000128247
5 *645:8 *895:57 0.000234224
6 *645:8 *1139:14 0
7 *330:8 *645:8 0
8 *634:8 *645:8 0
9 *639:10 *645:8 0
*RES
1 *3075:Y *645:8 42.3278 
2 *645:8 *3076:B 40 
*END

*D_NET *646 0.0277417
*CONN
*I *3082:A2 I *D sg13g2_a21oi_1
*I *3106:A2 I *D sg13g2_a21oi_1
*I *3098:A2 I *D sg13g2_a21oi_1
*I *3086:A2 I *D sg13g2_a21oi_1
*I *3102:A2 I *D sg13g2_a21oi_1
*I *3094:A2 I *D sg13g2_a21oi_1
*I *3090:A2 I *D sg13g2_a21oi_1
*I *3078:A2 I *D sg13g2_a21oi_1
*I *3077:Y O *D sg13g2_nor3_1
*CAP
1 *3082:A2 0
2 *3106:A2 0
3 *3098:A2 0
4 *3086:A2 0
5 *3102:A2 0.000129102
6 *3094:A2 0.00041876
7 *3090:A2 0.000395078
8 *3078:A2 0
9 *3077:Y 0.000168807
10 *646:120 0.000423246
11 *646:102 0.000124715
12 *646:94 0.00105444
13 *646:84 0.00146312
14 *646:74 0.000986443
15 *646:72 0.00145933
16 *646:57 0.00209713
17 *646:35 0.00166055
18 *646:33 0.00138521
19 *646:31 0.00239996
20 *646:20 0.00128885
21 *646:14 0.00149321
22 *646:8 0.00277313
23 *3090:A2 *3090:A1 8.0216e-05
24 *3090:A2 *3090:B1 0
25 *3090:A2 *909:38 0.000176591
26 *3094:A2 *3094:A1 0.000662354
27 *3094:A2 *721:48 0
28 *3094:A2 *795:26 0.000758729
29 *3102:A2 *3102:A1 7.48257e-05
30 *3102:A2 *724:43 0
31 *646:8 *818:14 0
32 *646:8 *855:87 0
33 *646:14 *755:23 0.000241979
34 *646:20 *2968:B1 0
35 *646:20 *3271:CLK 0
36 *646:20 *3313:CLK 0.000529369
37 *646:20 *697:21 0
38 *646:20 *697:34 0
39 *646:20 *707:16 0.000289113
40 *646:20 *707:30 0.00053237
41 *646:20 *707:41 0.000265893
42 *646:20 *707:60 0.000585402
43 *646:20 *755:8 0
44 *646:20 *820:82 3.15716e-05
45 *646:20 *892:64 0
46 *646:31 *720:25 0
47 *646:31 *755:23 0
48 *646:31 *758:57 0
49 *646:31 *796:28 0.000176475
50 *646:31 *819:24 4.78524e-05
51 *646:35 *712:10 0
52 *646:35 *768:12 0
53 *646:35 *819:102 0
54 *646:35 *833:14 0
55 *646:57 *3325:CLK 0
56 *646:57 *712:10 0
57 *646:57 *768:12 0
58 *646:72 *2954:B1 0.000230787
59 *646:72 *3082:A1 0
60 *646:72 *3082:B1 0
61 *646:72 *650:8 0
62 *646:72 *697:121 0
63 *646:72 *729:35 0.00034112
64 *646:72 *736:32 0
65 *646:72 *768:12 0
66 *646:72 *799:16 0.000765039
67 *646:72 *819:100 0
68 *646:74 *736:32 0
69 *646:84 *3098:B1 0
70 *646:84 *736:32 0
71 *646:84 *797:29 0.000283164
72 *646:84 *824:36 7.49633e-05
73 *646:84 *1130:27 0
74 *646:94 *3089:B 0
75 *646:94 *3108:B1 0
76 *646:94 *3109:B 0.000175986
77 *646:94 *670:8 0
78 *646:94 *736:32 0
79 *646:94 *748:31 0
80 *646:94 *797:29 0
81 *646:94 *824:36 0.000442275
82 *646:102 *3086:A1 1.53662e-05
83 *646:102 *3089:B 0
84 *646:102 *653:8 7.49997e-05
85 *646:102 *794:41 0.000232778
86 *646:120 *3082:A1 7.34423e-05
87 *646:120 *3106:A1 9.58196e-06
88 *646:120 *3109:A 0
89 *646:120 *650:8 0
90 *646:120 *710:83 0
91 *646:120 *799:16 0
92 *646:120 *1130:27 0.000124824
93 *3317:D *646:94 0.000144084
94 *3317:D *646:102 0
95 *253:8 *646:35 0
96 *310:10 *646:14 7.99485e-05
97 *336:8 *646:84 0
98 *336:8 *646:94 0
99 *411:8 *646:35 0
100 *546:12 *646:14 0.000371342
101 *581:8 *646:20 0.00012816
*RES
1 *3077:Y *646:8 41.5862 
2 *646:8 *646:14 42.4823 
3 *646:14 *646:20 35.6869 
4 *646:20 *3078:A2 20 
5 *646:8 *646:31 39.7657 
6 *646:31 *646:33 20 
7 *646:33 *646:35 7.7662 
8 *646:35 *3090:A2 43.2651 
9 *646:35 *3094:A2 45.0779 
10 *646:33 *646:57 4.5526 
11 *646:57 *3102:A2 41.1845 
12 *646:57 *646:72 35.3779 
13 *646:72 *646:74 0.3193 
14 *646:74 *646:84 45.2221 
15 *646:84 *646:94 49.7026 
16 *646:94 *646:102 41.6274 
17 *646:102 *3086:A2 20 
18 *646:84 *3098:A2 20 
19 *646:74 *646:120 44.0917 
20 *646:120 *3106:A2 20 
21 *646:72 *3082:A2 20 
*END

*D_NET *647 0.00115516
*CONN
*I *3081:A I *D sg13g2_nor2_1
*I *3078:Y O *D sg13g2_a21oi_1
*CAP
1 *3081:A 0.000318798
2 *3078:Y 0.000117832
3 *647:8 0.000436629
4 *3081:A *2968:B1 0
5 *3081:A *3081:B 1.54556e-05
6 *3081:A *759:28 8.02698e-05
7 *647:8 *3313:CLK 0
8 *647:8 *806:33 7.34121e-05
9 *647:8 *820:97 0
10 *546:120 *3081:A 0.000112766
*RES
1 *3078:Y *647:8 41.339 
2 *647:8 *3081:A 43.1827 
*END

*D_NET *648 0.000668096
*CONN
*I *3080:A2 I *D sg13g2_o21ai_1
*I *3079:Y O *D sg13g2_nand4_1
*CAP
1 *3080:A2 0.000302476
2 *3079:Y 0.000302476
3 *3080:A2 *3079:C 0
4 *3080:A2 *3080:B1 4.77425e-05
5 *3080:A2 *3080:A1 1.54008e-05
6 *3080:A2 *3443:A 0
7 *3080:A2 *759:28 0
8 *3:30 *3080:A2 0
*RES
1 *3079:Y *3080:A2 42.8634 
*END

*D_NET *649 0.000754753
*CONN
*I *3081:B I *D sg13g2_nor2_1
*I *3080:Y O *D sg13g2_o21ai_1
*CAP
1 *3081:B 0.000338543
2 *3080:Y 0.000338543
3 *3081:B *2968:B1 0
4 *3081:B *3079:C 4.68099e-05
5 *3081:B *3080:B1 1.54008e-05
6 *3081:B *3313:RESET_B 0
7 *3081:B *759:28 0
8 *3081:A *3081:B 1.54556e-05
9 *3313:D *3081:B 0
*RES
1 *3080:Y *3081:B 43.3166 
*END

*D_NET *650 0.0010377
*CONN
*I *3085:A I *D sg13g2_nor2_1
*I *3082:Y O *D sg13g2_a21oi_1
*CAP
1 *3085:A 5.93182e-05
2 *3082:Y 0.000459531
3 *650:8 0.000518849
4 *3085:A *725:29 0
5 *3085:A *1130:27 0
6 *650:8 *3082:A1 0
7 *650:8 *799:16 0
8 *646:72 *650:8 0
9 *646:120 *650:8 0
*RES
1 *3082:Y *650:8 43.5638 
2 *650:8 *3085:A 40.5356 
*END

*D_NET *651 0.001079
*CONN
*I *3084:A2 I *D sg13g2_o21ai_1
*I *3083:Y O *D sg13g2_nand4_1
*CAP
1 *3084:A2 0.000137495
2 *3083:Y 9.86441e-05
3 *651:8 0.000236139
4 *3084:A2 *3084:B1 8.00842e-05
5 *3084:A2 *3084:A1 0.000112426
6 *3084:A2 *736:32 0
7 *651:8 *794:41 0.000286947
8 *651:8 *878:60 0
9 *356:46 *651:8 0.000127262
*RES
1 *3083:Y *651:8 41.339 
2 *651:8 *3084:A2 41.4008 
*END

*D_NET *652 0.00163265
*CONN
*I *3085:B I *D sg13g2_nor2_1
*I *3084:Y O *D sg13g2_o21ai_1
*CAP
1 *3085:B 0.000808623
2 *3084:Y 0.000808623
3 *3085:B *3084:B1 1.54008e-05
4 *3085:B *725:29 0
5 *3085:B *736:32 0
6 *3085:B *1130:27 0
*RES
1 *3084:Y *3085:B 48.5902 
*END

*D_NET *653 0.000987679
*CONN
*I *3089:A I *D sg13g2_nor2_1
*I *3086:Y O *D sg13g2_a21oi_1
*CAP
1 *3089:A 0
2 *3086:Y 2.53234e-05
3 *653:16 0.000186656
4 *653:8 0.000211979
5 *653:8 *1126:18 2.2407e-05
6 *653:16 *795:28 0.000233157
7 *653:16 *796:34 0.000233157
8 *646:102 *653:8 7.49997e-05
*RES
1 *3086:Y *653:8 40.3502 
2 *653:8 *653:16 42.696 
3 *653:16 *3089:A 40 
*END

*D_NET *654 0.00123274
*CONN
*I *3088:A2 I *D sg13g2_o21ai_1
*I *3087:Y O *D sg13g2_nand4_1
*CAP
1 *3088:A2 0
2 *3087:Y 0.000323667
3 *654:10 0.000323667
4 *654:10 *744:33 0.000207854
5 *654:10 *814:35 7.31655e-05
6 *654:10 *814:56 0
7 *654:10 *872:63 4.77425e-05
8 *361:18 *654:10 0.000177683
9 *361:51 *654:10 7.89557e-05
*RES
1 *3087:Y *654:10 42.987 
2 *654:10 *3088:A2 40 
*END

*D_NET *655 0.00123787
*CONN
*I *3089:B I *D sg13g2_nor2_1
*I *3088:Y O *D sg13g2_o21ai_1
*CAP
1 *3089:B 0.000618934
2 *3088:Y 0.000618934
3 *3089:B *3086:A1 0
4 *3089:B *3088:B1 0
5 *3089:B *3107:C 0
6 *3089:B *3108:A2 0
7 *3089:B *822:54 0
8 *3089:B *872:44 0
9 *646:94 *3089:B 0
10 *646:102 *3089:B 0
*RES
1 *3088:Y *3089:B 45.1868 
*END

*D_NET *656 0.00057052
*CONN
*I *3093:A I *D sg13g2_nor2_1
*I *3090:Y O *D sg13g2_a21oi_1
*CAP
1 *3093:A 2.495e-05
2 *3090:Y 0.000212444
3 *656:10 0.000237394
4 *3093:A *3319:CLK 3.24568e-05
5 *3093:A *3321:CLK 1.54556e-05
6 *656:10 *661:20 0
7 *656:10 *712:22 0
8 *334:10 *3093:A 4.78195e-05
*RES
1 *3090:Y *656:10 42.1527 
2 *656:10 *3093:A 40.3193 
*END

*D_NET *657 0.00202118
*CONN
*I *3092:A2 I *D sg13g2_o21ai_1
*I *3091:Y O *D sg13g2_nand4_1
*CAP
1 *3092:A2 0
2 *3091:Y 0.000509972
3 *657:10 0.000509972
4 *657:10 *721:48 0.000468387
5 *657:10 *790:34 0
6 *657:10 *899:75 0
7 *657:10 *909:38 0.000532843
*RES
1 *3091:Y *657:10 45.6444 
2 *657:10 *3092:A2 40 
*END

*D_NET *658 0.00124569
*CONN
*I *3093:B I *D sg13g2_nor2_1
*I *3092:Y O *D sg13g2_o21ai_1
*CAP
1 *3093:B 0.000615145
2 *3092:Y 0.000615145
3 *3093:B *3321:RESET_B 0
4 *3093:B *3321:CLK 0
5 *334:10 *3093:B 1.54008e-05
*RES
1 *3092:Y *3093:B 46.6332 
*END

*D_NET *659 0.0016015
*CONN
*I *3097:A I *D sg13g2_nor2_1
*I *3094:Y O *D sg13g2_a21oi_1
*CAP
1 *3097:A 0
2 *3094:Y 0.00045501
3 *659:10 0.00045501
4 *659:10 *3094:A1 0
5 *659:10 *661:20 0.000449257
6 *659:10 *712:22 0
7 *659:10 *721:48 0.00024222
*RES
1 *3094:Y *659:10 44.9337 
2 *659:10 *3097:A 40 
*END

*D_NET *660 0.00169632
*CONN
*I *3096:A2 I *D sg13g2_o21ai_1
*I *3095:Y O *D sg13g2_nand4_1
*CAP
1 *3096:A2 0.000213073
2 *3095:Y 0.000395316
3 *660:8 0.000608389
4 *3096:A2 *3096:B1 1.54282e-05
5 *3096:A2 *721:28 0
6 *3096:A2 *807:76 0.000274132
7 *3096:A2 *807:91 6.48861e-05
8 *660:8 *2964:A1 0
9 *660:8 *752:24 0
10 *660:8 *790:38 0.000125095
11 *660:8 *807:76 0
*RES
1 *3095:Y *660:8 43.0694 
2 *660:8 *3096:A2 42.266 
*END

*D_NET *661 0.00287469
*CONN
*I *3097:B I *D sg13g2_nor2_1
*I *3096:Y O *D sg13g2_o21ai_1
*CAP
1 *3097:B 0
2 *3096:Y 0.000213249
3 *661:20 0.000705605
4 *661:10 0.000918854
5 *661:10 *3092:B1 0
6 *661:10 *3096:B1 4.77699e-05
7 *661:20 *3092:A1 0.00024211
8 *661:20 *3321:CLK 0
9 *661:20 *909:38 0.000297843
10 *335:8 *661:20 0
11 *656:10 *661:20 0
12 *659:10 *661:20 0.000449257
*RES
1 *3096:Y *661:10 41.8437 
2 *661:10 *661:20 48.1885 
3 *661:20 *3097:B 40 
*END

*D_NET *662 0.000493177
*CONN
*I *3101:A I *D sg13g2_nor2_1
*I *3098:Y O *D sg13g2_a21oi_1
*CAP
1 *3101:A 0.000246588
2 *3098:Y 0.000246588
3 *3101:A *736:32 0
*RES
1 *3098:Y *3101:A 42.4926 
*END

*D_NET *663 0.00133906
*CONN
*I *3100:A2 I *D sg13g2_o21ai_1
*I *3099:Y O *D sg13g2_nand4_1
*CAP
1 *3100:A2 0.000493891
2 *3099:Y 0.000493891
3 *3100:A2 *3099:C 0
4 *3100:A2 *3100:B1 1.54008e-05
5 *3100:A2 *3101:B 0
6 *3100:A2 *3437:A 0.000144271
7 *3100:A2 *736:32 0
8 *3100:A2 *814:60 0.000112287
9 *3100:A2 *872:10 7.93152e-05
10 *3100:A2 *872:44 0
11 *3100:A2 *888:6 0
*RES
1 *3099:Y *3100:A2 45.027 
*END

*D_NET *664 0.000844986
*CONN
*I *3101:B I *D sg13g2_nor2_1
*I *3100:Y O *D sg13g2_o21ai_1
*CAP
1 *3101:B 0.000422493
2 *3100:Y 0.000422493
3 *3101:B *3100:B1 0
4 *3101:B *736:32 0
5 *3101:B *814:75 0
6 *3100:A2 *3101:B 0
*RES
1 *3100:Y *3101:B 44.2642 
*END

*D_NET *665 0.000686144
*CONN
*I *3105:A I *D sg13g2_nor2_1
*I *3102:Y O *D sg13g2_a21oi_1
*CAP
1 *3105:A 0
2 *3102:Y 0.000254419
3 *665:10 0.000254419
4 *665:10 *697:105 0
5 *665:10 *724:43 0
6 *665:10 *794:37 0.000177306
*RES
1 *3102:Y *665:10 42.8022 
2 *665:10 *3105:A 40 
*END

*D_NET *666 0.0012334
*CONN
*I *3104:A2 I *D sg13g2_o21ai_1
*I *3103:Y O *D sg13g2_nand4_1
*CAP
1 *3104:A2 0.000368347
2 *3103:Y 0.000368347
3 *3104:A2 *3104:B1 8.00842e-05
4 *3104:A2 *758:35 0.000144233
5 *3104:A2 *806:66 0.000209203
6 *3104:A2 *808:54 1.54008e-05
7 *3104:A2 *885:119 4.77863e-05
*RES
1 *3103:Y *3104:A2 43.6977 
*END

*D_NET *667 0.00153178
*CONN
*I *3105:B I *D sg13g2_nor2_1
*I *3104:Y O *D sg13g2_o21ai_1
*CAP
1 *3105:B 0.000758191
2 *3104:Y 0.000758191
3 *3105:B *3104:B1 1.54008e-05
4 *3105:B *758:57 0
5 *3105:B *794:37 0
6 *3325:D *3105:B 0
*RES
1 *3104:Y *3105:B 46.2508 
*END

*D_NET *668 0.000911391
*CONN
*I *3109:A I *D sg13g2_nor2_1
*I *3106:Y O *D sg13g2_a21oi_1
*CAP
1 *3109:A 0.00035249
2 *3106:Y 0.00035249
3 *3109:A *3106:A1 0
4 *3109:A *3109:B 1.54008e-05
5 *3109:A *3327:RESET_B 0
6 *3109:A *710:83 1.54008e-05
7 *3109:A *748:31 0
8 *3327:D *3109:A 0.000175608
9 *646:120 *3109:A 0
*RES
1 *3106:Y *3109:A 43.605 
*END

*D_NET *669 0.00156599
*CONN
*I *3108:A2 I *D sg13g2_o21ai_1
*I *3107:Y O *D sg13g2_nand4_1
*CAP
1 *3108:A2 0.000371483
2 *3107:Y 0.000371483
3 *3108:A2 *3108:B1 0.000369297
4 *3108:A2 *744:33 0.000176426
5 *3108:A2 *744:41 2.17231e-05
6 *3108:A2 *814:75 0.000240174
7 *3089:B *3108:A2 0
8 *3107:A *3108:A2 1.54008e-05
*RES
1 *3107:Y *3108:A2 44.2642 
*END

*D_NET *670 0.00176533
*CONN
*I *3109:B I *D sg13g2_nor2_1
*I *3108:Y O *D sg13g2_o21ai_1
*CAP
1 *3109:B 0.000429354
2 *3108:Y 0.000160245
3 *670:8 0.000589599
4 *3109:B *3106:A1 0
5 *3109:B *3323:RESET_B 0
6 *3109:B *3323:CLK 0
7 *3109:B *710:83 0
8 *3109:B *824:30 0
9 *670:8 *824:24 0.000394749
10 *3109:A *3109:B 1.54008e-05
11 *646:94 *3109:B 0.000175986
12 *646:94 *670:8 0
*RES
1 *3108:Y *670:8 42.0806 
2 *670:8 *3109:B 44.3672 
*END

*D_NET *671 0.0210509
*CONN
*I *3127:A2 I *D sg13g2_a21oi_1
*I *3115:A2 I *D sg13g2_a21oi_1
*I *3111:A2 I *D sg13g2_a21oi_1
*I *3119:A2 I *D sg13g2_a21oi_1
*I *3135:A2 I *D sg13g2_a21oi_1
*I *3139:A2 I *D sg13g2_a21oi_1
*I *3123:A2 I *D sg13g2_a21oi_1
*I *3131:A2 I *D sg13g2_a21oi_1
*I *3110:Y O *D sg13g2_nor3_1
*CAP
1 *3127:A2 0
2 *3115:A2 0
3 *3111:A2 0
4 *3119:A2 0
5 *3135:A2 0.00038761
6 *3139:A2 0.000126416
7 *3123:A2 0.000890442
8 *3131:A2 4.16935e-05
9 *3110:Y 3.49277e-05
10 *671:117 0.000654246
11 *671:102 0.00162024
12 *671:100 0.00112218
13 *671:87 0.000206221
14 *671:81 0.000559224
15 *671:31 0.00101686
16 *671:29 0.000884045
17 *671:25 0.00199489
18 *671:14 0.00164911
19 *671:8 0.00116571
20 *671:6 0.000825636
21 *3123:A2 *3125:A1 0
22 *3123:A2 *3125:A2 0
23 *3123:A2 *697:81 0
24 *3123:A2 *758:25 0
25 *3123:A2 *805:60 0
26 *3123:A2 *817:81 1.54008e-05
27 *3123:A2 *866:35 0.000996362
28 *3123:A2 *891:35 0
29 *3131:A2 *3131:A1 8.03089e-05
30 *3131:A2 *3339:RESET_B 8.03089e-05
31 *3135:A2 *2875:B 0
32 *3135:A2 *3388:A 0
33 *3135:A2 *805:24 0
34 *3135:A2 *816:18 0
35 *3135:A2 *881:122 0
36 *3139:A2 *820:46 6.2775e-06
37 *3139:A2 *820:61 4.22708e-05
38 *671:6 *862:82 0
39 *671:8 *3119:A1 0.00046883
40 *671:8 *3333:CLK 0.000518294
41 *671:8 *862:72 0
42 *671:14 *2988:C 0
43 *671:14 *3119:A1 1.54008e-05
44 *671:14 *3333:CLK 0.000274578
45 *671:14 *856:12 0
46 *671:14 *862:72 0
47 *671:14 *866:10 0
48 *671:14 *881:68 0
49 *671:14 *884:60 0
50 *671:14 *889:16 0
51 *671:14 *889:31 0
52 *671:29 *805:24 0
53 *671:29 *805:37 0.000631054
54 *671:29 *808:16 0
55 *671:29 *808:29 0.0012778
56 *671:81 *3110:A 0
57 *671:81 *3119:A1 0.000300954
58 *671:81 *717:16 0
59 *671:81 *862:72 0.000179209
60 *671:81 *880:16 2.19989e-05
61 *671:81 *883:23 8.09323e-05
62 *671:81 *884:106 0.000213259
63 *671:87 *817:46 8.03692e-05
64 *671:87 *817:53 1.54556e-05
65 *671:100 *817:53 3.24568e-05
66 *671:100 *880:34 0
67 *671:100 *883:53 0
68 *671:102 *3116:D 0
69 *671:102 *3117:B1 0
70 *671:102 *3117:A2 0
71 *671:102 *803:98 0
72 *671:102 *862:108 0
73 *671:102 *884:110 0
74 *671:117 *2996:C 0.000176396
75 *671:117 *685:10 0.000341216
76 *671:117 *721:10 0
77 *671:117 *807:37 0
78 *671:117 *818:62 1.54008e-05
79 *671:117 *855:10 0.000177894
80 *671:117 *855:42 0.00012816
81 *671:117 *898:33 0
82 *671:117 *1073:8 0
83 *671:117 *1137:20 0
84 *3004:A *3135:A2 0
85 *3128:A *671:117 0
86 *3:18 *671:81 0
87 *354:24 *671:102 0
88 *354:32 *671:102 0
89 *355:20 *671:14 0
90 *357:22 *3139:A2 0.000102491
91 *493:28 *3135:A2 0.000214938
92 *493:28 *671:25 7.65288e-05
93 *571:20 *671:87 0
94 *571:20 *671:100 0
95 *571:20 *671:102 0.000274693
96 *571:125 *671:29 0.000597467
97 *576:8 *671:102 0.000209087
98 *576:8 *671:117 0.000225688
99 *580:22 *671:117 0
*RES
1 *3110:Y *671:6 20.3502 
2 *671:6 *671:8 3.5638 
3 *671:8 *671:14 26.0404 
4 *671:14 *3131:A2 40.5356 
5 *671:14 *671:25 5.335 
6 *671:25 *671:29 30.0528 
7 *671:29 *671:31 20 
8 *671:31 *3123:A2 49.5378 
9 *671:31 *3139:A2 41.3158 
10 *671:25 *3135:A2 43.708 
11 *671:8 *3119:A2 20 
12 *671:6 *671:81 45.6856 
13 *671:81 *671:87 40.5356 
14 *671:87 *3111:A2 20 
15 *671:87 *671:100 41.4111 
16 *671:100 *671:102 9.4039 
17 *671:102 *3115:A2 20 
18 *671:102 *671:117 47.1688 
19 *671:117 *3127:A2 20 
*END

*D_NET *672 0.00132767
*CONN
*I *3114:A I *D sg13g2_nor2_1
*I *3111:Y O *D sg13g2_a21oi_1
*CAP
1 *3114:A 0.000169616
2 *3111:Y 0.000357087
3 *672:8 0.000526702
4 *3114:A *3113:B1 0
5 *3114:A *3329:CLK 0.000274262
6 *672:8 *3112:C 0
7 *672:8 *3329:CLK 0
8 *672:8 *698:40 0
9 *672:8 *1125:10 0
*RES
1 *3111:Y *672:8 43.3166 
2 *672:8 *3114:A 41.8334 
*END

*D_NET *673 0.000342071
*CONN
*I *3113:A2 I *D sg13g2_o21ai_1
*I *3112:Y O *D sg13g2_nand4_1
*CAP
1 *3113:A2 5.63228e-05
2 *3112:Y 9.93121e-05
3 *673:8 0.000155635
4 *3113:A2 *3113:B1 1.54008e-05
5 *3113:A2 *3113:A1 1.54008e-05
6 *3113:A2 *3114:B 0
7 *673:8 *3329:CLK 0
*RES
1 *3112:Y *673:8 40.8446 
2 *673:8 *3113:A2 40.5356 
*END

*D_NET *674 0.00039273
*CONN
*I *3114:B I *D sg13g2_nor2_1
*I *3113:Y O *D sg13g2_o21ai_1
*CAP
1 *3114:B 0.000148452
2 *3113:Y 0.000148452
3 *3114:B *3329:CLK 1.54556e-05
4 *3113:A2 *3114:B 0
5 *580:22 *3114:B 8.03692e-05
*RES
1 *3113:Y *3114:B 42.0497 
*END

*D_NET *675 0.00142758
*CONN
*I *3118:A I *D sg13g2_nor2_1
*I *3115:Y O *D sg13g2_a21oi_1
*CAP
1 *3118:A 4.85372e-05
2 *3115:Y 0.000311074
3 *675:10 0.000359612
4 *3118:A *3118:B 1.54008e-05
5 *675:10 *3117:B1 0.000241588
6 *675:10 *892:8 6.47875e-05
7 *675:10 *892:23 0
8 *675:10 *898:46 0
9 *675:10 *1137:20 0.000306501
10 *360:34 *3118:A 8.00842e-05
*RES
1 *3115:Y *675:10 43.3887 
2 *675:10 *3118:A 40.5356 
*END

*D_NET *676 0.000589266
*CONN
*I *3117:A2 I *D sg13g2_o21ai_1
*I *3116:Y O *D sg13g2_nand4_1
*CAP
1 *3117:A2 0.000198727
2 *3116:Y 0.000198727
3 *3117:A2 *3116:D 0
4 *3117:A2 *3117:B1 1.54008e-05
5 *3117:A2 *803:98 0.000176411
6 *671:102 *3117:A2 0
*RES
1 *3116:Y *3117:A2 41.9673 
*END

*D_NET *677 0.00131441
*CONN
*I *3118:B I *D sg13g2_nor2_1
*I *3117:Y O *D sg13g2_o21ai_1
*CAP
1 *3118:B 0.000456292
2 *3117:Y 0.000456292
3 *3118:B *3117:B1 0
4 *3118:B *880:85 4.78141e-05
5 *3118:A *3118:B 1.54008e-05
6 *3331:D *3118:B 0
7 *360:34 *3118:B 0.000338607
*RES
1 *3117:Y *3118:B 44.2642 
*END

*D_NET *678 0.00213028
*CONN
*I *3122:A I *D sg13g2_nor2_1
*I *3119:Y O *D sg13g2_a21oi_1
*CAP
1 *3122:A 0.00023126
2 *3119:Y 0.000372691
3 *678:8 0.000603951
4 *3122:A *890:26 0
5 *678:8 *890:18 0.000292275
6 *678:8 *890:50 0.000238126
7 *678:8 *890:61 0.000391979
8 *355:20 *678:8 0
*RES
1 *3119:Y *678:8 45.047 
2 *678:8 *3122:A 42.4823 
*END

*D_NET *679 0.00077309
*CONN
*I *3121:A2 I *D sg13g2_o21ai_1
*I *3120:Y O *D sg13g2_nand4_1
*CAP
1 *3121:A2 0.000218071
2 *3120:Y 0.000218071
3 *3121:A2 *803:53 0.000144891
4 *3121:A2 *890:26 0.000176601
5 *3121:A2 *890:36 1.54556e-05
6 *2989:A2 *3121:A2 0
*RES
1 *3120:Y *3121:A2 42.2145 
*END

*D_NET *680 0.00127924
*CONN
*I *3122:B I *D sg13g2_nor2_1
*I *3121:Y O *D sg13g2_o21ai_1
*CAP
1 *3122:B 0.000607938
2 *3121:Y 0.000607938
3 *3122:B *885:153 0
4 *3122:B *890:26 3.24568e-05
5 *3122:B *890:36 1.54556e-05
6 *3333:D *3122:B 1.54556e-05
*RES
1 *3121:Y *3122:B 47.0246 
*END

*D_NET *681 0.00110727
*CONN
*I *3126:A I *D sg13g2_nor2_1
*I *3123:Y O *D sg13g2_a21oi_1
*CAP
1 *3126:A 5.06092e-05
2 *3123:Y 0.000148128
3 *681:8 0.000198737
4 *3126:A *883:61 8.01773e-05
5 *681:8 *682:10 7.51285e-05
6 *681:8 *866:39 0.000554493
7 *681:8 *884:116 0
*RES
1 *3123:Y *681:8 42.575 
2 *681:8 *3126:A 40.5356 
*END

*D_NET *682 0.000941256
*CONN
*I *3125:A2 I *D sg13g2_o21ai_1
*I *3124:Y O *D sg13g2_nand4_1
*CAP
1 *3125:A2 6.25364e-05
2 *3124:Y 0.000306425
3 *682:10 0.000368961
4 *3125:A2 *3125:B1 1.54556e-05
5 *3125:A2 *3125:A1 0.000112749
6 *682:10 *683:8 0
7 *682:10 *866:35 0
8 *682:10 *884:116 0
9 *682:10 *889:97 0
10 *2992:A *682:10 0
11 *3123:A2 *3125:A2 0
12 *681:8 *682:10 7.51285e-05
*RES
1 *3124:Y *682:10 43.0488 
2 *682:10 *3125:A2 40.7519 
*END

*D_NET *683 0.00123159
*CONN
*I *3126:B I *D sg13g2_nor2_1
*I *3125:Y O *D sg13g2_o21ai_1
*CAP
1 *3126:B 0
2 *3125:Y 0.000248076
3 *683:8 0.000248076
4 *683:8 *2992:B 0.000234311
5 *683:8 *866:39 0.000501132
6 *683:8 *889:97 0
7 *682:10 *683:8 0
*RES
1 *3125:Y *683:8 43.3166 
2 *683:8 *3126:B 40 
*END

*D_NET *684 0.000495381
*CONN
*I *3130:A I *D sg13g2_nor2_1
*I *3127:Y O *D sg13g2_a21oi_1
*CAP
1 *3130:A 5.80698e-05
2 *3127:Y 0.000189621
3 *684:8 0.000247691
4 *684:8 *892:93 0
5 *684:8 *1073:8 0
*RES
1 *3127:Y *684:8 41.8334 
2 *684:8 *3130:A 40.5356 
*END

*D_NET *685 0.000950268
*CONN
*I *3517:A I *D sg13g2_dlygate4sd3_1
*I *3128:Y O *D sg13g2_nand4_1
*CAP
1 *3517:A 0.000111434
2 *3128:Y 0.000185542
3 *685:10 0.000296976
4 *3517:A *2996:C 1.51e-05
5 *685:10 *880:100 0
6 *685:10 *898:33 0
7 *2997:A2 *3517:A 0
8 *571:43 *3517:A 0
9 *580:22 *685:10 0
10 *671:117 *685:10 0.000341216
*RES
1 *3128:Y *685:10 42.3381 
2 *685:10 *3517:A 40.9682 
*END

*D_NET *686 0.00021954
*CONN
*I *3130:B I *D sg13g2_nor2_1
*I *3129:Y O *D sg13g2_o21ai_1
*CAP
1 *3130:B 0
2 *3129:Y 0.00010977
3 *686:8 0.00010977
*RES
1 *3129:Y *686:8 41.0918 
2 *686:8 *3130:B 40 
*END

*D_NET *687 0.00131777
*CONN
*I *3134:A I *D sg13g2_nor2_1
*I *3131:Y O *D sg13g2_a21oi_1
*CAP
1 *3134:A 4.86037e-05
2 *3131:Y 0.000348141
3 *687:10 0.000396745
4 *3134:A *3134:B 0
5 *687:10 *3339:RESET_B 0
6 *687:10 *3339:CLK 0
7 *687:10 *722:14 0
8 *687:10 *873:31 0.000502466
9 *687:10 *889:31 0
10 *3001:A2 *3134:A 0
11 *3002:B *3134:A 0
12 *3339:D *3134:A 2.18115e-05
13 *354:24 *3134:A 0
14 *359:14 *687:10 0
*RES
1 *3131:Y *687:10 43.7286 
2 *687:10 *3134:A 40.4815 
*END

*D_NET *688 0.000209261
*CONN
*I *3483:A I *D sg13g2_dlygate4sd3_1
*I *3132:Y O *D sg13g2_nand4_1
*CAP
1 *3483:A 0.000104631
2 *3132:Y 0.000104631
*RES
1 *3132:Y *3483:A 41.133 
*END

*D_NET *689 0.000717768
*CONN
*I *3134:B I *D sg13g2_nor2_1
*I *3133:Y O *D sg13g2_o21ai_1
*CAP
1 *3134:B 0.000311095
2 *3133:Y 0.000311095
3 *3134:B *3000:D 0
4 *3134:B *803:30 0
5 *3134:B *890:36 1.54008e-05
6 *3134:B *1012:18 0
7 *3134:A *3134:B 0
8 *3339:D *3134:B 0
9 *354:24 *3134:B 8.01776e-05
*RES
1 *3133:Y *3134:B 42.7192 
*END

*D_NET *690 0.00233172
*CONN
*I *3138:A I *D sg13g2_nor2_1
*I *3135:Y O *D sg13g2_a21oi_1
*CAP
1 *3138:A 0.000171869
2 *3135:Y 0.000239914
3 *690:8 0.000411783
4 *3138:A *3138:B 0
5 *690:8 *3137:A1 0.000340009
6 *690:8 *805:12 0.000579612
7 *690:8 *863:10 0.000444595
8 *690:8 *873:31 0
9 *345:14 *3138:A 0.000143936
10 *352:16 *3138:A 0
*RES
1 *3135:Y *690:8 43.811 
2 *690:8 *3138:A 41.6171 
*END

*D_NET *691 0.0019973
*CONN
*I *3137:A2 I *D sg13g2_o21ai_1
*I *3136:Y O *D sg13g2_nand4_1
*CAP
1 *3137:A2 0.000204056
2 *3136:Y 0.000324238
3 *691:12 0.000528295
4 *3137:A2 *2875:A 0.000305105
5 *3137:A2 *3137:A1 0.000144635
6 *3137:A2 *885:22 0
7 *3137:A2 *890:91 1.54556e-05
8 *691:12 *3136:D 0
9 *691:12 *692:10 0.000395351
10 *691:12 *863:22 0
11 *691:12 *885:10 0
12 *3004:A *691:12 8.01612e-05
*RES
1 *3136:Y *691:12 43.2136 
2 *691:12 *3137:A2 42.0497 
*END

*D_NET *692 0.00239148
*CONN
*I *3138:B I *D sg13g2_nor2_1
*I *3137:Y O *D sg13g2_o21ai_1
*CAP
1 *3138:B 5.11054e-05
2 *3137:Y 0.000494982
3 *692:10 0.000546087
4 *3138:B *863:22 0
5 *3138:B *1120:22 0
6 *692:10 *2875:A 0.000272631
7 *692:10 *3136:D 0.000215413
8 *692:10 *723:16 0
9 *692:10 *873:39 0.000237656
10 *692:10 *881:8 0.000130344
11 *692:10 *1120:22 0
12 *3138:A *3138:B 0
13 *345:14 *3138:B 4.79124e-05
14 *691:12 *692:10 0.000395351
*RES
1 *3137:Y *692:10 45.6444 
2 *692:10 *3138:B 40.5356 
*END

*D_NET *693 0.000748427
*CONN
*I *3142:A I *D sg13g2_nor2_1
*I *3139:Y O *D sg13g2_a21oi_1
*CAP
1 *3142:A 0.00028558
2 *3139:Y 0.00028558
3 *3142:A *3139:B1 0
4 *3142:A *3142:B 0
5 *3142:A *820:61 0
6 *3343:D *3142:A 0.000177268
*RES
1 *3139:Y *3142:A 42.8634 
*END

*D_NET *694 0.000565572
*CONN
*I *3141:A2 I *D sg13g2_o21ai_1
*I *3140:Y O *D sg13g2_nand4_1
*CAP
1 *3141:A2 0.000170221
2 *3140:Y 0.000170221
3 *3141:A2 *3140:C 0
4 *3141:A2 *3141:B1 8.02105e-05
5 *3141:A2 *805:54 0.000144921
6 *3141:A2 *881:122 0
*RES
1 *3140:Y *3141:A2 41.854 
*END

*D_NET *695 0.00175626
*CONN
*I *3142:B I *D sg13g2_nor2_1
*I *3141:Y O *D sg13g2_o21ai_1
*CAP
1 *3142:B 0.000361459
2 *3141:Y 0
3 *695:14 0.000541274
4 *695:6 0.000179816
5 *3142:B *3343:RESET_B 0
6 *3142:B *724:29 0.000209637
7 *3142:B *805:54 0
8 *3142:B *820:46 0
9 *695:14 *891:41 0.000212014
10 *695:14 *1120:46 7.47964e-05
11 *3009:A2 *3142:B 0
12 *3142:A *3142:B 0
13 *3343:D *3142:B 0.000177268
*RES
1 *3141:Y *695:6 40 
2 *695:6 *695:14 42.1836 
3 *695:14 *3142:B 43.5638 
*END

*D_NET *696 0.000114628
*CONN
*I *3144:A I *D sg13g2_nand3_1
*I *3143:Y O *D sg13g2_o21ai_1
*CAP
1 *3144:A 5.7314e-05
2 *3143:Y 5.7314e-05
3 *3144:A *714:39 0
*RES
1 *3143:Y *3144:A 40.5974 
*END

*D_NET *697 0.051605
*CONN
*I *3352:A I *D sg13g2_buf_8
*I *3353:A I *D sg13g2_buf_8
*I *3355:A I *D sg13g2_buf_8
*I *3354:A I *D sg13g2_buf_8
*I *3362:A I *D sg13g2_buf_8
*I *3361:A I *D sg13g2_buf_8
*I *3360:A I *D sg13g2_buf_8
*I *3359:A I *D sg13g2_buf_8
*I *3351:A I *D sg13g2_buf_8
*I *3350:A I *D sg13g2_buf_8
*I *3364:A I *D sg13g2_buf_8
*I *3363:A I *D sg13g2_buf_8
*I *3349:A I *D sg13g2_buf_8
*I *3356:A I *D sg13g2_buf_8
*I *3358:A I *D sg13g2_buf_8
*I *3357:A I *D sg13g2_buf_8
*I *3348:X O *D sg13g2_buf_16
*CAP
1 *3352:A 0
2 *3353:A 0
3 *3355:A 6.04856e-05
4 *3354:A 5.7292e-05
5 *3362:A 0.000138092
6 *3361:A 0.000145505
7 *3360:A 0
8 *3359:A 0
9 *3351:A 0
10 *3350:A 0
11 *3364:A 7.90567e-05
12 *3363:A 0
13 *3349:A 0
14 *3356:A 0.000181513
15 *3358:A 0
16 *3357:A 0
17 *3348:X 0.000121398
18 *697:315 0.00111939
19 *697:301 0.000921452
20 *697:287 0.00037428
21 *697:285 0.00117795
22 *697:283 0.00136279
23 *697:275 0.00263572
24 *697:270 0.000153531
25 *697:268 8.50094e-05
26 *697:264 0.00214226
27 *697:240 0.00061074
28 *697:234 0.00356397
29 *697:220 0.000539349
30 *697:216 0.00164083
31 *697:204 0.00117076
32 *697:192 0.00149393
33 *697:188 0.00249309
34 *697:180 0.00312546
35 *697:167 0.000864016
36 *697:144 0.00107412
37 *697:139 0.00107412
38 *697:135 0.00101597
39 *697:121 0.000161761
40 *697:117 0.00123765
41 *697:105 0.00104295
42 *697:101 0.00194069
43 *697:97 0.00102822
44 *697:81 0.00137909
45 *697:65 0.000305878
46 *697:63 0.00361341
47 *697:34 0.000857717
48 *697:29 0.000857717
49 *697:27 6.51364e-05
50 *697:21 0.00043044
51 *697:19 0.00247526
52 *697:17 0.00129132
53 *697:11 0.00352821
54 *697:6 0.00196743
55 *3354:A *751:29 0
56 *3354:A *1133:45 0
57 *3355:A *1136:50 0
58 *3355:A *1140:56 0
59 *3361:A *711:37 0
60 *3361:A *822:16 0
61 *3361:A *822:78 0
62 *3362:A *2902:B1 0
63 *3364:A *713:10 0
64 *3364:A *713:29 0
65 *3364:A *903:48 0
66 *697:11 *766:49 0
67 *697:11 *790:38 0
68 *697:11 *872:44 0
69 *697:11 *1126:18 0
70 *697:17 *723:51 0
71 *697:17 *724:43 0
72 *697:17 *766:49 0
73 *697:21 *819:37 0
74 *697:27 *707:8 0
75 *697:34 *879:14 0
76 *697:34 *885:70 0
77 *697:63 *2947:C 0
78 *697:63 *707:49 0
79 *697:63 *759:10 0
80 *697:63 *759:28 0
81 *697:63 *761:10 0
82 *697:63 *819:37 0
83 *697:81 *3139:B1 0
84 *697:81 *698:89 0
85 *697:81 *724:8 0
86 *697:97 *2951:C 0
87 *697:97 *761:34 0
88 *697:101 *762:22 0
89 *697:101 *762:31 0
90 *697:105 *796:28 0
91 *697:105 *819:100 0
92 *697:105 *819:102 0
93 *697:117 *762:31 0
94 *697:121 *768:12 0
95 *697:135 *762:31 0
96 *697:135 *797:23 0
97 *697:144 *699:8 0
98 *697:144 *700:8 0
99 *697:144 *731:34 0
100 *697:144 *794:37 0
101 *697:144 *840:26 0
102 *697:144 *840:32 0
103 *697:144 *1129:56 0
104 *697:167 *710:60 0
105 *697:167 *747:32 0
106 *697:180 *3088:B1 0
107 *697:180 *710:60 0
108 *697:180 *747:32 0
109 *697:180 *859:21 0
110 *697:180 *898:97 0
111 *697:188 *2888:B1 0
112 *697:188 *3071:A2 0
113 *697:188 *3309:RESET_B 0
114 *697:188 *3309:D 0
115 *697:188 *821:74 0
116 *697:188 *822:16 0
117 *697:188 *824:18 0
118 *697:188 *873:80 0
119 *697:188 *883:104 0
120 *697:188 *1141:27 0
121 *697:188 *1141:33 0
122 *697:192 *868:63 0
123 *697:192 *877:40 0
124 *697:204 *811:92 0
125 *697:204 *825:53 0
126 *697:204 *868:63 0
127 *697:204 *873:99 0
128 *697:204 *877:34 0
129 *697:204 *877:40 0
130 *697:216 *859:21 0
131 *697:216 *898:97 0
132 *697:220 *711:37 0
133 *697:220 *822:78 0
134 *697:234 *823:52 0
135 *697:234 *859:21 0
136 *697:234 *898:97 0
137 *697:240 *2902:B1 0
138 *697:240 *870:44 0
139 *697:240 *870:55 0
140 *697:240 *875:58 0
141 *697:264 *2897:B 0
142 *697:264 *3016:B1 0
143 *697:264 *3227:RESET_B 0
144 *697:264 *3227:CLK 0
145 *697:264 *3283:RESET_B 0
146 *697:264 *701:28 0
147 *697:264 *751:29 0
148 *697:264 *870:55 0
149 *697:264 *887:92 0
150 *697:264 *1143:48 0
151 *697:264 *1144:28 0
152 *697:268 *701:28 0
153 *697:268 *751:29 0
154 *697:268 *1144:28 0
155 *697:275 *701:39 0
156 *697:275 *769:39 0
157 *697:283 *3179:RESET_B 0
158 *697:283 *3181:CLK 0
159 *697:283 *831:71 0
160 *697:283 *1135:85 0
161 *697:283 *1144:28 0
162 *697:287 *2838:A1 0
163 *697:287 *2838:B1 0
164 *697:301 *3195:CLK 0
165 *697:301 *704:8 0
166 *697:301 *831:33 0
167 *697:301 *905:50 0
168 *697:301 *905:65 0
169 *697:315 *701:63 0
170 *697:315 *701:89 0
171 *697:315 *769:39 0
172 *2891:A *697:188 0
173 *2903:B *697:264 0
174 *2948:A2 *697:63 0
175 *2952:A2 *697:97 0
176 *3016:A2 *697:264 0
177 *3018:A2 *697:264 0
178 *3123:A2 *697:81 0
179 *3195:D *3354:A 0
180 *3283:D *697:264 0
181 *3:22 *697:81 0
182 *290:10 *697:180 0
183 *315:12 *697:234 0
184 *357:28 *697:27 0
185 *362:32 *697:63 0
186 *362:32 *697:97 0
187 *363:16 *3356:A 0
188 *363:16 *697:63 0
189 *363:16 *697:65 0
190 *372:16 *697:204 0
191 *375:30 *697:264 0
192 *392:12 *697:287 0
193 *430:8 *697:144 0
194 *458:14 *697:287 0
195 *458:14 *697:301 0
196 *513:10 *3362:A 0
197 *513:10 *697:240 0
198 *517:10 *697:234 0
199 *546:110 *697:21 0
200 *546:110 *697:34 0
201 *546:120 *697:17 0
202 *547:8 *697:21 0
203 *596:75 *697:264 0
204 *639:10 *697:204 0
205 *646:20 *697:21 0
206 *646:20 *697:34 0
207 *646:72 *697:121 0
208 *665:10 *697:105 0
*RES
1 *3348:X *697:6 40 
2 *697:6 *697:11 15.6766 
3 *697:11 *697:17 31.2373 
4 *697:17 *697:19 20 
5 *697:19 *697:21 3.5638 
6 *697:21 *697:27 20.5356 
7 *697:27 *697:29 20 
8 *697:29 *697:34 7.519 
9 *697:34 *3357:A 40 
10 *697:27 *3358:A 20 
11 *697:19 *697:63 38.8146 
12 *697:63 *697:65 1.1845 
13 *697:65 *3356:A 21.7819 
14 *697:63 *697:81 30.9798 
15 *697:81 *3349:A 40 
16 *697:11 *697:97 42.266 
17 *697:97 *697:101 29.4039 
18 *697:101 *697:105 29.2494 
19 *697:105 *3363:A 40 
20 *697:101 *697:117 1.6171 
21 *697:117 *697:121 20.5974 
22 *697:121 *3364:A 40.7519 
23 *697:117 *697:135 12.4321 
24 *697:135 *697:139 20 
25 *697:139 *697:144 9.7438 
26 *697:144 *3350:A 40 
27 *697:139 *3351:A 40 
28 *3348:X *697:167 20.9682 
29 *697:167 *697:180 27.3027 
30 *697:180 *697:188 40.6721 
31 *697:188 *697:192 22.8222 
32 *697:192 *3359:A 40 
33 *697:192 *697:204 9.4966 
34 *697:204 *3360:A 40 
35 *697:180 *697:216 2.0806 
36 *697:216 *697:220 23.5638 
37 *697:220 *3361:A 21.1845 
38 *697:216 *697:234 28.5078 
39 *697:234 *697:240 4.5114 
40 *697:240 *3362:A 21.1845 
41 *697:234 *697:264 15.6619 
42 *697:264 *697:268 0.9682 
43 *697:268 *697:270 20 
44 *697:270 *697:275 1.339 
45 *697:275 *697:283 31.8038 
46 *697:283 *697:285 20 
47 *697:285 *697:287 3.3166 
48 *697:287 *3354:A 40.5356 
49 *697:285 *697:301 7.519 
50 *697:301 *3355:A 40.5356 
51 *697:275 *697:315 8.2606 
52 *697:315 *3353:A 40 
53 *697:268 *3352:A 20 
*END

*D_NET *698 0.0174992
*CONN
*I *3343:CLK I *D sg13g2_dfrbpq_1
*I *3277:CLK I *D sg13g2_dfrbpq_1
*I *3275:CLK I *D sg13g2_dfrbpq_1
*I *3333:CLK I *D sg13g2_dfrbpq_1
*I *3329:CLK I *D sg13g2_dfrbpq_1
*I *3341:CLK I *D sg13g2_dfrbpq_1
*I *3339:CLK I *D sg13g2_dfrbpq_1
*I *3349:X O *D sg13g2_buf_8
*CAP
1 *3343:CLK 5.10268e-05
2 *3277:CLK 0.000142014
3 *3275:CLK 0
4 *3333:CLK 0.000671247
5 *3329:CLK 0.000474093
6 *3341:CLK 0.000618613
7 *3339:CLK 0.000492379
8 *3349:X 0.00119575
9 *698:89 0.00107066
10 *698:40 0.00164579
11 *698:38 0.00100417
12 *698:36 0.000645731
13 *698:12 0.00177084
14 *698:6 0.000835959
15 *3277:CLK *1120:46 0
16 *3329:CLK *3113:B1 0
17 *3333:CLK *3110:A 4.79124e-05
18 *3333:CLK *862:72 0
19 *3333:CLK *862:82 0
20 *3333:CLK *881:68 0
21 *3339:CLK *722:14 0
22 *3339:CLK *722:35 0
23 *3341:CLK *866:18 0
24 *3343:CLK *3365:A 8.00842e-05
25 *698:6 *3124:D 0.000176586
26 *698:6 *866:35 0
27 *698:12 *866:18 0.000274452
28 *698:12 *866:35 0.00080961
29 *698:38 *757:8 0
30 *698:38 *883:53 0
31 *698:38 *883:85 0
32 *698:40 *3110:A 0
33 *698:40 *3112:C 0
34 *698:40 *817:42 0.000280967
35 *698:40 *880:124 0.000124547
36 *698:40 *883:53 0
37 *698:40 *884:70 0
38 *698:89 *866:35 0
39 *2989:A2 *3333:CLK 0
40 *3114:A *3329:CLK 0.000274262
41 *3114:B *3329:CLK 1.54556e-05
42 *3:22 *698:89 0
43 *312:10 *698:40 0.000551028
44 *313:8 *3277:CLK 0
45 *313:8 *698:38 0
46 *339:10 *3329:CLK 0.000241983
47 *345:14 *3341:CLK 0.000345758
48 *352:16 *3339:CLK 0
49 *352:16 *698:6 0
50 *352:16 *698:12 0.00118127
51 *355:24 *3333:CLK 0.00085801
52 *493:28 *3341:CLK 0.000826092
53 *571:97 *698:38 0
54 *571:97 *698:40 0
55 *571:108 *3277:CLK 0
56 *571:108 *698:38 0
57 *571:125 *3277:CLK 0
58 *580:22 *3329:CLK 0
59 *671:8 *3333:CLK 0.000518294
60 *671:14 *3333:CLK 0.000274578
61 *672:8 *3329:CLK 0
62 *672:8 *698:40 0
63 *673:8 *3329:CLK 0
64 *687:10 *3339:CLK 0
65 *697:81 *698:89 0
*RES
1 *3349:X *698:6 21.6171 
2 *698:6 *698:12 28.24 
3 *698:12 *3339:CLK 44.2642 
4 *698:12 *3341:CLK 46.5302 
5 *698:6 *698:36 20 
6 *698:36 *698:38 5.5414 
7 *698:38 *698:40 5.5414 
8 *698:40 *3329:CLK 44.841 
9 *698:40 *3333:CLK 47.9928 
10 *698:38 *3275:CLK 40 
11 *698:36 *3277:CLK 41.339 
12 *3349:X *698:89 47.5602 
13 *698:89 *3343:CLK 40.5356 
*END

*D_NET *699 0.0125019
*CONN
*I *3161:CLK I *D sg13g2_dfrbpq_1
*I *3153:CLK I *D sg13g2_dfrbpq_1
*I *3372:A I *D sg13g2_inv_1
*I *3149:CLK I *D sg13g2_dfrbpq_1
*I *3147:CLK I *D sg13g2_dfrbpq_1
*I *3151:CLK I *D sg13g2_dfrbpq_1
*I *3155:CLK I *D sg13g2_dfrbpq_1
*I *3350:X O *D sg13g2_buf_8
*CAP
1 *3161:CLK 0
2 *3153:CLK 0.000114631
3 *3372:A 4.71323e-05
4 *3149:CLK 0.000945723
5 *3147:CLK 8.64409e-05
6 *3151:CLK 0
7 *3155:CLK 0.000623163
8 *3350:X 0.00159059
9 *699:89 0.00129308
10 *699:32 0.00122834
11 *699:25 0.000328827
12 *699:14 0.00163076
13 *699:10 0.00110585
14 *699:8 0.000595905
15 *3149:CLK *3149:RESET_B 0
16 *3149:CLK *828:51 0
17 *3153:CLK *2791:A2 0.000208971
18 *3153:CLK *1045:20 0.000208971
19 *3155:CLK *3151:RESET_B 0
20 *3155:CLK *909:38 0
21 *3372:A *766:37 8.03089e-05
22 *699:8 *731:34 0
23 *699:8 *755:29 0.000287256
24 *699:8 *794:16 0
25 *699:10 *755:29 0.000288587
26 *699:14 *909:26 0
27 *699:25 *3151:RESET_B 0
28 *699:25 *909:38 0
29 *699:89 *2771:B1 0
30 *699:89 *2771:A1 2.42507e-05
31 *699:89 *2790:B1 3.75762e-05
32 *699:89 *2830:A2 4.77425e-05
33 *699:89 *724:74 0
34 *699:89 *733:45 0.000144389
35 *699:89 *794:37 0.00011236
36 *699:89 *804:8 0
37 *699:89 *829:12 0
38 *699:89 *830:51 0
39 *699:89 *833:130 0
40 *699:89 *840:32 0
41 *699:89 *840:47 0
42 *699:89 *845:53 0.00030213
43 *699:89 *845:91 1.54008e-05
44 *2745:A1 *3149:CLK 0
45 *2745:A2 *3149:CLK 0
46 *2745:B1 *3149:CLK 0.000144843
47 *2753:A2 *3149:CLK 0
48 *2753:B1 *3149:CLK 0
49 *2753:B1 *699:25 0
50 *2753:B1 *699:32 0
51 *250:10 *699:14 0
52 *251:10 *699:10 0
53 *251:10 *699:14 0
54 *410:14 *3372:A 0
55 *416:10 *699:89 0
56 *430:8 *699:8 0
57 *431:10 *699:10 0
58 *437:14 *699:89 0.00100862
59 *697:144 *699:8 0
*RES
1 *3350:X *699:8 43.0694 
2 *699:8 *699:10 2.0806 
3 *699:10 *699:14 28.2606 
4 *699:14 *3155:CLK 27.1894 
5 *699:14 *699:25 1.4008 
6 *699:25 *3151:CLK 20 
7 *699:25 *699:32 2.266 
8 *699:32 *3147:CLK 21.0918 
9 *699:32 *3149:CLK 30.6708 
10 *699:10 *3372:A 40.5356 
11 *699:8 *3153:CLK 41.4008 
12 *3350:X *699:89 31.886 
13 *699:89 *3161:CLK 20 
*END

*D_NET *700 0.013488
*CONN
*I *3163:CLK I *D sg13g2_dfrbpq_1
*I *3177:CLK I *D sg13g2_dfrbpq_1
*I *3165:CLK I *D sg13g2_dfrbpq_1
*I *3173:CLK I *D sg13g2_dfrbpq_1
*I *3159:CLK I *D sg13g2_dfrbpq_1
*I *3373:A I *D sg13g2_inv_1
*I *3171:CLK I *D sg13g2_dfrbpq_1
*I *3351:X O *D sg13g2_buf_8
*CAP
1 *3163:CLK 0
2 *3177:CLK 0.000321294
3 *3165:CLK 0.000434054
4 *3173:CLK 0
5 *3159:CLK 4.72978e-05
6 *3373:A 4.41285e-05
7 *3171:CLK 0
8 *3351:X 0.000358798
9 *700:69 0.00160001
10 *700:63 0.00109177
11 *700:51 0.000459
12 *700:36 0.00117896
13 *700:20 0.000707398
14 *700:12 0.000949412
15 *700:8 0.00098223
16 *3165:CLK *2778:A1 0
17 *3165:CLK *2778:A2 0
18 *3165:CLK *2780:A2 0.000143713
19 *3165:CLK *744:41 0
20 *3165:CLK *834:30 7.91187e-05
21 *3177:CLK *2802:B1 0.000128537
22 *3373:A *733:37 0
23 *3373:A *761:50 7.52107e-05
24 *700:8 *840:26 0
25 *700:8 *972:10 0.000157588
26 *700:8 *1129:56 7.52158e-05
27 *700:12 *972:10 7.52158e-05
28 *700:12 *1129:56 0
29 *700:20 *2792:A1 0
30 *700:20 *733:37 0
31 *700:20 *761:50 0.000273562
32 *700:20 *769:27 0
33 *700:20 *830:14 0.000553246
34 *700:20 *834:38 0
35 *700:20 *1129:37 0
36 *700:20 *1129:56 0
37 *700:36 *2768:A1 0
38 *700:36 *759:54 0
39 *700:36 *834:73 0
40 *700:36 *972:10 1.54008e-05
41 *700:51 *2766:A1 0.000445795
42 *700:51 *723:102 0.00071243
43 *700:51 *759:54 0
44 *700:51 *782:22 0.00113613
45 *700:63 *2774:B1 0
46 *700:63 *762:35 0
47 *700:69 *2778:A2 0.000124826
48 *700:69 *725:46 0
49 *700:69 *762:35 0
50 *700:69 *830:10 0
51 *700:69 *830:14 0
52 *700:69 *834:30 0
53 *700:69 *840:14 0.00113457
54 *389:41 *3177:CLK 0
55 *389:41 *700:69 0
56 *418:10 *700:63 0
57 *418:10 *700:69 0.000183074
58 *419:14 *700:36 0
59 *419:14 *700:51 0
60 *430:8 *700:20 0
61 *455:22 *3177:CLK 0
62 *455:22 *700:69 0
63 *697:144 *700:8 0
*RES
1 *3351:X *700:8 41.339 
2 *700:8 *700:12 21.5862 
3 *700:12 *700:20 47.8692 
4 *700:20 *3171:CLK 20 
5 *700:12 *3373:A 20.5021 
6 *700:8 *700:36 25.2354 
7 *700:36 *3159:CLK 20.5974 
8 *700:36 *700:51 47.5602 
9 *700:51 *3173:CLK 20 
10 *3351:X *700:63 22.0497 
11 *700:63 *700:69 29.2906 
12 *700:69 *3165:CLK 43.914 
13 *700:69 *3177:CLK 42.8634 
14 *700:63 *3163:CLK 20 
*END

*D_NET *701 0.0135973
*CONN
*I *3185:CLK I *D sg13g2_dfrbpq_1
*I *3179:CLK I *D sg13g2_dfrbpq_1
*I *3283:CLK I *D sg13g2_dfrbpq_1
*I *3225:CLK I *D sg13g2_dfrbpq_1
*I *3219:CLK I *D sg13g2_dfrbpq_1
*I *3227:CLK I *D sg13g2_dfrbpq_1
*I *3181:CLK I *D sg13g2_dfrbpq_1
*I *3352:X O *D sg13g2_buf_8
*CAP
1 *3185:CLK 0
2 *3179:CLK 0.000415169
3 *3283:CLK 0.000796099
4 *3225:CLK 0
5 *3219:CLK 0.000737359
6 *3227:CLK 0.000263403
7 *3181:CLK 0.000570572
8 *3352:X 0.000624842
9 *701:89 0.00122794
10 *701:65 0.00121127
11 *701:63 0.00142213
12 *701:39 0.00116977
13 *701:28 0.000945705
14 *701:22 0.000498347
15 *3179:CLK *2808:B1 0.000339596
16 *3179:CLK *718:36 0
17 *3179:CLK *1143:48 0
18 *3181:CLK *2806:A2 0.000339004
19 *3181:CLK *751:29 0
20 *3219:CLK *2896:B1 0
21 *3219:CLK *746:23 0
22 *3219:CLK *768:12 0.000287343
23 *3219:CLK *769:31 0
24 *3219:CLK *822:108 0.000588478
25 *3227:CLK *1144:28 0
26 *3283:CLK *718:36 0
27 *3283:CLK *1143:48 0
28 *701:22 *1143:48 0
29 *701:22 *1144:28 8.0216e-05
30 *701:28 *768:12 0
31 *701:28 *1144:28 0
32 *701:39 *768:12 0.00143629
33 *701:39 *769:31 0
34 *701:39 *769:39 0
35 *701:63 *768:12 0
36 *701:89 *2820:B1 0
37 *701:89 *2820:A1 0.000240957
38 *701:89 *2820:A2 0
39 *701:89 *768:12 0
40 *701:89 *769:39 0
41 *701:89 *837:21 0.000402825
42 *701:89 *1139:29 0
43 *2896:A2 *3219:CLK 0
44 *3031:B *3283:CLK 0
45 *496:94 *3219:CLK 0
46 *697:264 *3227:CLK 0
47 *697:264 *701:28 0
48 *697:268 *701:28 0
49 *697:275 *701:39 0
50 *697:283 *3181:CLK 0
51 *697:315 *701:63 0
52 *697:315 *701:89 0
*RES
1 *3352:X *3181:CLK 45.8607 
2 *3352:X *701:22 40.5356 
3 *701:22 *701:28 22.2454 
4 *701:28 *3227:CLK 22.266 
5 *701:28 *701:39 26.7774 
6 *701:39 *3219:CLK 47.9516 
7 *701:39 *3225:CLK 40 
8 *701:22 *701:63 1.8334 
9 *701:63 *701:65 20 
10 *701:65 *3283:CLK 28.1576 
11 *701:65 *3179:CLK 24.429 
12 *701:63 *701:89 32.1952 
13 *701:89 *3185:CLK 20 
*END

*D_NET *702 0.0117732
*CONN
*I *3145:CLK I *D sg13g2_dfrbpq_1
*I *3293:CLK I *D sg13g2_dfrbpq_1
*I *3295:CLK I *D sg13g2_dfrbpq_1
*I *3211:CLK I *D sg13g2_dfrbpq_1
*I *3187:CLK I *D sg13g2_dfrbpq_1
*I *3374:A I *D sg13g2_inv_1
*I *3289:CLK I *D sg13g2_dfrbpq_1
*I *3353:X O *D sg13g2_buf_8
*CAP
1 *3145:CLK 0
2 *3293:CLK 0
3 *3295:CLK 0.000217008
4 *3211:CLK 1.38632e-05
5 *3187:CLK 0.000374428
6 *3374:A 0
7 *3289:CLK 0.000723089
8 *3353:X 0.000748658
9 *702:67 0.00101949
10 *702:59 0.00128414
11 *702:46 0.00133082
12 *702:35 0.00120972
13 *702:33 0.000498374
14 *702:8 0.000973374
15 *3187:CLK *2824:A1 0
16 *3187:CLK *773:31 0.000306963
17 *3187:CLK *801:25 0
18 *3187:CLK *835:41 0
19 *3187:CLK *835:52 0
20 *3289:CLK *1136:31 0
21 *3289:CLK *1146:41 0.00118039
22 *3295:CLK *1142:39 0
23 *702:8 *1136:31 0.000339393
24 *702:8 *1146:41 0.00017735
25 *702:33 *2820:B1 0
26 *702:33 *772:27 0.000980409
27 *702:33 *774:25 0
28 *702:33 *1139:29 0.000306019
29 *702:46 *2870:C 0
30 *702:46 *763:32 0
31 *702:46 *801:25 0
32 *702:46 *1001:8 0
33 *702:59 *2870:C 0
34 *702:59 *2870:A_N 7.43486e-05
35 *702:59 *3145:RESET_B 0
36 *702:59 *1001:8 0
37 *702:67 *3145:RESET_B 1.54008e-05
38 *702:67 *3293:RESET_B 0
39 *702:67 *1139:29 0
40 *375:18 *3295:CLK 0
41 *375:18 *702:67 0
42 *389:12 *3187:CLK 0
43 *389:12 *702:46 0
44 *453:10 *702:33 0
*RES
1 *3353:X *702:8 23.1106 
2 *702:8 *3289:CLK 28.24 
3 *702:8 *3374:A 20 
4 *3353:X *702:33 46.6023 
5 *702:33 *702:35 20 
6 *702:35 *3187:CLK 24.2127 
7 *702:35 *702:46 8.0237 
8 *702:46 *3211:CLK 20.3502 
9 *702:46 *702:59 4.4496 
10 *702:59 *702:67 48.7344 
11 *702:67 *3295:CLK 22.1836 
12 *702:67 *3293:CLK 20 
13 *702:59 *3145:CLK 20 
*END

*D_NET *703 0.0153157
*CONN
*I *3375:A I *D sg13g2_inv_1
*I *3203:CLK I *D sg13g2_dfrbpq_1
*I *3205:CLK I *D sg13g2_dfrbpq_1
*I *3207:CLK I *D sg13g2_dfrbpq_1
*I *3197:CLK I *D sg13g2_dfrbpq_1
*I *3183:CLK I *D sg13g2_dfrbpq_1
*I *3191:CLK I *D sg13g2_dfrbpq_1
*I *3354:X O *D sg13g2_buf_8
*CAP
1 *3375:A 0.000123625
2 *3203:CLK 0
3 *3205:CLK 0.000424535
4 *3207:CLK 0
5 *3197:CLK 0
6 *3183:CLK 0.000721592
7 *3191:CLK 0.000196099
8 *3354:X 0.000559992
9 *703:55 0.000832711
10 *703:51 0.000686813
11 *703:44 0.000918225
12 *703:36 0.00167464
13 *703:23 0.00119937
14 *703:10 0.000632466
15 *3183:CLK *2816:A1 0.000338174
16 *3183:CLK *750:20 0.000467757
17 *3183:CLK *837:40 0
18 *3205:CLK *2860:A1 0.000112426
19 *3205:CLK *925:8 0
20 *3205:CLK *1144:57 0.000338741
21 *3375:A *3695:A 0
22 *3375:A *1131:31 0.000209763
23 *703:10 *3695:A 0.000371702
24 *703:10 *781:10 0
25 *703:10 *1129:62 0
26 *703:36 *750:20 3.85294e-05
27 *703:36 *837:40 0
28 *703:36 *907:76 0.000500937
29 *703:44 *2842:B1 0
30 *703:44 *723:102 0
31 *703:44 *753:28 0.000112799
32 *703:44 *754:31 0
33 *703:44 *832:37 0
34 *703:44 *1144:36 0
35 *703:51 *2856:A2 0.000370324
36 *703:51 *750:20 0.000177203
37 *703:51 *750:31 0.000322581
38 *703:51 *907:76 6.47219e-05
39 *703:55 *1131:43 0.000234224
40 *3421:A *3205:CLK 0
41 *3528:A *3191:CLK 4.77866e-05
42 *467:16 *3191:CLK 0.00039332
43 *467:16 *703:10 0.000583766
44 *473:14 *3205:CLK 0.000553662
45 *473:14 *703:55 0.00150461
46 *478:18 *703:44 0
47 *485:22 *703:55 0.000602565
48 *488:20 *703:55 0
*RES
1 *3354:X *703:10 45.3045 
2 *703:10 *3191:CLK 42.1527 
3 *703:10 *703:23 20 
4 *703:23 *3183:CLK 26.8289 
5 *703:23 *703:36 4.429 
6 *703:36 *703:44 47.7765 
7 *703:44 *3197:CLK 20 
8 *703:36 *703:51 3.3475 
9 *703:51 *703:55 27.0246 
10 *703:55 *3207:CLK 40 
11 *703:55 *3205:CLK 44.841 
12 *703:51 *3203:CLK 20 
13 *3354:X *3375:A 41.4008 
*END

*D_NET *704 0.0102052
*CONN
*I *3199:CLK I *D sg13g2_dfrbpq_1
*I *3201:CLK I *D sg13g2_dfrbpq_1
*I *3193:CLK I *D sg13g2_dfrbpq_1
*I *3189:CLK I *D sg13g2_dfrbpq_1
*I *3209:CLK I *D sg13g2_dfrbpq_1
*I *3367:A I *D sg13g2_inv_1
*I *3195:CLK I *D sg13g2_dfrbpq_1
*I *3355:X O *D sg13g2_buf_8
*CAP
1 *3199:CLK 0
2 *3201:CLK 0
3 *3193:CLK 0
4 *3189:CLK 0
5 *3209:CLK 0.000244411
6 *3367:A 0
7 *3195:CLK 0.000440556
8 *3355:X 0.000926122
9 *704:68 0.000459481
10 *704:58 0.00130496
11 *704:43 0.00191045
12 *704:37 0.00168035
13 *704:8 0.00050689
14 *3195:CLK *2838:A1 7.51285e-05
15 *3195:CLK *831:52 0
16 *3195:CLK *841:48 7.55443e-05
17 *3195:CLK *1143:75 0.000159183
18 *3209:CLK *2868:A2 0
19 *3209:CLK *792:12 8.01116e-05
20 *3209:CLK *801:25 0
21 *704:8 *841:48 0.000181695
22 *704:37 *1136:50 7.89557e-05
23 *704:37 *1136:56 0.000662386
24 *704:37 *1140:56 0.000306522
25 *704:37 *1142:58 0
26 *704:43 *2852:A1 0
27 *704:43 *788:37 0
28 *704:43 *789:23 0
29 *704:58 *2852:A1 0
30 *704:58 *2868:A2 0
31 *704:58 *780:29 0.000177164
32 *704:58 *788:37 0
33 *704:58 *801:25 0
34 *704:58 *837:119 0
35 *704:68 *780:16 0.000754133
36 *704:68 *780:29 0
37 *704:68 *801:25 0
38 *704:68 *905:65 0.000181192
39 *704:68 *1139:62 0
40 *476:18 *704:43 0
41 *477:10 *704:43 0
42 *697:301 *3195:CLK 0
43 *697:301 *704:8 0
*RES
1 *3355:X *704:8 40.8446 
2 *704:8 *3195:CLK 43.811 
3 *704:8 *3367:A 40 
4 *3355:X *704:37 28.2915 
5 *704:37 *704:43 47.0246 
6 *704:43 *3209:CLK 22.6162 
7 *704:43 *704:58 8.31468 
8 *704:58 *704:68 45.5285 
9 *704:68 *3189:CLK 20 
10 *704:58 *3193:CLK 20 
11 *704:43 *3201:CLK 20 
12 *704:37 *3199:CLK 20 
*END

*D_NET *705 0.0117551
*CONN
*I *3243:CLK I *D sg13g2_dfrbpq_1
*I *3237:CLK I *D sg13g2_dfrbpq_1
*I *3241:CLK I *D sg13g2_dfrbpq_1
*I *3235:CLK I *D sg13g2_dfrbpq_1
*I *3233:CLK I *D sg13g2_dfrbpq_1
*I *3213:CLK I *D sg13g2_dfrbpq_1
*I *3365:A I *D sg13g2_inv_1
*I *3356:X O *D sg13g2_buf_8
*CAP
1 *3243:CLK 0.000877322
2 *3237:CLK 0
3 *3241:CLK 0
4 *3235:CLK 0.000290089
5 *3233:CLK 0
6 *3213:CLK 0.000425606
7 *3365:A 0.000462747
8 *3356:X 0
9 *705:59 0.00105799
10 *705:52 0.000769754
11 *705:28 0.000795656
12 *705:17 0.00161856
13 *705:15 0.00143267
14 *705:4 0.000618945
15 *3213:CLK *3213:RESET_B 0
16 *3213:CLK *723:16 4.77425e-05
17 *3213:CLK *885:22 0
18 *3213:CLK *1118:12 0
19 *3235:CLK *3235:RESET_B 0
20 *3235:CLK *1119:18 0.000292789
21 *3243:CLK *736:14 0
22 *3243:CLK *736:32 0
23 *3243:CLK *1121:14 0
24 *3365:A *723:31 0
25 *705:15 *723:31 0.000242193
26 *705:17 *723:16 0.000370851
27 *705:17 *723:31 0.000809262
28 *705:28 *723:16 7.62389e-05
29 *705:28 *1119:18 0.000454344
30 *705:59 *736:14 0
31 *705:59 *1121:14 0
32 *2944:A *3243:CLK 4.78195e-05
33 *3343:CLK *3365:A 8.00842e-05
34 *295:10 *705:52 0.000711838
35 *298:12 *3243:CLK 0
36 *358:14 *3235:CLK 0.000272631
37 *362:16 *3213:CLK 0
38 *362:16 *3365:A 0
39 *362:16 *705:15 0
40 *362:16 *705:17 0
41 *363:16 *3213:CLK 0
*RES
1 *3356:X *705:4 20 
2 *705:4 *3365:A 24.2127 
3 *705:4 *705:15 1.9673 
4 *705:15 *705:17 7.8898 
5 *705:17 *3213:CLK 23.9964 
6 *705:17 *705:28 24.7998 
7 *705:28 *3233:CLK 40 
8 *705:28 *3235:CLK 43.1724 
9 *705:15 *705:52 47.7662 
10 *705:52 *3241:CLK 20 
11 *705:52 *705:59 1.8334 
12 *705:59 *3237:CLK 20 
13 *705:59 *3243:CLK 28.24 
*END

*D_NET *706 0.0133028
*CONN
*I *3331:CLK I *D sg13g2_dfrbpq_1
*I *3271:CLK I *D sg13g2_dfrbpq_1
*I *3273:CLK I *D sg13g2_dfrbpq_1
*I *3269:CLK I *D sg13g2_dfrbpq_1
*I *3265:CLK I *D sg13g2_dfrbpq_1
*I *3337:CLK I *D sg13g2_dfrbpq_1
*I *3267:CLK I *D sg13g2_dfrbpq_1
*I *3357:X O *D sg13g2_buf_8
*CAP
1 *3331:CLK 0.000618714
2 *3271:CLK 0.000368735
3 *3273:CLK 0
4 *3269:CLK 0.000603076
5 *3265:CLK 0.00083749
6 *3337:CLK 9.49087e-05
7 *3267:CLK 0.000489232
8 *3357:X 0.000836129
9 *706:29 0.00128894
10 *706:14 0.000939773
11 *706:12 0.000846677
12 *706:10 0.000403928
13 *706:8 0.000840474
14 *3265:CLK *3127:B1 4.77537e-05
15 *3265:CLK *807:37 0.000112558
16 *3265:CLK *892:93 0
17 *3269:CLK *3273:RESET_B 0
18 *3269:CLK *721:28 0
19 *3269:CLK *740:10 0
20 *3271:CLK *2991:B1 0.000549588
21 *3271:CLK *755:8 0.000266318
22 *3271:CLK *818:16 0.00039332
23 *3331:CLK *722:35 0
24 *3331:CLK *757:33 0
25 *706:8 *1137:50 0
26 *706:10 *818:16 0.00089584
27 *706:10 *818:28 0.000234329
28 *706:12 *818:28 2.21839e-05
29 *2990:A *3269:CLK 0.000209725
30 *2990:B *3269:CLK 0
31 *2991:A2 *3271:CLK 0.000318191
32 *2991:A2 *706:10 0.000710124
33 *3273:D *706:29 0
34 *307:14 *3265:CLK 0
35 *309:8 *3267:CLK 0
36 *309:16 *3267:CLK 0
37 *309:16 *3269:CLK 0
38 *310:10 *3271:CLK 0.000446115
39 *311:8 *706:12 0
40 *311:8 *706:14 0
41 *359:32 *706:8 0
42 *571:54 *706:10 0.000282008
43 *577:8 *706:12 0
44 *580:22 *3265:CLK 1.54556e-05
45 *580:22 *3267:CLK 0
46 *580:22 *706:29 0.000631196
47 *581:8 *3271:CLK 0
48 *584:8 *706:10 0
49 *584:8 *706:12 0
50 *646:20 *3271:CLK 0
*RES
1 *3357:X *706:8 41.8334 
2 *706:8 *706:10 5.2942 
3 *706:10 *706:12 1.8334 
4 *706:12 *706:14 1.0918 
5 *706:14 *3267:CLK 45.3354 
6 *706:14 *706:29 24.2127 
7 *706:29 *3337:CLK 21.1639 
8 *706:29 *3265:CLK 28.2709 
9 *706:12 *3269:CLK 46.228 
10 *706:10 *3273:CLK 40 
11 *706:8 *3271:CLK 46.0358 
12 *3357:X *3331:CLK 46.1079 
*END

*D_NET *707 0.0165412
*CONN
*I *3261:CLK I *D sg13g2_dfrbpq_1
*I *3313:CLK I *D sg13g2_dfrbpq_1
*I *3259:CLK I *D sg13g2_dfrbpq_1
*I *3279:CLK I *D sg13g2_dfrbpq_1
*I *3249:CLK I *D sg13g2_dfrbpq_1
*I *3366:A I *D sg13g2_inv_1
*I *3335:CLK I *D sg13g2_dfrbpq_1
*I *3358:X O *D sg13g2_buf_8
*CAP
1 *3261:CLK 0.00110126
2 *3313:CLK 0.000582747
3 *3259:CLK 0.000427567
4 *3279:CLK 0.000418301
5 *3249:CLK 5.61002e-05
6 *3366:A 0
7 *3335:CLK 0.000568129
8 *3358:X 0.000252335
9 *707:60 0.00125554
10 *707:49 0.000986874
11 *707:41 0.000930095
12 *707:30 0.000307669
13 *707:16 0.000777182
14 *707:10 0.000344322
15 *707:8 0.0013536
16 *3259:CLK *759:28 0.00066273
17 *3259:CLK *819:12 0
18 *3261:CLK *724:43 0
19 *3261:CLK *866:64 0
20 *3279:CLK *723:31 0
21 *3313:CLK *3078:B1 0
22 *3313:CLK *878:32 0.000209697
23 *3335:CLK *808:29 0
24 *3335:CLK *856:85 0
25 *3335:CLK *866:64 0.000436435
26 *707:8 *3249:RESET_B 0
27 *707:16 *866:64 0
28 *707:30 *819:24 0
29 *707:49 *3430:A 0
30 *707:49 *723:51 0.000434036
31 *707:49 *806:16 4.77425e-05
32 *707:49 *819:37 0
33 *707:49 *892:64 0
34 *2948:A2 *3279:CLK 0.000209334
35 *2969:A *3259:CLK 0
36 *2973:A *3261:CLK 0
37 *299:10 *707:16 0.000182023
38 *299:10 *707:30 0.000340704
39 *357:28 *3261:CLK 0
40 *357:28 *3335:CLK 0.000921141
41 *357:28 *707:8 0
42 *357:28 *707:16 0.000208878
43 *358:14 *3313:CLK 0
44 *362:16 *3279:CLK 0.000727628
45 *362:22 *707:49 0.000178206
46 *363:16 *3279:CLK 0
47 *363:20 *707:49 0
48 *546:120 *3249:CLK 8.00842e-05
49 *546:120 *3259:CLK 0.000338733
50 *546:120 *707:60 0
51 *646:20 *3313:CLK 0.000529369
52 *646:20 *707:16 0.000289113
53 *646:20 *707:30 0.00053237
54 *646:20 *707:41 0.000265893
55 *646:20 *707:60 0.000585402
56 *647:8 *3313:CLK 0
57 *697:27 *707:8 0
58 *697:63 *707:49 0
*RES
1 *3358:X *707:8 22.1836 
2 *707:8 *707:10 20 
3 *707:10 *707:16 22.7398 
4 *707:16 *3335:CLK 26.1594 
5 *707:16 *3366:A 20 
6 *707:10 *707:30 2.575 
7 *707:30 *3249:CLK 40.5356 
8 *707:30 *707:41 1.339 
9 *707:41 *707:49 45.2736 
10 *707:49 *3279:CLK 44.8616 
11 *707:41 *707:60 2.8222 
12 *707:60 *3259:CLK 44.7792 
13 *707:60 *3313:CLK 45.9534 
14 *707:8 *3261:CLK 30.8356 
*END

*D_NET *708 0.0192567
*CONN
*I *3299:CLK I *D sg13g2_dfrbpq_1
*I *3239:CLK I *D sg13g2_dfrbpq_1
*I *3297:CLK I *D sg13g2_dfrbpq_1
*I *3301:CLK I *D sg13g2_dfrbpq_1
*I *3245:CLK I *D sg13g2_dfrbpq_1
*I *3247:CLK I *D sg13g2_dfrbpq_1
*I *3309:CLK I *D sg13g2_dfrbpq_1
*I *3359:X O *D sg13g2_buf_8
*CAP
1 *3299:CLK 0
2 *3239:CLK 0.000267036
3 *3297:CLK 0.000299854
4 *3301:CLK 0.00021923
5 *3245:CLK 0
6 *3247:CLK 0.000961459
7 *3309:CLK 0
8 *3359:X 0.0007801
9 *708:82 0.00201174
10 *708:69 0.00286167
11 *708:59 0.0011262
12 *708:44 0.000933735
13 *708:19 0.00174899
14 *708:8 0.00116221
15 *3239:CLK *2925:A1 0.000337248
16 *3247:CLK *2941:B1 0
17 *3247:CLK *742:21 0
18 *3247:CLK *743:14 0
19 *3247:CLK *744:23 0
20 *3247:CLK *816:100 0
21 *3247:CLK *889:97 0
22 *3297:CLK *2711:A 0
23 *3297:CLK *3582:A 0.000305411
24 *3297:CLK *3583:A 0
25 *3301:CLK *2942:C 0
26 *3301:CLK *857:88 0
27 *708:8 *3069:A1 0
28 *708:8 *3309:RESET_B 0
29 *708:8 *1135:32 0
30 *708:19 *3309:RESET_B 0
31 *708:19 *743:14 0
32 *708:19 *1135:32 0.000135914
33 *708:19 *1141:27 0
34 *708:44 *3299:RESET_B 0
35 *708:44 *1134:21 0
36 *708:44 *1135:32 0
37 *708:59 *2942:C 0
38 *708:59 *3049:B1 6.47875e-05
39 *708:59 *1134:21 0.000209807
40 *708:69 *2711:A 0.000176274
41 *708:69 *2713:A 8.02379e-05
42 *708:69 *2726:A 0
43 *708:69 *3049:B1 0.00033942
44 *708:69 *3583:A 0
45 *708:69 *3584:A 0.000240745
46 *708:69 *821:28 0
47 *708:69 *821:50 0
48 *708:82 *764:23 0
49 *708:82 *811:26 7.30101e-05
50 *708:82 *861:34 0.000817807
51 *708:82 *868:29 0
52 *708:82 *876:68 0.00023721
53 *708:82 *889:48 0
54 *708:82 *894:96 0.000230598
55 *708:82 *1023:28 0
56 *708:82 *1036:12 0
57 *708:82 *1077:16 0.000447552
58 *708:82 *1091:10 0.000614958
59 *708:82 *1133:20 0.000130676
60 *2928:A *3239:CLK 0.000175783
61 *297:10 *3247:CLK 0
62 *366:8 *708:69 0.000183828
63 *379:22 *708:59 0.00027465
64 *379:22 *708:69 0.000629376
65 *492:20 *708:69 0.000291717
66 *505:8 *708:19 0
67 *521:100 *3247:CLK 0
68 *524:8 *708:82 0.000230263
69 *621:37 *708:8 0.000241941
70 *621:37 *708:44 0
71 *622:8 *708:82 0.000183828
72 *623:10 *708:82 0.000231417
73 *629:14 *3301:CLK 0
*RES
1 *3359:X *708:8 23.7601 
2 *708:8 *3309:CLK 20 
3 *708:8 *708:19 29.5378 
4 *708:19 *3247:CLK 49.4966 
5 *708:19 *3245:CLK 40 
6 *3359:X *708:44 43.5638 
7 *708:44 *3301:CLK 42.575 
8 *708:44 *708:59 23.6668 
9 *708:59 *708:69 49.1155 
10 *708:69 *3297:CLK 22.8325 
11 *708:69 *708:82 37.1598 
12 *708:82 *3239:CLK 42.8325 
13 *708:59 *3299:CLK 20 
*END

*D_NET *709 0.0107317
*CONN
*I *3311:CLK I *D sg13g2_dfrbpq_1
*I *3307:CLK I *D sg13g2_dfrbpq_1
*I *3368:A I *D sg13g2_inv_1
*I *3345:CLK I *D sg13g2_dfrbpq_1
*I *3215:CLK I *D sg13g2_dfrbpq_1
*I *3305:CLK I *D sg13g2_dfrbpq_1
*I *3303:CLK I *D sg13g2_dfrbpq_1
*I *3360:X O *D sg13g2_buf_8
*CAP
1 *3311:CLK 0.000242977
2 *3307:CLK 0
3 *3368:A 0
4 *3345:CLK 0
5 *3215:CLK 0
6 *3305:CLK 0.000187423
7 *3303:CLK 0.000414429
8 *3360:X 0
9 *709:75 0.000691601
10 *709:52 0.000356211
11 *709:44 0.00169998
12 *709:29 0.00172509
13 *709:14 0.00110286
14 *709:8 0.000717035
15 *709:4 0.000671125
16 *3303:CLK *2719:A 0
17 *3303:CLK *2720:A 0
18 *3303:CLK *3305:RESET_B 4.77425e-05
19 *3305:CLK *1136:25 0
20 *3311:CLK *1136:25 0
21 *709:8 *3307:RESET_B 0
22 *709:14 *2719:A 4.79017e-05
23 *709:14 *3305:RESET_B 0
24 *709:14 *3307:RESET_B 0
25 *709:14 *1044:8 0
26 *709:14 *1123:10 0.000286666
27 *709:14 *1139:14 0
28 *709:29 *1123:10 0.000314204
29 *709:29 *1139:14 0
30 *709:44 *2872:B 0.000323603
31 *709:44 *3215:RESET_B 0.000274189
32 *709:44 *3686:A 0.000209746
33 *709:44 *765:33 0
34 *709:44 *982:10 0
35 *709:44 *1025:12 0
36 *709:44 *1139:14 0
37 *709:52 *2872:B 0.000112422
38 *709:52 *3215:RESET_B 0.000290039
39 *709:52 *765:8 0
40 s_axil_bvalid *709:44 0
41 *2873:B *3303:CLK 0.000241979
42 *3504:A *709:75 4.77425e-05
43 *241:14 *709:44 0
44 *241:14 *709:52 0
45 *330:8 *709:75 0
46 *373:24 *709:8 0
47 *373:24 *709:14 0.000112826
48 *375:8 *709:52 0
49 *375:14 *709:44 0
50 *376:14 *3303:CLK 0
51 *376:14 *3305:CLK 0
52 *376:14 *709:14 0
53 *381:12 *3303:CLK 0.000241924
54 *493:56 *3311:CLK 0
55 *493:56 *709:75 0.000371965
*RES
1 *3360:X *709:4 20 
2 *709:4 *709:8 1.9673 
3 *709:8 *709:14 25.5517 
4 *709:14 *3303:CLK 44.2333 
5 *709:14 *709:29 2.3278 
6 *709:29 *3305:CLK 42.0497 
7 *709:29 *709:44 35.3779 
8 *709:44 *709:52 43.7904 
9 *709:52 *3215:CLK 20 
10 *709:44 *3345:CLK 20 
11 *709:8 *3368:A 20 
12 *709:4 *709:75 44.8101 
13 *709:75 *3307:CLK 20 
14 *709:75 *3311:CLK 21.1996 
*END

*D_NET *710 0.0114571
*CONN
*I *3317:CLK I *D sg13g2_dfrbpq_1
*I *3315:CLK I *D sg13g2_dfrbpq_1
*I *3323:CLK I *D sg13g2_dfrbpq_1
*I *3231:CLK I *D sg13g2_dfrbpq_1
*I *3223:CLK I *D sg13g2_dfrbpq_1
*I *3217:CLK I *D sg13g2_dfrbpq_1
*I *3369:A I *D sg13g2_inv_1
*I *3361:X O *D sg13g2_buf_8
*CAP
1 *3317:CLK 9.43765e-05
2 *3315:CLK 0.000507503
3 *3323:CLK 3.54832e-05
4 *3231:CLK 2.77263e-05
5 *3223:CLK 0.000499788
6 *3217:CLK 0.0002206
7 *3369:A 0
8 *3361:X 4.53227e-05
9 *710:83 0.00118317
10 *710:68 0.00150438
11 *710:60 0.00161793
12 *710:49 0.00112262
13 *710:23 0.0009286
14 *710:21 0.000930498
15 *710:10 0.000357712
16 *710:8 4.53227e-05
17 *3217:CLK *861:59 0
18 *3223:CLK *2892:B1 0
19 *3223:CLK *748:31 0
20 *3223:CLK *861:59 0
21 *3315:CLK *3082:B1 0
22 *3315:CLK *744:41 0
23 *3315:CLK *1130:27 0
24 *3317:CLK *754:31 7.53965e-05
25 *3323:CLK *748:31 2.45653e-05
26 *710:21 *814:31 8.00842e-05
27 *710:21 *822:20 0
28 *710:21 *896:32 0.00023464
29 *710:21 *1141:33 8.00842e-05
30 *710:23 *872:63 0
31 *710:49 *2880:A1 0
32 *710:49 *747:32 0
33 *710:49 *754:16 4.78195e-05
34 *710:49 *822:37 0.000209117
35 *710:49 *822:54 4.77425e-05
36 *710:49 *898:97 0
37 *710:60 *747:32 0
38 *710:60 *748:31 0
39 *710:60 *753:18 0
40 *710:60 *754:31 0
41 *710:60 *873:80 0
42 *710:60 *898:97 0
43 *710:68 *753:18 0
44 *710:68 *754:31 0
45 *710:68 *797:29 0.000444195
46 *710:68 *824:24 0
47 *710:83 *3327:RESET_B 7.9841e-05
48 *710:83 *748:31 0
49 *710:83 *798:24 0
50 *2883:A *3223:CLK 0.000240488
51 *2908:A2 *710:49 0
52 *2911:A *710:49 0
53 *2911:A *710:60 0
54 *3109:A *710:83 1.54008e-05
55 *3109:B *3323:CLK 0
56 *3109:B *710:83 0
57 *290:10 *710:49 0
58 *496:27 *710:8 0.000128248
59 *496:27 *710:21 0
60 *497:8 *710:23 0
61 *520:16 *710:8 0.000181695
62 *520:16 *710:21 0.000446767
63 *520:16 *710:49 0
64 *646:120 *710:83 0
65 *697:167 *710:60 0
66 *697:180 *710:60 0
*RES
1 *3361:X *710:8 40.8446 
2 *710:8 *710:10 20 
3 *710:10 *3369:A 20 
4 *710:10 *710:21 24.0994 
5 *710:21 *710:23 1.8334 
6 *710:23 *3217:CLK 42.369 
7 *710:23 *3223:CLK 44.7792 
8 *710:21 *710:49 23.5638 
9 *710:49 *3231:CLK 20.3502 
10 *710:49 *710:60 6.7259 
11 *710:60 *710:68 47.8074 
12 *710:68 *3323:CLK 20.3193 
13 *710:68 *710:83 46.1079 
14 *710:83 *3315:CLK 25.0882 
15 *710:60 *3317:CLK 21.4111 
*END

*D_NET *711 0.0140752
*CONN
*I *3291:CLK I *D sg13g2_dfrbpq_1
*I *3285:CLK I *D sg13g2_dfrbpq_1
*I *3287:CLK I *D sg13g2_dfrbpq_1
*I *3370:A I *D sg13g2_inv_1
*I *3281:CLK I *D sg13g2_dfrbpq_1
*I *3229:CLK I *D sg13g2_dfrbpq_1
*I *3221:CLK I *D sg13g2_dfrbpq_1
*I *3362:X O *D sg13g2_buf_8
*CAP
1 *3291:CLK 0.000353369
2 *3285:CLK 0.000216408
3 *3287:CLK 0
4 *3370:A 0
5 *3281:CLK 0.000622586
6 *3229:CLK 0.000434255
7 *3221:CLK 0.000418419
8 *3362:X 0
9 *711:68 0.000627355
10 *711:64 0.00202915
11 *711:37 0.00173103
12 *711:18 0.00148504
13 *711:12 0.000918741
14 *711:6 0.00179115
15 *3221:CLK *2879:B 7.51285e-05
16 *3221:CLK *822:16 0.000501057
17 *3229:CLK *2904:A1 0.00014413
18 *3229:CLK *2904:B1 0.000273819
19 *3229:CLK *1011:8 0
20 *3281:CLK *778:29 0
21 *3281:CLK *898:97 0
22 *3281:CLK *1143:8 0
23 *3285:CLK *3285:RESET_B 0
24 *3291:CLK *1148:10 0
25 *711:12 *2902:B1 0
26 *711:12 *3014:A1 0
27 *711:12 *859:41 8.00842e-05
28 *711:12 *887:42 0
29 *711:12 *888:74 0
30 *711:18 *2879:B 0
31 *711:18 *3014:A1 0.000287256
32 *711:18 *858:62 0
33 *711:18 *859:41 4.77425e-05
34 *711:18 *896:40 0.000181192
35 *711:18 *896:51 0.000181192
36 *711:37 *3229:RESET_B 8.0216e-05
37 *711:37 *822:16 0
38 *711:37 *822:78 0
39 *711:37 *1135:32 0.000436555
40 *711:37 *1135:46 0
41 *711:64 *3026:B1 0
42 *711:64 *3034:B1 0
43 *711:64 *3037:B 0
44 *711:64 *3041:B 0
45 *711:64 *888:74 0
46 *711:64 *1148:10 0
47 *711:68 *3285:RESET_B 0
48 *711:68 *3291:RESET_B 1.54008e-05
49 *711:68 *1142:39 0
50 *2888:A2 *3221:CLK 0.000404071
51 *2907:B *711:37 0
52 *3361:A *711:37 0
53 *289:8 *3281:CLK 0
54 *320:10 *711:64 0
55 *375:18 *3285:CLK 0.000274781
56 *375:18 *3291:CLK 0
57 *375:18 *711:68 0
58 *496:19 *3221:CLK 0.000171356
59 *496:83 *3229:CLK 0
60 *520:16 *3221:CLK 0
61 *520:16 *711:12 0.000181192
62 *520:16 *711:18 0
63 *596:101 *711:12 6.47768e-05
64 *596:101 *711:18 4.77425e-05
65 *614:8 *711:64 0
66 *619:10 *711:64 0
67 *620:8 *711:64 0
68 *697:220 *711:37 0
*RES
1 *3362:X *711:6 40 
2 *711:6 *711:12 24.5938 
3 *711:12 *711:18 24.1303 
4 *711:18 *3221:CLK 45.2221 
5 *711:18 *711:37 46.3757 
6 *711:37 *3229:CLK 43.914 
7 *711:37 *3281:CLK 45.7886 
8 *711:12 *3370:A 20 
9 *711:6 *711:64 12.463 
10 *711:64 *711:68 22.9506 
11 *711:68 *3287:CLK 20 
12 *711:68 *3285:CLK 22.678 
13 *711:64 *3291:CLK 43.914 
*END

*D_NET *712 0.0126118
*CONN
*I *3325:CLK I *D sg13g2_dfrbpq_1
*I *3157:CLK I *D sg13g2_dfrbpq_1
*I *3255:CLK I *D sg13g2_dfrbpq_1
*I *3257:CLK I *D sg13g2_dfrbpq_1
*I *3169:CLK I *D sg13g2_dfrbpq_1
*I *3319:CLK I *D sg13g2_dfrbpq_1
*I *3321:CLK I *D sg13g2_dfrbpq_1
*I *3363:X O *D sg13g2_buf_8
*CAP
1 *3325:CLK 0.000433342
2 *3157:CLK 0.000359679
3 *3255:CLK 0
4 *3257:CLK 0
5 *3169:CLK 0.000677325
6 *3319:CLK 0.000281901
7 *3321:CLK 0.000385241
8 *3363:X 0
9 *712:61 0.000628345
10 *712:53 0.000981552
11 *712:22 0.00144079
12 *712:18 0.00175082
13 *712:16 0.000859656
14 *712:10 0.000879436
15 *712:6 0.0007465
16 *3157:CLK *722:47 0
17 *3157:CLK *768:10 0
18 *3157:CLK *833:14 0.000144927
19 *3157:CLK *833:25 0.0001944
20 *3157:CLK *899:14 0
21 *3157:CLK *899:22 0
22 *3169:CLK *757:53 0
23 *3169:CLK *1137:50 0
24 *3319:CLK *3090:B1 0
25 *3319:CLK *909:38 0
26 *3321:CLK *909:38 0
27 *3325:CLK *3102:B1 0.000208195
28 *3325:CLK *724:43 0
29 *3325:CLK *819:102 0.000584182
30 *712:10 *819:102 0.000765322
31 *712:16 *722:47 0
32 *712:16 *819:102 0
33 *712:16 *899:22 0
34 *712:16 *1129:25 0
35 *712:18 *819:102 0
36 *712:18 *1129:25 0
37 *712:22 *3090:A1 0
38 *712:22 *819:102 0
39 *712:22 *1129:25 0
40 *712:53 *2958:B1 0.000112749
41 *712:53 *766:45 0
42 *712:53 *899:22 0.000597347
43 *712:61 *2962:B1 4.77425e-05
44 *712:61 *722:35 0
45 *712:61 *722:45 0
46 *712:61 *730:8 0
47 *712:61 *731:23 0
48 *712:61 *899:22 0
49 *3093:A *3319:CLK 3.24568e-05
50 *3093:A *3321:CLK 1.54556e-05
51 *3093:B *3321:CLK 0
52 *3157:D *3169:CLK 0.000177399
53 *546:39 *712:61 0.000307057
54 *646:35 *712:10 0
55 *646:57 *3325:CLK 0
56 *646:57 *712:10 0
57 *656:10 *712:22 0
58 *659:10 *712:22 0
59 *661:20 *3321:CLK 0
*RES
1 *3363:X *712:6 40 
2 *712:6 *712:10 23.5638 
3 *712:10 *712:16 21.8437 
4 *712:16 *712:18 2.575 
5 *712:18 *712:22 26.283 
6 *712:22 *3321:CLK 23.9964 
7 *712:22 *3319:CLK 23.2136 
8 *712:18 *3169:CLK 46.1594 
9 *712:16 *712:53 23.9964 
10 *712:53 *712:61 46.077 
11 *712:61 *3257:CLK 20 
12 *712:53 *3255:CLK 20 
13 *712:10 *3157:CLK 23.3475 
14 *712:6 *3325:CLK 44.7689 
*END

*D_NET *713 0.0120946
*CONN
*I *3167:CLK I *D sg13g2_dfrbpq_1
*I *3327:CLK I *D sg13g2_dfrbpq_1
*I *3263:CLK I *D sg13g2_dfrbpq_1
*I *3371:A I *D sg13g2_inv_1
*I *3253:CLK I *D sg13g2_dfrbpq_1
*I *3251:CLK I *D sg13g2_dfrbpq_1
*I *3175:CLK I *D sg13g2_dfrbpq_1
*I *3364:X O *D sg13g2_buf_8
*CAP
1 *3167:CLK 0.000280626
2 *3327:CLK 0
3 *3263:CLK 4.25262e-05
4 *3371:A 0
5 *3253:CLK 6.93555e-05
6 *3251:CLK 0.000218526
7 *3175:CLK 0.000635454
8 *3364:X 0.000437125
9 *713:80 0.000641337
10 *713:72 0.00243772
11 *713:59 0.00181437
12 *713:29 0.000702639
13 *713:23 0.000414757
14 *713:10 0.000816498
15 *3167:CLK *743:21 0
16 *3167:CLK *908:10 0.000387605
17 *3175:CLK *2800:A1 4.77425e-05
18 *3175:CLK *2800:A2 0
19 *3175:CLK *733:37 0.000857408
20 *3175:CLK *768:12 0.000340462
21 *3175:CLK *769:31 0
22 *3175:CLK *798:22 0
23 *3251:CLK *723:51 0
24 *3263:CLK *2974:B1 8.0216e-05
25 *3263:CLK *958:10 8.0216e-05
26 *713:10 *768:12 0.000371499
27 *713:10 *769:31 0
28 *713:10 *903:48 0
29 *713:29 *2954:A1 0
30 *713:29 *2954:B1 0
31 *713:29 *723:51 0.000597178
32 *713:59 *2974:B1 0
33 *713:59 *768:12 0
34 *713:59 *903:48 0
35 *713:72 *768:12 0
36 *713:72 *769:31 0
37 *713:72 *1126:37 0.00012816
38 *713:80 *743:21 0
39 *713:80 *800:18 0
40 *713:80 *908:10 1.54008e-05
41 *713:80 *908:16 0
42 *713:80 *1130:48 0
43 *3364:A *713:10 0
44 *3364:A *713:29 0
45 *301:14 *3251:CLK 0.000176601
46 *306:10 *713:72 0.000501149
47 *546:88 *3251:CLK 0
48 *546:88 *713:29 0
49 *553:10 *713:29 0
*RES
1 *3364:X *713:10 42.369 
2 *713:10 *3175:CLK 47.313 
3 *713:10 *713:23 20 
4 *713:23 *713:29 4.6968 
5 *713:29 *3251:CLK 22.266 
6 *713:29 *3253:CLK 20.8446 
7 *713:23 *3371:A 20 
8 *3364:X *713:59 42.2454 
9 *713:59 *3263:CLK 40.5356 
10 *713:59 *713:72 35.4294 
11 *713:72 *713:80 45.6444 
12 *713:80 *3327:CLK 20 
13 *713:72 *3167:CLK 22.6986 
*END

*D_NET *714 0.00535778
*CONN
*I *2728:A I *D sg13g2_inv_1
*I *3143:B1 I *D sg13g2_o21ai_1
*I *2874:B I *D sg13g2_nand4_1
*I *3345:Q O *D sg13g2_dfrbpq_1
*CAP
1 *2728:A 0
2 *3143:B1 0
3 *2874:B 0
4 *3345:Q 3.84476e-05
5 *714:58 0.000413202
6 *714:52 0.000996413
7 *714:39 0.00106008
8 *714:20 0.000418305
9 *714:6 0.000933618
10 *714:20 *3592:A 0
11 *714:20 *990:14 0.000503757
12 *714:20 *1048:16 0.000208093
13 *714:20 *1124:45 5.58e-06
14 *714:39 *2878:A 0.000138756
15 *714:39 *3144:B 0
16 *714:39 *1124:14 0.000112638
17 *714:52 *3057:B1 0
18 *714:52 *764:57 0
19 *714:52 *1049:24 0.000287314
20 *714:52 *1120:10 0
21 *714:52 *1124:14 0
22 *714:58 *990:16 0
23 *714:58 *1123:16 0
24 *2874:A *714:20 0
25 *3143:A2 *714:39 0.000112769
26 *3144:A *714:39 0
27 *282:12 *714:20 0.00012881
28 *491:10 *714:20 0
29 *493:12 *714:20 0
*RES
1 *3345:Q *714:6 20.3193 
2 *714:6 *714:20 44.7483 
3 *714:20 *2874:B 20 
4 *714:6 *714:39 4.9852 
5 *714:39 *3143:B1 20 
6 *714:39 *714:52 45.2118 
7 *714:52 *714:58 44.8616 
8 *714:58 *2728:A 20 
*END

*D_NET *715 0.00169443
*CONN
*I *2742:A1 I *D sg13g2_a21oi_1
*I *3531:X O *D sg13g2_buf_1
*CAP
1 *2742:A1 0.000272978
2 *3531:X 0.000536888
3 *715:10 0.000809866
4 *2742:A1 *2747:B1 0
5 *2742:A1 *2747:A2 0
6 *2742:A1 *778:12 0
7 *2742:A1 *844:55 7.46939e-05
8 *2742:A1 *844:62 0
9 *2742:A1 *860:12 0
10 *715:10 *738:10 0
11 *715:10 *860:12 0
12 *249:8 *715:10 0
13 *397:16 *715:10 0
*RES
1 *3531:X *715:10 45.4899 
2 *715:10 *2742:A1 42.6626 
*END

*D_NET *716 0.0123911
*CONN
*I *2815:B2 I *D sg13g2_a22oi_1
*I *3532:X O *D sg13g2_buf_1
*CAP
1 *2815:B2 0
2 *3532:X 0.000861707
3 *716:26 0.00133252
4 *716:18 0.00156719
5 *716:12 0.00109638
6 *716:12 *3161:RESET_B 0.00026046
7 *716:12 *3417:A 0.000759438
8 *716:12 *758:67 0.000597368
9 *716:12 *840:40 0.000181192
10 *716:12 *1105:18 0.000371188
11 *716:18 *901:78 7.96777e-05
12 *716:18 *901:101 0.000144899
13 *716:26 *2815:A1 7.32897e-05
14 *716:26 *720:43 0.00331351
15 *716:26 *737:39 0.000284512
16 *716:26 *852:94 0
17 *716:26 *1116:12 0
18 *2773:B1 *716:12 0.000176482
19 *3532:A *716:12 0
20 *422:16 *716:26 0.00129129
21 *437:14 *716:18 0
*RES
1 *3532:X *716:12 49.9498 
2 *716:12 *716:18 42.0497 
3 *716:18 *716:26 38.0456 
4 *716:26 *2815:B2 20 
*END

*D_NET *717 0.0391169
*CONN
*I *3119:B1 I *D sg13g2_a21oi_1
*I *2750:A1 I *D sg13g2_a21oi_1
*I *3608:A I *D sg13g2_buf_1
*I *3333:Q O *D sg13g2_dfrbpq_1
*CAP
1 *3119:B1 0
2 *2750:A1 0
3 *3608:A 0
4 *3333:Q 0.000362759
5 *717:46 0.00139211
6 *717:32 0.00499352
7 *717:20 0.00370913
8 *717:16 0.00515517
9 *717:14 0.00504743
10 *717:12 0.000362759
11 *717:12 *3423:A 0
12 *717:12 *3432:A 0.000209769
13 *717:12 *866:96 0
14 *717:12 *881:68 0.000395518
15 *717:12 *890:61 0
16 *717:16 *856:27 0.000674086
17 *717:16 *856:50 0.000343722
18 *717:16 *856:56 0
19 *717:16 *880:124 0.000179325
20 *717:16 *883:23 0
21 *717:16 *884:106 0
22 *717:16 *1125:23 0.00827993
23 *717:32 *720:68 0.00023464
24 *717:32 *757:53 0.000287758
25 *717:32 *766:8 0
26 *717:32 *766:37 0
27 *717:32 *794:16 0.000181279
28 *717:32 *833:111 0
29 *717:32 *850:8 0.00023464
30 *717:32 *854:30 0.00161453
31 *717:32 *901:57 0
32 *717:32 *901:86 0.00145894
33 *717:32 *909:49 0
34 *717:32 *1125:42 0
35 *717:46 *2842:A1 0.000112535
36 *717:46 *2842:B1 0.000200331
37 *717:46 *720:53 0
38 *717:46 *721:77 0.000768245
39 *717:46 *754:31 0.000112437
40 *717:46 *754:46 4.77425e-05
41 *717:46 *882:18 0
42 gpio_dir[6] *717:46 0
43 *3191:D *717:46 4.78521e-05
44 *26:12 *717:46 4.78524e-05
45 *30:12 *717:46 0
46 *351:14 *717:16 0
47 *354:24 *717:12 0
48 *392:12 *717:32 0.00192841
49 *392:14 *717:32 0
50 *392:26 *717:32 0
51 *403:8 *717:32 0.000552831
52 *405:8 *717:32 0.000181608
53 *671:81 *717:16 0
*RES
1 *3333:Q *717:12 43.6159 
2 *717:12 *717:14 20 
3 *717:14 *717:16 62.3974 
4 *717:16 *717:20 20.8446 
5 *717:20 *717:32 37.8525 
6 *717:32 *717:46 33.7196 
7 *717:46 *3608:A 20 
8 *717:20 *2750:A1 40 
9 *717:12 *3119:B1 40 
*END

*D_NET *718 0.0187054
*CONN
*I *3036:B1 I *D sg13g2_a21oi_1
*I *3609:A I *D sg13g2_buf_1
*I *2862:A1 I *D sg13g2_a21oi_1
*I *3293:Q O *D sg13g2_dfrbpq_1
*CAP
1 *3036:B1 5.85851e-05
2 *3609:A 0.000833774
3 *2862:A1 0
4 *3293:Q 0.0009694
5 *718:44 0.00051371
6 *718:36 0.00388755
7 *718:26 0.00265867
8 *718:20 0.00119184
9 *718:14 0.00210122
10 *3609:A *3707:A 0
11 *3609:A *1145:54 0
12 *3609:A *1147:26 0
13 *718:14 *719:10 0
14 *718:14 *766:55 0.000128662
15 *718:14 *824:87 0.000181192
16 *718:14 *1001:8 4.78356e-05
17 *718:20 *766:55 0
18 *718:20 *778:29 0
19 *718:20 *1145:37 0
20 *718:20 *1148:37 0.0011152
21 *718:26 *823:80 0
22 *718:36 *2808:B1 0
23 *718:36 *905:46 0
24 *718:36 *905:125 0
25 *718:36 *908:84 0
26 *718:36 *1143:48 0
27 *718:36 *1143:75 0
28 *718:36 *1145:37 0.00291515
29 *718:44 *2862:A2 1.54008e-05
30 *718:44 *2864:A2 0.00039835
31 *718:44 *785:23 0
32 *718:44 *832:33 0
33 *718:44 *836:12 0.000585631
34 *718:44 *1135:85 0
35 *718:44 *1147:26 0.000235771
36 *2849:A1 *3609:A 1.54285e-05
37 *3039:A *3036:B1 1.9636e-05
38 *3039:B *3036:B1 0
39 *3179:CLK *718:36 0
40 *3283:CLK *718:36 0
41 *3508:A *718:20 0.000208576
42 *321:8 *718:14 0.000445467
43 *321:8 *718:20 0.000178388
44 *375:18 *718:14 0
45 *464:12 *718:44 0
*RES
1 *3293:Q *718:14 49.0022 
2 *718:14 *718:20 30.0322 
3 *718:20 *718:26 41.0918 
4 *718:26 *718:36 26.5328 
5 *718:36 *718:44 46.7568 
6 *718:44 *2862:A1 20 
7 *718:36 *3609:A 27.6117 
8 *718:14 *3036:B1 40.5356 
*END

*D_NET *719 0.020485
*CONN
*I *3040:B1 I *D sg13g2_a21oi_1
*I *2866:A1 I *D sg13g2_a21oi_1
*I *3610:A I *D sg13g2_buf_1
*I *3295:Q O *D sg13g2_dfrbpq_1
*CAP
1 *3040:B1 0.000114237
2 *2866:A1 0.000160756
3 *3610:A 0.000467838
4 *3295:Q 0.000746278
5 *719:36 0.00164939
6 *719:30 0.00387086
7 *719:10 0.00371058
8 *2866:A1 *2866:B1 8.00842e-05
9 *2866:A1 *791:21 0.000606694
10 *2866:A1 *842:12 1.54008e-05
11 *2866:A1 *842:16 8.00842e-05
12 *3040:B1 *823:63 0
13 *3610:A *3708:A 0
14 *3610:A *1136:56 0
15 *3610:A *1140:56 0
16 *3610:A *1146:60 0
17 *719:10 *778:29 0.00175559
18 *719:10 *824:87 0.000181385
19 *719:10 *1001:8 0
20 *719:30 *2818:B1 0
21 *719:30 *2826:B1 0
22 *719:30 *3289:RESET_B 0
23 *719:30 *778:29 0.000228663
24 *719:30 *823:69 0.000209374
25 *719:30 *823:80 0
26 *719:30 *1140:31 0.0011256
27 *719:30 *1140:37 0
28 *719:30 *1144:10 0.000111016
29 *719:30 *1147:20 0.000177548
30 *719:36 *2848:B1 0
31 *719:36 *3199:RESET_B 0.000338651
32 *719:36 *3708:A 0
33 *719:36 *791:21 0.00012816
34 *719:36 *832:27 0.000693392
35 *719:36 *1147:20 0.000887897
36 *719:36 *1148:37 0
37 *2821:A1 *719:30 0
38 *2829:A1 *719:30 0
39 *2829:B1 *719:30 0
40 *3039:A *719:30 0
41 *3039:B *719:30 0.000144532
42 *267:10 *719:30 0
43 *375:18 *719:10 0
44 *389:20 *719:30 4.79124e-05
45 *389:31 *719:30 0.000693493
46 *393:8 *719:30 8.02267e-05
47 *393:23 *719:30 0.000628877
48 *452:26 *719:30 0.000144768
49 *474:10 *3610:A 8.00842e-05
50 *474:10 *719:36 0.000468045
51 *488:20 *2866:A1 0.000584925
52 *488:20 *719:36 0.000128248
53 *596:37 *3040:B1 0
54 *596:46 *3040:B1 0
55 *596:75 *719:30 0.000144389
56 *718:14 *719:10 0
*RES
1 *3295:Q *719:10 48.7962 
2 *719:10 *719:30 45.1682 
3 *719:30 *719:36 31.5154 
4 *719:36 *3610:A 44.8101 
5 *719:36 *2866:A1 43.3578 
6 *719:10 *3040:B1 40.9682 
*END

*D_NET *720 0.030363
*CONN
*I *2754:A1 I *D sg13g2_a21oi_1
*I *3611:A I *D sg13g2_buf_1
*I *3123:B1 I *D sg13g2_a21oi_1
*I *3335:Q O *D sg13g2_dfrbpq_1
*CAP
1 *2754:A1 0
2 *3611:A 0
3 *3123:B1 0.000296264
4 *3335:Q 0.000423358
5 *720:68 0.00023169
6 *720:53 0.00144774
7 *720:43 0.00326288
8 *720:35 0.0022329
9 *720:29 0.00143559
10 *720:25 0.0042892
11 *720:10 0.00333594
12 *720:8 0.000423358
13 *3123:B1 *2992:C 0
14 *3123:B1 *3124:D 0
15 *3123:B1 *866:52 0
16 *720:8 *3430:A 0
17 *720:8 *856:73 0.000659311
18 *720:8 *856:108 0.000767951
19 *720:8 *866:52 0
20 *720:25 *2992:C 0
21 *720:25 *3379:A 0.000339185
22 *720:25 *796:28 7.35518e-05
23 *720:25 *796:32 0
24 *720:25 *808:46 0
25 *720:25 *818:10 0.000176416
26 *720:25 *866:52 0
27 *720:25 *892:51 0
28 *720:25 *1129:25 7.53228e-05
29 *720:35 *3171:RESET_B 0
30 *720:35 *758:57 0.000273992
31 *720:35 *794:16 0
32 *720:43 *725:56 0.000340393
33 *720:43 *854:30 0
34 *720:43 *901:65 0.000181192
35 *720:43 *909:49 0.00368295
36 *720:43 *909:55 0.00108421
37 *720:43 *963:8 0
38 *720:43 *1085:14 0
39 *720:43 *1116:12 0
40 *720:53 *3191:RESET_B 0.000112289
41 *720:53 *3203:RESET_B 0
42 *720:53 *3616:A 0
43 *720:53 *723:102 0.000918599
44 *720:53 *725:56 0
45 *720:53 *743:29 0
46 *720:68 *2791:B1 4.77425e-05
47 *720:68 *3417:A 1.54008e-05
48 *720:68 *758:57 0.000110829
49 *720:68 *794:16 0.00012816
50 *720:68 *840:40 1.54008e-05
51 gpio_dir[6] *720:53 0
52 gpio_dir[8] *720:53 1.54556e-05
53 *2993:A2 *720:25 0
54 *2994:A *720:25 0
55 *2994:B *720:25 0
56 *3203:D *720:53 0.000241039
57 *3335:D *3123:B1 0.000176559
58 *29:10 *720:53 0
59 *452:16 *720:43 0
60 *461:10 *720:53 0
61 *646:31 *720:25 0
62 *716:26 *720:43 0.00331351
63 *717:32 *720:68 0.00023464
64 *717:46 *720:53 0
*RES
1 *3335:Q *720:8 46.5302 
2 *720:8 *720:10 20 
3 *720:10 *3123:B1 22.8325 
4 *720:10 *720:25 46.4092 
5 *720:25 *720:29 35.4603 
6 *720:29 *720:35 41.8334 
7 *720:35 *720:43 48.9533 
8 *720:43 *720:53 33.8844 
9 *720:53 *3611:A 20 
10 *720:35 *720:68 42.5956 
11 *720:68 *2754:A1 20 
*END

*D_NET *721 0.0319571
*CONN
*I *3612:A I *D sg13g2_buf_1
*I *2758:A1 I *D sg13g2_a21oi_1
*I *3127:B1 I *D sg13g2_a21oi_1
*I *3337:Q O *D sg13g2_dfrbpq_1
*CAP
1 *3612:A 0
2 *2758:A1 0.000114194
3 *3127:B1 2.60062e-05
4 *3337:Q 0.0016804
5 *721:77 0.00179349
6 *721:71 0.00529163
7 *721:56 0.0039508
8 *721:48 0.0020422
9 *721:34 0.00192861
10 *721:28 0.00159392
11 *721:10 0.000337365
12 *2758:A1 *2760:B1 0
13 *2758:A1 *839:67 1.54008e-05
14 *2758:A1 *909:38 0
15 *721:10 *807:37 0
16 *721:10 *818:62 0
17 *721:10 *898:33 0.000176504
18 *721:10 *1073:8 0.000287758
19 *721:28 *2985:B1 0
20 *721:28 *2987:B1 0
21 *721:28 *740:10 0
22 *721:28 *752:24 0
23 *721:28 *807:76 0
24 *721:28 *818:28 0.00037182
25 *721:28 *818:62 0
26 *721:28 *909:38 0
27 *721:34 *752:24 0.000176713
28 *721:34 *807:84 0
29 *721:48 *3094:A1 0
30 *721:48 *790:34 0
31 *721:48 *795:26 0.000533914
32 *721:48 *909:38 0
33 *721:48 *1128:32 0.000732706
34 *721:48 *1129:14 0.000128095
35 *721:48 *1129:25 0.000370977
36 *721:56 *909:38 0
37 *721:71 *2782:A2 0.000235055
38 *721:71 *726:14 0.000706318
39 *721:71 *726:44 0.00134649
40 *721:71 *799:31 0
41 *721:71 *828:10 0
42 *721:71 *828:36 0
43 *721:71 *834:30 0
44 *721:71 *839:25 0.00103379
45 *721:71 *839:29 0.00129774
46 *721:71 *843:24 0.000106064
47 *721:71 *902:8 0.000181192
48 *721:71 *903:14 0
49 *721:71 *903:25 0
50 *721:71 *903:48 0.000710618
51 *721:71 *970:10 0
52 *721:71 *1128:49 0
53 *721:77 *3470:A 0.000272747
54 *721:77 *725:46 0
55 *721:77 *743:21 0
56 *721:77 *743:29 0.00179182
57 *721:77 *843:45 0
58 gpio_dir[6] *721:77 0
59 *2761:A1 *2758:A1 0
60 *2761:A1 *721:56 0.000274583
61 *2817:A1 *721:77 0
62 *2986:A *721:28 4.77425e-05
63 *2990:A *721:28 0
64 *3094:A2 *721:48 0
65 *3096:A2 *721:28 0
66 *3265:CLK *3127:B1 4.77537e-05
67 *3269:CLK *721:28 0
68 *252:8 *721:48 0
69 *257:8 *721:71 0.000181608
70 *388:18 *721:71 0
71 *407:28 *721:48 0
72 *407:28 *721:56 0
73 *421:8 *721:71 0
74 *423:10 *721:71 0
75 *449:14 *721:77 0.000402437
76 *455:22 *721:71 0
77 *580:22 *3127:B1 4.77425e-05
78 *580:22 *721:28 0
79 *586:10 *721:28 0.000242055
80 *657:10 *721:48 0.000468387
81 *659:10 *721:48 0.00024222
82 *671:117 *721:10 0
83 *717:46 *721:77 0.000768245
*RES
1 *3337:Q *721:10 43.2651 
2 *721:10 *3127:B1 40.3193 
3 *3337:Q *721:28 34.5127 
4 *721:28 *721:34 42.0806 
5 *721:34 *721:48 38.3546 
6 *721:48 *721:56 43.1724 
7 *721:56 *2758:A1 40.9682 
8 *721:56 *721:71 37.6053 
9 *721:71 *721:77 38.6224 
10 *721:77 *3612:A 20 
*END

*D_NET *722 0.0311089
*CONN
*I *3613:A I *D sg13g2_buf_1
*I *2762:A1 I *D sg13g2_a21oi_1
*I *3131:B1 I *D sg13g2_a21oi_1
*I *3339:Q O *D sg13g2_dfrbpq_1
*CAP
1 *3613:A 0
2 *2762:A1 0
3 *3131:B1 7.34218e-05
4 *3339:Q 0.000486582
5 *722:82 4.87626e-05
6 *722:76 0.00160526
7 *722:72 0.00263971
8 *722:58 0.00367552
9 *722:56 0.00261352
10 *722:47 0.00105076
11 *722:45 0.0012961
12 *722:35 0.00438117
13 *722:14 0.00433127
14 *722:10 0.000629822
15 *3131:B1 *817:6 0
16 *722:10 *3004:C 0
17 *722:10 *873:31 0
18 *722:14 *3131:A1 0
19 *722:14 *3339:RESET_B 0
20 *722:35 *2958:A1 6.17328e-05
21 *722:35 *2958:B1 6.41408e-05
22 *722:35 *2991:B1 4.77425e-05
23 *722:35 *3077:A 0
24 *722:35 *3077:B 0
25 *722:35 *3131:A1 0
26 *722:35 *3257:RESET_B 0
27 *722:35 *3277:RESET_B 0
28 *722:35 *3388:A 0.000274507
29 *722:35 *757:18 0
30 *722:35 *757:33 0
31 *722:35 *766:45 0
32 *722:35 *817:17 0
33 *722:35 *818:87 0
34 *722:35 *855:67 0
35 *722:35 *883:61 0.00231199
36 *722:35 *885:57 0
37 *722:35 *889:80 0
38 *722:45 *2958:A1 0
39 *722:45 *2958:B1 0
40 *722:45 *899:22 0
41 *722:47 *2762:A2 1.54282e-05
42 *722:47 *731:23 0
43 *722:47 *833:14 0.000144927
44 *722:47 *833:25 0.000534083
45 *722:47 *834:57 0
46 *722:47 *899:22 0
47 *722:56 *2762:A2 4.77699e-05
48 *722:56 *833:25 3.24568e-05
49 *722:58 *2780:B1 0.00156114
50 *722:58 *2800:B1 0.00039332
51 *722:58 *769:31 0
52 *722:58 *772:27 0
53 *722:58 *800:33 0.000654163
54 *722:58 *828:24 0
55 *722:58 *902:25 0.000710969
56 *722:58 *902:36 0.000286284
57 *722:58 *1131:23 0
58 *722:72 *743:21 0
59 *722:72 *843:62 0
60 *722:72 *1085:8 4.74248e-05
61 *722:72 *1141:33 0.000312889
62 *722:76 *724:59 0
63 *722:76 *832:52 0
64 *722:76 *843:68 0
65 *722:82 *751:54 0
66 *2945:C *722:35 8.03091e-05
67 *2958:A2 *722:35 0
68 *3157:CLK *722:47 0
69 *3183:D *722:72 6.99179e-05
70 *3277:D *722:35 0
71 *3331:CLK *722:35 0
72 *3339:CLK *722:14 0
73 *3339:CLK *722:35 0
74 *6:10 *722:82 0
75 *345:14 *722:10 0
76 *352:16 *722:10 0
77 *352:16 *722:35 0
78 *426:10 *722:58 0.00055058
79 *437:26 *722:58 0
80 *438:12 *722:58 0
81 *546:20 *722:35 0
82 *546:31 *722:35 0
83 *546:39 *722:45 7.52158e-05
84 *687:10 *722:14 0
85 *712:16 *722:47 0
86 *712:61 *722:35 0
87 *712:61 *722:45 0
*RES
1 *3339:Q *722:10 44.2848 
2 *722:10 *722:14 21.1845 
3 *722:14 *3131:B1 20.8446 
4 *722:14 *722:35 40.6522 
5 *722:35 *722:45 42.623 
6 *722:45 *722:47 9.991 
7 *722:47 *2762:A1 20 
8 *722:47 *722:56 20.3193 
9 *722:56 *722:58 31.4974 
10 *722:58 *722:72 49.6923 
11 *722:72 *722:76 34.5951 
12 *722:76 *722:82 40.3502 
13 *722:82 *3613:A 20 
*END

*D_NET *723 0.035834
*CONN
*I *3614:A I *D sg13g2_buf_1
*I *2766:A1 I *D sg13g2_a21oi_1
*I *3135:B1 I *D sg13g2_a21oi_1
*I *3341:Q O *D sg13g2_dfrbpq_1
*CAP
1 *3614:A 0
2 *2766:A1 0.000896873
3 *3135:B1 0
4 *3341:Q 2.77263e-05
5 *723:102 0.00248922
6 *723:67 0.00436082
7 *723:63 0.00163241
8 *723:51 0.00360738
9 *723:37 0.00331602
10 *723:31 0.00254933
11 *723:16 0.000717329
12 *723:6 0.00292806
13 *2766:A1 *2771:B1 0
14 *2766:A1 *728:42 0
15 *2766:A1 *782:22 0
16 *2766:A1 *793:14 0
17 *2766:A1 *798:39 0.000498072
18 *2766:A1 *830:40 0.000306029
19 *2766:A1 *840:47 0
20 *2766:A1 *961:8 0.000128247
21 *723:16 *2875:B 0
22 *723:16 *816:18 0
23 *723:16 *863:10 0.000399422
24 *723:31 *820:72 0.000182109
25 *723:31 *864:10 0
26 *723:51 *759:42 0
27 *723:51 *759:54 0.00163178
28 *723:51 *761:34 0
29 *723:51 *819:37 0
30 *723:51 *885:47 0
31 *723:51 *892:64 0
32 *723:63 *759:54 0
33 *723:63 *772:8 0
34 *723:63 *834:32 0
35 *723:63 *902:14 0.000500937
36 *723:63 *903:48 0
37 *723:67 *2776:A2 0
38 *723:67 *762:35 0.00162952
39 *723:102 *2842:B1 0.00039384
40 *723:102 *2844:A1 0.000553749
41 *723:102 *3191:RESET_B 0
42 *723:102 *743:29 0
43 *723:102 *782:22 0
44 *723:102 *785:23 7.52328e-05
45 *723:102 *793:14 0
46 *723:102 *961:8 0.000212543
47 *723:102 *1125:42 0
48 *2777:A1 *723:67 0
49 *2953:A *723:51 0.000107529
50 *2957:A *723:51 0
51 *3213:CLK *723:16 4.77425e-05
52 *3251:CLK *723:51 0
53 *3279:CLK *723:31 0
54 *3365:A *723:31 0
55 *256:8 *723:63 0.000392903
56 *273:14 *723:102 0
57 *301:14 *723:51 0.000337683
58 *362:16 *723:31 0
59 *363:16 *723:16 0
60 *363:16 *723:31 1.54205e-05
61 *412:12 *2766:A1 0
62 *419:14 *723:63 0
63 *419:14 *723:67 0
64 *420:8 *723:63 0.000129028
65 *422:8 *723:67 0.00082154
66 *464:12 *723:102 0
67 *478:18 *723:102 0
68 *546:120 *723:51 0
69 *548:8 *723:31 0
70 *552:18 *723:51 0.000338872
71 *692:10 *723:16 0
72 *697:17 *723:51 0
73 *700:51 *2766:A1 0.000445795
74 *700:51 *723:102 0.00071243
75 *703:44 *723:102 0
76 *705:15 *723:31 0.000242193
77 *705:17 *723:16 0.000370851
78 *705:17 *723:31 0.000809262
79 *705:28 *723:16 7.62389e-05
80 *707:49 *723:51 0.000434036
81 *713:29 *723:51 0.000597178
82 *720:53 *723:102 0.000918599
*RES
1 *3341:Q *723:6 20.3502 
2 *723:6 *723:16 47.3233 
3 *723:16 *3135:B1 20 
4 *723:6 *723:31 40.4352 
5 *723:31 *723:37 44.429 
6 *723:37 *723:51 49.6949 
7 *723:51 *723:63 47.6426 
8 *723:63 *723:67 31.1343 
9 *723:67 *2766:A1 48.9301 
10 *723:67 *723:102 44.8951 
11 *723:102 *3614:A 20 
*END

*D_NET *724 0.0287473
*CONN
*I *2771:B2 I *D sg13g2_a22oi_1
*I *3615:A I *D sg13g2_buf_1
*I *3139:B1 I *D sg13g2_a21oi_1
*I *3343:Q O *D sg13g2_dfrbpq_1
*CAP
1 *2771:B2 0
2 *3615:A 0
3 *3139:B1 0.000246363
4 *3343:Q 0.000627734
5 *724:74 0.000253912
6 *724:59 0.000524089
7 *724:53 0.0022579
8 *724:49 0.00242465
9 *724:43 0.00502546
10 *724:29 0.00595421
11 *724:8 0.00223977
12 *3139:B1 *805:60 0
13 *3139:B1 *820:61 0
14 *724:8 *805:60 0
15 *724:8 *891:65 0
16 *724:8 *947:12 0
17 *724:29 *3279:RESET_B 0.000135974
18 *724:29 *3343:RESET_B 0
19 *724:29 *820:61 0
20 *724:29 *820:72 0
21 *724:29 *885:47 0
22 *724:43 *2790:A2 0
23 *724:43 *2798:A2 0
24 *724:43 *3102:B1 0
25 *724:43 *3175:RESET_B 0.000339306
26 *724:43 *3249:RESET_B 0.0005318
27 *724:43 *3251:RESET_B 0.000265469
28 *724:43 *3397:A 0
29 *724:43 *733:8 0
30 *724:43 *759:42 0
31 *724:43 *769:8 7.95529e-05
32 *724:43 *769:27 0.000630841
33 *724:43 *794:37 0
34 *724:43 *798:22 0
35 *724:43 *828:10 0.000111878
36 *724:43 *828:14 0
37 *724:43 *830:33 0
38 *724:43 *839:14 0
39 *724:43 *840:32 0.000466535
40 *724:43 *840:47 0.000176575
41 *724:43 *1131:14 0
42 *724:49 *771:14 0
43 *724:53 *757:65 0.00114446
44 *724:53 *1137:60 0.00490972
45 *724:59 *907:82 0
46 *724:59 *1126:56 0
47 *724:74 *2771:B1 1.54008e-05
48 *724:74 *771:14 0
49 *724:74 *830:51 0
50 *2949:A *724:43 0
51 *2973:A *724:43 0
52 *3009:A2 *724:29 0
53 *3102:A2 *724:43 0
54 *3142:A *3139:B1 0
55 *3142:B *724:29 0.000209637
56 *3175:D *724:43 0
57 *3261:CLK *724:43 0
58 *3325:CLK *724:43 0
59 *3:22 *724:8 0
60 *299:10 *724:43 0
61 *357:28 *724:29 0
62 *412:12 *724:43 0
63 *413:16 *724:49 0
64 *413:16 *724:74 0
65 *416:10 *724:74 6.35337e-05
66 *443:16 *724:53 0
67 *546:67 *724:43 0
68 *595:14 *724:29 0.000112563
69 *665:10 *724:43 0
70 *697:17 *724:43 0
71 *697:81 *3139:B1 0
72 *697:81 *724:8 0
73 *699:89 *724:74 0
74 *722:76 *724:59 0
*RES
1 *3343:Q *724:8 45.7886 
2 *724:8 *3139:B1 41.8746 
3 *724:8 *724:29 32.6532 
4 *724:29 *724:43 46.8238 
5 *724:43 *724:49 44.6453 
6 *724:49 *724:53 46.5534 
7 *724:53 *724:59 45.7268 
8 *724:59 *3615:A 40 
9 *724:49 *724:74 42.369 
10 *724:74 *2771:B2 20 
*END

*D_NET *725 0.0209623
*CONN
*I *3616:A I *D sg13g2_buf_1
*I *2774:A1 I *D sg13g2_a21oi_1
*I *3078:B1 I *D sg13g2_a21oi_1
*I *3313:Q O *D sg13g2_dfrbpq_1
*CAP
1 *3616:A 0.000834715
2 *2774:A1 0.000340961
3 *3078:B1 0.00023592
4 *3313:Q 0.00057104
5 *725:56 0.00141087
6 *725:46 0.00252408
7 *725:29 0.00515505
8 *725:25 0.00327445
9 *725:10 0.00121525
10 *2774:A1 *830:10 0
11 *2774:A1 *840:14 0.000208947
12 *2774:A1 *902:40 0.0002096
13 *2774:A1 *1129:56 0
14 *3078:B1 *806:33 0
15 *3616:A *2832:B1 1.54008e-05
16 *3616:A *3203:RESET_B 0
17 *3616:A *746:23 0
18 *725:10 *736:32 0
19 *725:10 *864:40 0
20 *725:25 *806:37 0
21 *725:25 *806:46 0
22 *725:25 *864:34 0.000177452
23 *725:25 *864:48 0
24 *725:29 *732:37 0
25 *725:29 *734:27 0
26 *725:29 *770:22 0
27 *725:29 *799:6 0.000208878
28 *725:29 *799:10 0.00131018
29 *725:29 *861:84 0
30 *725:29 *864:48 0
31 *725:29 *864:63 0
32 *725:29 *864:78 0
33 *725:29 *1130:27 0
34 *725:46 *2802:A2 0.000924101
35 *725:46 *754:31 0
36 *725:46 *830:10 0
37 *725:46 *843:45 4.68099e-05
38 *725:46 *1129:56 0
39 *725:56 *2831:A2 7.85932e-05
40 *725:56 *2832:B1 0
41 *725:56 *854:30 0
42 *725:56 *907:46 0
43 *2977:B *725:29 0
44 *3083:A *725:29 0
45 *3085:A *725:29 0
46 *3085:B *725:29 0
47 *3203:D *3616:A 0
48 *3217:D *725:10 0
49 *3313:CLK *3078:B1 0
50 *3315:D *725:29 0
51 *3528:A *3616:A 0.000468464
52 *3:30 *725:25 0
53 *3:36 *725:10 0
54 *270:10 *725:56 7.52158e-05
55 *306:10 *725:29 0
56 *358:14 *725:25 0
57 *358:27 *725:25 0
58 *358:27 *725:29 0.000501752
59 *389:41 *725:46 0
60 *391:40 *3616:A 0.00019323
61 *393:31 *725:46 0
62 *446:14 *725:46 0
63 *461:10 *725:56 0.000208195
64 *462:10 *725:56 0.000144025
65 *563:10 *3078:B1 0
66 *563:10 *725:25 8.01447e-05
67 *569:10 *725:29 0.000208576
68 *700:69 *725:46 0
69 *720:43 *725:56 0.000340393
70 *720:53 *3616:A 0
71 *720:53 *725:56 0
72 *721:77 *725:46 0
*RES
1 *3313:Q *725:10 45.459 
2 *725:10 *3078:B1 41.8334 
3 *725:10 *725:25 23.6977 
4 *725:25 *725:29 46.6005 
5 *725:29 *2774:A1 43.4814 
6 *725:29 *725:46 36.4594 
7 *725:46 *725:56 45.8092 
8 *725:56 *3616:A 28.1061 
*END

*D_NET *726 0.0169148
*CONN
*I *3617:A I *D sg13g2_buf_1
*I *2778:A1 I *D sg13g2_a21oi_1
*I *3082:B1 I *D sg13g2_a21oi_1
*I *3315:Q O *D sg13g2_dfrbpq_1
*CAP
1 *3617:A 0
2 *2778:A1 9.16108e-05
3 *3082:B1 0.000981852
4 *3315:Q 0.00072074
5 *726:52 0.000745743
6 *726:44 0.00258022
7 *726:14 0.00135595
8 *726:10 0.00283771
9 *2778:A1 *2778:A2 1.53311e-05
10 *3082:B1 *2780:A2 0
11 *3082:B1 *3165:RESET_B 0
12 *3082:B1 *736:32 0
13 *3082:B1 *744:41 0
14 *726:10 *2804:A2 0
15 *726:10 *3106:A1 0
16 *726:10 *744:41 0
17 *726:10 *800:8 0
18 *726:10 *800:18 0
19 *726:10 *1132:31 0
20 *726:14 *1128:49 0
21 *726:44 *2804:A2 0.0011379
22 *726:44 *2814:B1 0.000143978
23 *726:44 *3183:RESET_B 2.21754e-05
24 *726:44 *746:23 0.00156693
25 *726:44 *837:93 0.000662388
26 *726:44 *843:24 0
27 *726:44 *1128:49 0
28 *726:44 *1141:33 0
29 *726:52 *2856:A2 0.000209413
30 *726:52 *3203:RESET_B 0
31 *726:52 *746:23 0.000629019
32 *726:52 *832:37 0.00012816
33 *726:52 *907:99 0
34 *726:52 *1128:69 0
35 gpio_dir[13] *726:52 0
36 gpio_dir[8] *726:52 0
37 *2781:B1 *2778:A1 0
38 *2781:B1 *3082:B1 0
39 *3165:CLK *2778:A1 0
40 *3315:CLK *3082:B1 0
41 *3528:A *726:44 0.000533085
42 *5:10 *726:52 0
43 *35:10 *726:52 0
44 *423:10 *3082:B1 0
45 *423:10 *726:14 0
46 *452:20 *726:10 0
47 *480:10 *726:52 0.000499745
48 *646:72 *3082:B1 0
49 *721:71 *726:14 0.000706318
50 *721:71 *726:44 0.00134649
*RES
1 *3315:Q *726:10 45.0942 
2 *726:10 *726:14 23.3166 
3 *726:14 *3082:B1 28.9834 
4 *726:14 *2778:A1 20.9682 
5 *726:10 *726:44 42.7733 
6 *726:44 *726:52 48.0546 
7 *726:52 *3617:A 20 
*END

*D_NET *727 0.00857895
*CONN
*I *2819:B2 I *D sg13g2_a22oi_1
*I *3533:X O *D sg13g2_buf_1
*CAP
1 *2819:B2 0
2 *3533:X 9.15347e-05
3 *727:14 0.00199235
4 *727:8 0.00208388
5 *727:14 *3631:A 0
6 *727:14 *739:52 0
7 *727:14 *749:12 0
8 *727:14 *760:12 0.00157932
9 *727:14 *760:18 0
10 *727:14 *782:10 0
11 *727:14 *815:14 0
12 *727:14 *882:18 0.00268722
13 *727:14 *923:12 0
14 *3586:A *727:8 0.000144641
15 *3606:A *727:8 0
*RES
1 *3533:X *727:8 40.9682 
2 *727:8 *727:14 43.072 
3 *727:14 *2819:B2 20 
*END

*D_NET *728 0.0230247
*CONN
*I *3618:A I *D sg13g2_buf_1
*I *2743:A1 I *D sg13g2_a22oi_1
*I *2979:B1 I *D sg13g2_a21oi_1
*I *3265:Q O *D sg13g2_dfrbpq_1
*CAP
1 *3618:A 0
2 *2743:A1 0
3 *2979:B1 8.17761e-05
4 *3265:Q 9.10186e-05
5 *728:48 0.000768098
6 *728:42 0.00295945
7 *728:31 0.000144765
8 *728:23 0.00715409
9 *728:21 0.00494349
10 *728:8 0.000298306
11 *2979:B1 *817:53 0
12 *2979:B1 *817:68 0
13 *2979:B1 *880:51 0
14 *728:23 *740:23 0.00529393
15 *728:23 *756:32 0
16 *728:23 *778:25 0
17 *728:23 *833:37 0.000113259
18 *728:23 *833:58 0.000294622
19 *728:23 *833:83 0.000146506
20 *728:23 *1125:23 0
21 *728:31 *828:51 4.78521e-05
22 *728:31 *839:78 4.77425e-05
23 *728:31 *968:12 0
24 *728:42 *740:23 0.000197524
25 *728:42 *793:14 0
26 *728:42 *829:8 0
27 *728:42 *833:83 0.00021124
28 *728:42 *833:130 0
29 *728:42 *839:93 0
30 *728:42 *901:101 0
31 *728:42 *901:121 0.000231077
32 *728:42 *1125:42 0
33 *728:48 *757:71 0
34 *728:48 *759:77 0
35 *728:48 *782:16 0
36 *728:48 *946:20 0
37 *2766:A1 *728:42 0
38 *396:10 *728:31 0
*RES
1 *3265:Q *728:8 40.5974 
2 *728:8 *2979:B1 40.7519 
3 *728:8 *728:21 20.8446 
4 *728:21 *728:23 49.852 
5 *728:23 *728:31 41.1639 
6 *728:31 *2743:A1 20 
7 *728:23 *728:42 39.3022 
8 *728:42 *728:48 47.0246 
9 *728:48 *3618:A 40 
*END

*D_NET *729 0.0122848
*CONN
*I *3619:A I *D sg13g2_buf_1
*I *2783:A1 I *D sg13g2_a22oi_1
*I *2954:B1 I *D sg13g2_a21oi_1
*I *3253:Q O *D sg13g2_dfrbpq_1
*CAP
1 *3619:A 0
2 *2783:A1 0
3 *2954:B1 0.00019896
4 *3253:Q 0.000248123
5 *729:48 0.000313657
6 *729:35 0.00287596
7 *729:10 0.00300939
8 *2954:B1 *819:87 4.77425e-05
9 *2954:B1 *903:48 0
10 *729:10 *2974:A1 0
11 *729:10 *2974:B1 0
12 *729:10 *732:37 0
13 *729:10 *903:48 0.000414198
14 *729:35 *2974:B1 0
15 *729:35 *3622:A 6.48152e-05
16 *729:35 *3648:A 8.00842e-05
17 *729:35 *730:65 0
18 *729:35 *731:50 0.000283325
19 *729:35 *732:37 0.0027939
20 *729:35 *834:81 0
21 *729:35 *840:14 0.000435475
22 *729:35 *902:40 0
23 *729:35 *903:48 0
24 *729:35 *958:10 0.00033936
25 *729:48 *3648:A 0.00030522
26 *729:48 *3649:A 0
27 *729:48 *760:18 0.000287256
28 *729:48 *826:14 0
29 *2797:B1 *729:35 1.54285e-05
30 *2974:A2 *2954:B1 0
31 *425:8 *729:35 0
32 *646:72 *2954:B1 0.000230787
33 *646:72 *729:35 0.00034112
34 *713:29 *2954:B1 0
*RES
1 *3253:Q *729:10 42.8634 
2 *729:10 *2954:B1 42.06 
3 *729:10 *729:35 47.501 
4 *729:35 *2783:A1 20 
5 *729:35 *729:48 43.3887 
6 *729:48 *3619:A 20 
*END

*D_NET *730 0.0181839
*CONN
*I *2958:B1 I *D sg13g2_a21oi_1
*I *3620:A I *D sg13g2_buf_1
*I *2787:A1 I *D sg13g2_a22oi_1
*I *3255:Q O *D sg13g2_dfrbpq_1
*CAP
1 *2958:B1 0.000270051
2 *3620:A 0
3 *2787:A1 5.04126e-05
4 *3255:Q 0.000311121
5 *730:65 0.00244287
6 *730:32 0.00266447
7 *730:28 0.000866945
8 *730:20 0.00115387
9 *730:14 0.00200886
10 *730:8 0.00213192
11 *2787:A1 *2763:B2 4.77425e-05
12 *2787:A1 *2787:B1 4.77425e-05
13 *2787:A1 *946:14 0
14 *2958:B1 *766:45 0
15 *2958:B1 *899:22 4.70962e-05
16 *730:8 *1129:25 0
17 *730:14 *828:36 0
18 *730:14 *1129:25 0
19 *730:20 *757:53 0
20 *730:28 *833:111 0
21 *730:28 *839:93 0.00037191
22 *730:28 *1125:42 0
23 *730:28 *1137:50 0
24 *730:32 *2787:A2 0
25 *730:32 *844:36 0
26 *730:32 *912:16 0
27 *730:32 *946:14 0
28 *730:65 *3622:A 0
29 *730:65 *3648:A 0.000369903
30 *730:65 *3649:A 0
31 *730:65 *731:50 0.00027354
32 *730:65 *733:60 0.000126358
33 *730:65 *752:61 0
34 *730:65 *752:69 0
35 *730:65 *804:18 0
36 *730:65 *844:32 0
37 *730:65 *844:36 0
38 *730:65 *848:43 0.000233249
39 *730:65 *946:14 0
40 *730:65 *946:20 0.00160952
41 *730:65 *1105:18 0
42 gpio_out[10] *730:65 1.54008e-05
43 gpio_out[8] *730:65 0.000144229
44 gpio_out[9] *730:65 4.78524e-05
45 *397:16 *730:28 0
46 *407:14 *730:28 0
47 *410:14 *730:20 0.000660622
48 *415:8 *730:65 0.000340651
49 *416:10 *730:65 7.50102e-05
50 *425:18 *730:65 0.00023464
51 *428:10 *730:20 0
52 *428:10 *730:28 0.000698945
53 *481:12 *730:65 0.00076208
54 *712:53 *2958:B1 0.000112749
55 *712:61 *730:8 0
56 *722:35 *2958:B1 6.41408e-05
57 *722:45 *2958:B1 0
58 *729:35 *730:65 0
*RES
1 *3255:Q *730:8 43.3166 
2 *730:8 *730:14 39.3949 
3 *730:14 *730:20 44.429 
4 *730:20 *730:28 47.2512 
5 *730:28 *730:32 21.339 
6 *730:32 *2787:A1 40.6386 
7 *730:32 *730:65 46.0899 
8 *730:65 *3620:A 20 
9 *730:8 *2958:B1 42.8274 
*END

*D_NET *731 0.0190259
*CONN
*I *3621:A I *D sg13g2_buf_1
*I *2791:A1 I *D sg13g2_a22oi_1
*I *2962:B1 I *D sg13g2_a21oi_1
*I *3257:Q O *D sg13g2_dfrbpq_1
*CAP
1 *3621:A 0.000215406
2 *2791:A1 0
3 *2962:B1 0.000290283
4 *3257:Q 0.000106993
5 *731:50 0.000894029
6 *731:42 0.00135406
7 *731:34 0.00244899
8 *731:23 0.00385055
9 *731:10 0.00236728
10 *731:8 0.000106993
11 *2962:B1 *755:23 0
12 *2962:B1 *818:87 0
13 *2962:B1 *818:94 0
14 *3621:A *2807:A1 4.77425e-05
15 *3621:A *3623:A 0
16 *3621:A *3624:A 0
17 *731:8 *795:26 0.000560538
18 *731:23 *2791:B1 4.79124e-05
19 *731:23 *755:23 0.003219
20 *731:23 *834:57 0
21 *731:34 *2791:B1 0.000225967
22 *731:34 *3171:RESET_B 0
23 *731:34 *755:23 0.000112333
24 *731:34 *794:16 0.000234224
25 *731:34 *794:37 0.000447183
26 *731:34 *840:26 0
27 *731:34 *840:32 0
28 *731:34 *1116:12 0
29 *731:42 *762:35 0
30 *731:42 *793:14 0
31 *731:42 *797:8 0
32 *731:42 *902:40 0
33 *731:42 *1125:42 0.000287672
34 *731:50 *2807:A1 7.51285e-05
35 *731:50 *3622:A 0.000823464
36 *731:50 *848:25 0
37 *2797:B1 *731:42 0.000145025
38 *3171:D *731:23 0
39 *431:10 *731:23 0
40 *546:52 *731:8 0.000560538
41 *559:10 *2962:B1 0
42 *697:144 *731:34 0
43 *699:8 *731:34 0
44 *712:61 *2962:B1 4.77425e-05
45 *712:61 *731:23 0
46 *722:47 *731:23 0
47 *729:35 *731:50 0.000283325
48 *730:65 *731:50 0.00027354
*RES
1 *3257:Q *731:8 42.575 
2 *731:8 *731:10 20 
3 *731:10 *2962:B1 22.7501 
4 *731:10 *731:23 21.5167 
5 *731:23 *2791:A1 20 
6 *731:23 *731:34 35.0689 
7 *731:34 *731:42 46.4169 
8 *731:42 *731:50 47.0967 
9 *731:50 *3621:A 41.8334 
*END

*D_NET *732 0.0171657
*CONN
*I *3622:A I *D sg13g2_buf_1
*I *2795:A1 I *D sg13g2_a22oi_1
*I *2966:B1 I *D sg13g2_a21oi_1
*I *3259:Q O *D sg13g2_dfrbpq_1
*CAP
1 *3622:A 0.00106126
2 *2795:A1 0
3 *2966:B1 0.000296647
4 *3259:Q 0.000126504
5 *732:37 0.00317429
6 *732:33 0.00279584
7 *732:25 0.00105545
8 *732:8 0.000795782
9 *2966:B1 *2968:B1 0
10 *2966:B1 *806:46 0
11 *2966:B1 *819:12 0
12 *2966:B1 *819:18 0
13 *2966:B1 *820:97 0
14 *3622:A *2795:B1 4.77866e-05
15 *3622:A *2795:A2 0
16 *3622:A *3624:A 0
17 *732:25 *806:46 0.000629901
18 *732:25 *820:97 0
19 *732:33 *797:29 0
20 *732:33 *820:114 0
21 *732:37 *2795:B1 0.000677873
22 *732:37 *2974:A1 0
23 *732:37 *734:27 0
24 *732:37 *799:10 0
25 *732:37 *840:22 0.000176537
26 *732:37 *903:48 0
27 gpio_out[10] *3622:A 0.000143391
28 *2955:A *732:25 0.000403192
29 *2969:A *2966:B1 0.000274769
30 *2977:A *732:37 0
31 *2977:B *732:37 0.000662846
32 *72:10 *3622:A 4.79124e-05
33 *306:10 *732:37 0.000467542
34 *361:18 *732:8 0
35 *434:14 *3622:A 0.000371253
36 *563:10 *732:8 0
37 *564:12 *2966:B1 0.000274709
38 *725:29 *732:37 0
39 *729:10 *732:37 0
40 *729:35 *3622:A 6.48152e-05
41 *729:35 *732:37 0.0027939
42 *730:65 *3622:A 0
43 *731:50 *3622:A 0.000823464
*RES
1 *3259:Q *732:8 41.339 
2 *732:8 *2966:B1 43.3578 
3 *732:8 *732:25 44.2127 
4 *732:25 *732:33 47.4057 
5 *732:33 *732:37 43.896 
6 *732:37 *2795:A1 20 
7 *732:37 *3622:A 30.1867 
*END

*D_NET *733 0.0191488
*CONN
*I *3623:A I *D sg13g2_buf_1
*I *2799:A1 I *D sg13g2_a22oi_1
*I *2970:B1 I *D sg13g2_a21oi_1
*I *3261:Q O *D sg13g2_dfrbpq_1
*CAP
1 *3623:A 0.000138732
2 *2799:A1 0
3 *2970:B1 0
4 *3261:Q 0.00020197
5 *733:66 0.000502345
6 *733:60 0.00125614
7 *733:45 0.000632296
8 *733:37 0.00467069
9 *733:14 0.000106007
10 *733:8 0.00345385
11 *3623:A *3625:A 0
12 *3623:A *760:18 0
13 *733:8 *759:42 0
14 *733:14 *795:28 0.000616789
15 *733:14 *796:34 0.000616789
16 *733:37 *2800:A2 0
17 *733:37 *3251:RESET_B 0
18 *733:37 *3253:RESET_B 0.000339491
19 *733:37 *3465:A 4.77537e-05
20 *733:37 *759:42 0
21 *733:37 *761:50 0.0016473
22 *733:37 *798:10 8.94839e-05
23 *733:37 *798:22 0.000725706
24 *733:37 *834:38 0.000112265
25 *733:45 *798:39 0
26 *733:45 *845:8 0
27 *733:45 *845:42 0.000112535
28 *733:45 *851:27 0
29 *733:45 *851:31 0
30 *733:60 *752:61 7.33256e-05
31 *733:60 *752:69 4.77425e-05
32 *733:60 *798:10 0
33 *733:60 *851:25 0
34 *733:66 *735:14 0
35 *733:66 *736:59 0
36 *733:66 *1138:20 0
37 *3175:CLK *733:37 0.000857408
38 *3253:D *733:37 0
39 *3373:A *733:37 0
40 *3621:A *3623:A 0
41 *300:12 *733:37 0.000306952
42 *391:63 *733:60 0
43 *425:18 *733:60 0.000815527
44 *433:14 *733:60 0.000915594
45 *434:14 *733:60 0.00034079
46 *437:14 *733:45 0
47 *478:8 *733:60 0.000177109
48 *478:18 *733:45 7.35141e-05
49 *478:18 *733:60 0
50 *699:89 *733:45 0.000144389
51 *700:20 *733:37 0
52 *724:43 *733:8 0
53 *730:65 *733:60 0.000126358
*RES
1 *3261:Q *733:8 21.9982 
2 *733:8 *733:14 42.8222 
3 *733:14 *2970:B1 20 
4 *733:8 *733:37 32.445 
5 *733:37 *733:45 45.2736 
6 *733:45 *2799:A1 20 
7 *733:37 *733:60 30.5781 
8 *733:60 *733:66 42.9149 
9 *733:66 *3623:A 41.1845 
*END

*D_NET *734 0.0106781
*CONN
*I *3624:A I *D sg13g2_buf_1
*I *2803:A1 I *D sg13g2_a22oi_1
*I *2974:B1 I *D sg13g2_a21oi_1
*I *3263:Q O *D sg13g2_dfrbpq_1
*CAP
1 *3624:A 0.000894196
2 *2803:A1 0
3 *2974:B1 0.000554255
4 *3263:Q 0.000320706
5 *734:44 0.00162471
6 *734:27 0.0020706
7 *734:8 0.00221504
8 *2974:B1 *903:48 0
9 *2974:B1 *958:10 0
10 *3624:A *2795:A2 0
11 *3624:A *2807:A1 0
12 *3624:A *848:21 0
13 *734:8 *2800:A1 0
14 *734:8 *769:31 0
15 *734:8 *772:27 0
16 *734:27 *2795:B1 0
17 *734:27 *769:31 0
18 *734:27 *770:22 0
19 *734:27 *772:27 0
20 *734:27 *799:6 0.000193477
21 *734:27 *799:10 0.00082454
22 *734:27 *840:22 0
23 *734:27 *1085:14 0
24 *734:44 *2795:B1 0
25 *734:44 *2795:A2 0.000403424
26 *734:44 *2803:B1 0.000445382
27 *734:44 *782:22 0.000181608
28 *734:44 *848:21 0.000564681
29 gpio_out[12] *3624:A 0
30 *2977:A *2974:B1 4.78195e-05
31 *3263:CLK *2974:B1 8.0216e-05
32 *3621:A *3624:A 0
33 *3622:A *3624:A 0
34 *72:10 *3624:A 4.79124e-05
35 *434:14 *3624:A 0.000209544
36 *440:10 *734:27 0
37 *440:10 *734:44 0
38 *713:59 *2974:B1 0
39 *725:29 *734:27 0
40 *729:10 *2974:B1 0
41 *729:35 *2974:B1 0
42 *732:37 *734:27 0
*RES
1 *3263:Q *734:8 42.8222 
2 *734:8 *2974:B1 45.0985 
3 *734:8 *734:27 32.9677 
4 *734:27 *2803:A1 20 
5 *734:27 *734:44 48.137 
6 *734:44 *3624:A 27.5911 
*END

*D_NET *735 0.0152358
*CONN
*I *2913:B1 I *D sg13g2_a21oi_1
*I *3625:A I *D sg13g2_buf_1
*I *2807:A1 I *D sg13g2_a22oi_1
*I *3233:Q O *D sg13g2_dfrbpq_1
*CAP
1 *2913:B1 0
2 *3625:A 0.000236521
3 *2807:A1 0.000158371
4 *3233:Q 0.000394581
5 *735:16 0.000394891
6 *735:14 0.00580302
7 *735:12 0.00580302
8 *735:8 0.000394581
9 *2807:A1 *848:90 0.000279469
10 *2807:A1 *871:16 0.000387837
11 *3625:A *737:39 0
12 *3625:A *760:18 0
13 *3625:A *848:90 0.00010525
14 *3625:A *871:16 0.000126047
15 *735:8 *816:36 0.000530891
16 *735:14 *736:59 0
17 *735:14 *741:14 0
18 *735:14 *1138:20 0
19 *2920:B *735:8 0
20 *3621:A *2807:A1 4.77425e-05
21 *3623:A *3625:A 0
22 *3624:A *2807:A1 0
23 *358:14 *735:8 0
24 *522:10 *735:8 0.000498467
25 *731:50 *2807:A1 7.51285e-05
26 *733:66 *735:14 0
*RES
1 *3233:Q *735:8 24.5629 
2 *735:8 *735:12 40 
3 *735:12 *735:14 69.42 
4 *735:14 *735:16 20 
5 *735:16 *2807:A1 42.369 
6 *735:16 *3625:A 42.2145 
7 *735:8 *2913:B1 20 
*END

*D_NET *736 0.0229085
*CONN
*I *2917:B1 I *D sg13g2_a21oi_1
*I *3626:A I *D sg13g2_buf_1
*I *2811:A1 I *D sg13g2_a22oi_1
*I *3235:Q O *D sg13g2_dfrbpq_1
*CAP
1 *2917:B1 0.000119201
2 *3626:A 0
3 *2811:A1 0
4 *3235:Q 0
5 *736:59 0.000715776
6 *736:53 0.0015122
7 *736:45 0.0010437
8 *736:32 0.00480463
9 *736:14 0.00615777
10 *736:4 0.00171962
11 *2917:B1 *816:36 0
12 *2917:B1 *820:16 7.99455e-05
13 *736:14 *737:14 0
14 *736:14 *737:27 0
15 *736:14 *741:8 0
16 *736:14 *816:36 0
17 *736:14 *816:85 0
18 *736:14 *820:16 0
19 *736:14 *820:27 0
20 *736:14 *1121:14 0
21 *736:32 *2778:B1 0
22 *736:32 *2811:B1 4.77425e-05
23 *736:32 *2941:B1 0
24 *736:32 *3098:B1 0
25 *736:32 *3099:C 0.000111596
26 *736:32 *3165:RESET_B 0.000176781
27 *736:32 *3315:RESET_B 0.000273147
28 *736:32 *3452:A 0.00247661
29 *736:32 *816:100 0.000144932
30 *736:32 *830:10 0.000112558
31 *736:32 *872:63 0
32 *736:32 *888:6 0.000161861
33 *736:32 *1121:14 0
34 *736:32 *1121:52 0
35 *736:32 *1130:27 0
36 *736:32 *1130:35 0
37 *736:45 *2811:B1 3.23417e-05
38 *736:45 *1085:14 0
39 *736:45 *1129:56 0
40 *736:53 *770:14 0.000208901
41 *736:53 *770:22 0.000821494
42 *736:53 *782:22 0.000128576
43 *736:53 *848:21 0
44 *736:53 *1130:35 0.000853726
45 *736:59 *1138:20 0
46 *2781:A1 *736:32 3.15744e-05
47 *2781:B1 *736:32 3.15744e-05
48 *2913:A2 *736:14 0.000371184
49 *2920:A *736:14 0
50 *2924:A *736:14 8.02431e-05
51 *2932:A *736:14 0
52 *2941:A2 *736:14 4.78192e-05
53 *2944:A *736:14 4.77425e-05
54 *3082:B1 *736:32 0
55 *3084:A2 *736:32 0
56 *3085:B *736:32 0
57 *3100:A2 *736:32 0
58 *3101:A *736:32 0
59 *3101:B *736:32 0
60 *3165:D *736:32 8.00842e-05
61 *3217:D *736:32 0
62 *3243:CLK *736:14 0
63 *3243:CLK *736:32 0
64 *295:10 *736:14 0
65 *298:12 *736:32 0
66 *422:16 *736:32 0
67 *443:12 *736:59 0.00017865
68 *455:14 *736:32 0
69 *458:10 *736:53 0
70 *458:14 *736:45 0.0003365
71 *478:18 *736:53 0
72 *646:72 *736:32 0
73 *646:74 *736:32 0
74 *646:84 *736:32 0
75 *646:94 *736:32 0
76 *705:59 *736:14 0
77 *725:10 *736:32 0
78 *733:66 *736:59 0
79 *735:14 *736:59 0
*RES
1 *3235:Q *736:4 20 
2 *736:4 *736:14 15.347 
3 *736:14 *736:32 43.9061 
4 *736:32 *2811:A1 20 
5 *736:32 *736:45 42.3999 
6 *736:45 *736:53 48.7035 
7 *736:53 *736:59 47.2409 
8 *736:59 *3626:A 20 
9 *736:4 *2917:B1 21.3493 
*END

*D_NET *737 0.0225281
*CONN
*I *2815:A1 I *D sg13g2_a22oi_1
*I *3627:A I *D sg13g2_buf_1
*I *2921:B1 I *D sg13g2_a21oi_1
*I *3237:Q O *D sg13g2_dfrbpq_1
*CAP
1 *2815:A1 0.000103738
2 *3627:A 0
3 *2921:B1 0
4 *3237:Q 0.000309989
5 *737:39 0.00131909
6 *737:31 0.00142283
7 *737:29 0.0040991
8 *737:27 0.0042549
9 *737:14 0.000465782
10 *2815:A1 *852:94 5.18162e-05
11 *737:14 *816:70 0.00011694
12 *737:14 *816:85 2.14475e-05
13 *737:27 *816:85 7.93989e-05
14 *737:27 *891:65 0
15 *737:29 *741:14 0.0081584
16 *737:39 *2827:A1 8.00842e-05
17 *737:39 *749:22 0
18 *737:39 *770:10 4.71556e-05
19 *737:39 *846:14 0.000402327
20 *737:39 *852:18 0.000952505
21 *737:39 *852:94 0.000284772
22 gpio_out[18] *737:39 0
23 *2924:A *737:14 0
24 *3625:A *737:39 0
25 *422:16 *737:39 0
26 *455:14 *737:39 0
27 *458:10 *737:39 0
28 *530:10 *737:27 0
29 *716:26 *2815:A1 7.32897e-05
30 *716:26 *737:39 0.000284512
31 *736:14 *737:14 0
32 *736:14 *737:27 0
*RES
1 *3237:Q *737:14 23.5123 
2 *737:14 *2921:B1 20 
3 *737:14 *737:27 41.3493 
4 *737:27 *737:29 51.7987 
5 *737:29 *737:31 20 
6 *737:31 *737:39 33.9359 
7 *737:39 *3627:A 20 
8 *737:31 *2815:A1 41.0918 
*END

*D_NET *738 0.000947075
*CONN
*I *2747:B2 I *D sg13g2_a22oi_1
*I *3534:X O *D sg13g2_buf_1
*CAP
1 *2747:B2 0
2 *3534:X 0.000356406
3 *738:10 0.000356406
4 *738:10 *860:12 0
5 *738:10 *893:8 0
6 *249:8 *738:10 0
7 *397:16 *738:10 0.000234263
8 *715:10 *738:10 0
*RES
1 *3534:X *738:10 43.9758 
2 *738:10 *2747:B2 40 
*END

*D_NET *739 0.0231261
*CONN
*I *3628:A I *D sg13g2_buf_1
*I *2819:A1 I *D sg13g2_a22oi_1
*I *2925:B1 I *D sg13g2_a21oi_1
*I *3239:Q O *D sg13g2_dfrbpq_1
*CAP
1 *3628:A 0
2 *2819:A1 0
3 *2925:B1 0.000162726
4 *3239:Q 0.000414921
5 *739:52 0.00082076
6 *739:37 0.000882106
7 *739:31 0.00815501
8 *739:29 0.00809366
9 *739:14 0.000577648
10 *2925:B1 *3598:A 4.77425e-05
11 *2925:B1 *1051:10 0.000337417
12 *739:14 *2919:B1 7.92265e-05
13 *739:14 *1060:18 0
14 *739:14 *1079:18 0.000304379
15 *739:31 *742:23 0
16 *739:31 *888:55 0.0006617
17 *739:31 *891:81 0.000352071
18 *739:37 *2843:B1 0.000286639
19 *739:37 *848:90 0.00028542
20 *739:52 *3633:A 0
21 *739:52 *741:35 0
22 *739:52 *743:37 0
23 *739:52 *749:22 0.000399432
24 *739:52 *882:18 0
25 gpio_out[16] *739:52 0.00011254
26 gpio_out[17] *739:52 1.54008e-05
27 gpio_out[18] *739:52 0
28 *2919:A2 *739:14 0
29 *356:30 *739:31 0.000520728
30 *527:10 *2925:B1 0.000337243
31 *527:10 *739:14 0.000279309
32 *727:14 *739:52 0
*RES
1 *3239:Q *739:14 44.3054 
2 *739:14 *2925:B1 42.472 
3 *739:14 *739:29 20 
4 *739:29 *739:31 74.5102 
5 *739:31 *739:37 41.339 
6 *739:37 *2819:A1 20 
7 *739:37 *739:52 47.6941 
8 *739:52 *3628:A 20 
*END

*D_NET *740 0.0240114
*CONN
*I *2747:A1 I *D sg13g2_a22oi_1
*I *3629:A I *D sg13g2_buf_1
*I *2983:B1 I *D sg13g2_a21oi_1
*I *3267:Q O *D sg13g2_dfrbpq_1
*CAP
1 *2747:A1 2.60565e-05
2 *3629:A 0
3 *2983:B1 0
4 *3267:Q 0.000268056
5 *740:41 0.00143605
6 *740:33 0.00165595
7 *740:27 0.000375027
8 *740:23 0.00348951
9 *740:21 0.00337397
10 *740:10 0.000281582
11 *2747:A1 *2747:B1 4.77425e-05
12 *2747:A1 *912:16 4.77425e-05
13 *740:10 *818:43 0.000178046
14 *740:21 *818:43 7.40536e-05
15 *740:23 *756:32 0
16 *740:23 *756:51 0
17 *740:23 *833:83 0
18 *740:23 *1125:23 0.00539133
19 *740:27 *2747:A2 0
20 *740:33 *756:51 0
21 *740:41 *957:8 2.25618e-05
22 *3269:CLK *740:10 0
23 *42:13 *740:41 0.000614944
24 *65:9 *740:41 0.000723142
25 *397:16 *740:27 0.00033636
26 *399:14 *740:23 0
27 *571:70 *740:10 0.000125014
28 *571:70 *740:21 5.27974e-05
29 *575:10 *740:10 0
30 *578:8 *740:10 0
31 *721:28 *740:10 0
32 *728:23 *740:23 0.00529393
33 *728:42 *740:23 0.000197524
*RES
1 *3267:Q *740:10 42.8943 
2 *740:10 *2983:B1 40 
3 *740:10 *740:21 20.3502 
4 *740:21 *740:23 42.7141 
5 *740:23 *740:27 21.5862 
6 *740:27 *740:33 42.4823 
7 *740:33 *740:41 35.6045 
8 *740:41 *3629:A 20 
9 *740:27 *2747:A1 40.3193 
*END

*D_NET *741 0.0203325
*CONN
*I *2929:B1 I *D sg13g2_a21oi_1
*I *3630:A I *D sg13g2_buf_1
*I *2823:A1 I *D sg13g2_a22oi_1
*I *3241:Q O *D sg13g2_dfrbpq_1
*CAP
1 *2929:B1 6.19958e-05
2 *3630:A 0
3 *2823:A1 0
4 *3241:Q 0.000131394
5 *741:35 0.000411402
6 *741:22 6.91823e-05
7 *741:14 0.00558822
8 *741:12 0.00526149
9 *741:8 0.00034724
10 *741:8 *816:51 0
11 *741:12 *883:85 0
12 *741:14 *742:23 0
13 *741:14 *1138:20 0
14 *741:22 *3631:A 8.00842e-05
15 *741:22 *749:22 0
16 *741:22 *848:90 7.34424e-05
17 *741:22 *871:16 7.34424e-05
18 *741:35 *1138:20 0
19 *2932:A *741:8 0
20 *78:8 *741:35 7.62389e-05
21 *735:14 *741:14 0
22 *736:14 *741:8 0
23 *737:29 *741:14 0.0081584
24 *739:52 *741:35 0
*RES
1 *3241:Q *741:8 41.4008 
2 *741:8 *741:12 21.339 
3 *741:12 *741:14 64.993 
4 *741:14 *741:22 40.8858 
5 *741:22 *2823:A1 20 
6 *741:14 *741:35 44.4393 
7 *741:35 *3630:A 20 
8 *741:8 *2929:B1 40.5974 
*END

*D_NET *742 0.0181177
*CONN
*I *3631:A I *D sg13g2_buf_1
*I *2827:A1 I *D sg13g2_a22oi_1
*I *2933:B1 I *D sg13g2_a21oi_1
*I *3243:Q O *D sg13g2_dfrbpq_1
*CAP
1 *3631:A 0.000546012
2 *2827:A1 0.000232763
3 *2933:B1 6.84453e-05
4 *3243:Q 5.32706e-05
5 *742:27 0.00093424
6 *742:23 0.00520758
7 *742:21 0.00513173
8 *742:8 0.000201331
9 *2827:A1 *2827:B1 0.000283361
10 *2827:A1 *760:18 0
11 *2827:A1 *804:18 0
12 *2827:A1 *846:77 0.000104676
13 *3631:A *3633:A 0
14 *3631:A *749:22 0
15 *742:23 *744:23 0.00183011
16 *742:27 *2843:B1 0.000159774
17 *742:27 *804:18 0
18 *742:27 *846:77 0.000234239
19 gpio_out[21] *3631:A 6.92524e-05
20 gpio_out[22] *3631:A 4.75265e-05
21 *3247:CLK *742:21 0
22 *356:22 *2933:B1 0
23 *361:12 *742:23 0.00268553
24 *361:51 *742:23 0.000167746
25 *458:10 *2827:A1 0
26 *521:100 *742:21 0
27 *727:14 *3631:A 0
28 *737:39 *2827:A1 8.00842e-05
29 *739:31 *742:23 0
30 *741:14 *742:23 0
31 *741:22 *3631:A 8.00842e-05
*RES
1 *3243:Q *742:8 40.5974 
2 *742:8 *2933:B1 40.7519 
3 *742:8 *742:21 20.8446 
4 *742:21 *742:23 55.6921 
5 *742:23 *742:27 21.8334 
6 *742:27 *2827:A1 42.369 
7 *742:27 *3631:A 45.1191 
*END

*D_NET *743 0.021694
*CONN
*I *2831:A1 I *D sg13g2_a22oi_1
*I *3632:A I *D sg13g2_buf_1
*I *2937:B1 I *D sg13g2_a21oi_1
*I *3245:Q O *D sg13g2_dfrbpq_1
*CAP
1 *2831:A1 0
2 *3632:A 0
3 *2937:B1 0
4 *3245:Q 4.72978e-05
5 *743:37 0.000805847
6 *743:29 0.00231756
7 *743:21 0.00620088
8 *743:14 0.000834469
9 *743:6 0.00557093
10 *743:14 *2937:A1 0
11 *743:14 *873:80 0
12 *743:14 *1141:27 0
13 *743:14 *1141:33 0
14 *743:21 *2784:A2 0
15 *743:21 *3470:A 0
16 *743:21 *754:16 0
17 *743:21 *754:31 0
18 *743:21 *814:31 0.0014044
19 *743:21 *843:62 0.000434769
20 *743:21 *873:80 0
21 *743:21 *896:10 0
22 *743:21 *908:10 0
23 *743:21 *908:16 0
24 *743:21 *908:22 0.000856255
25 *743:21 *1141:33 0
26 *743:29 *2831:A2 0
27 *743:29 *3191:RESET_B 0.000338113
28 *743:29 *751:54 0
29 *743:29 *754:46 0.000231654
30 *743:29 *843:62 0
31 *743:37 *754:46 0.00027377
32 *743:37 *882:18 0
33 gpio_dir[5] *743:37 0
34 *2817:A1 *743:21 0.000112548
35 *2817:B1 *743:21 3.1684e-05
36 *3167:CLK *743:21 0
37 *3183:D *743:21 2.07576e-06
38 *3247:CLK *743:14 0
39 *15:10 *743:37 4.78028e-05
40 *30:12 *743:37 0
41 *85:8 *743:37 0.000392122
42 *449:14 *743:21 0
43 *540:8 *743:14 0
44 *708:19 *743:14 0
45 *713:80 *743:21 0
46 *720:53 *743:29 0
47 *721:77 *743:21 0
48 *721:77 *743:29 0.00179182
49 *722:72 *743:21 0
50 *723:102 *743:29 0
51 *739:52 *743:37 0
*RES
1 *3245:Q *743:6 20.5974 
2 *743:6 *743:14 47.9928 
3 *743:14 *2937:B1 20 
4 *743:6 *743:21 44.2282 
5 *743:21 *743:29 34.9247 
6 *743:29 *743:37 48.1164 
7 *743:37 *3632:A 40 
8 *743:21 *2831:A1 20 
*END

*D_NET *744 0.0194047
*CONN
*I *3633:A I *D sg13g2_buf_1
*I *2835:A1 I *D sg13g2_a22oi_1
*I *2941:B1 I *D sg13g2_a21oi_1
*I *3247:Q O *D sg13g2_dfrbpq_1
*CAP
1 *3633:A 0.00109796
2 *2835:A1 0
3 *2941:B1 0.000680054
4 *3247:Q 0
5 *744:47 7.9439e-05
6 *744:41 0.00416304
7 *744:33 0.00406604
8 *744:23 0.00203204
9 *744:6 0.0016317
10 *2941:B1 *816:100 0
11 *3633:A *2839:A2 1.54008e-05
12 *3633:A *3634:A 0
13 *3633:A *793:14 0
14 *744:33 *3107:C 8.00842e-05
15 *744:33 *814:75 0
16 *744:33 *872:44 0
17 *744:33 *872:63 0.000497352
18 *744:41 *2780:A2 0
19 *744:41 *2839:A2 4.77425e-05
20 *744:41 *3106:A1 0
21 *744:41 *3106:B1 0
22 *744:41 *3177:RESET_B 0
23 *744:41 *800:18 0
24 *744:41 *814:75 0.000240174
25 *744:41 *824:30 0
26 *744:41 *854:30 0
27 *744:41 *1130:27 0
28 *744:41 *1132:46 0
29 *744:47 *2839:A2 0.000393081
30 *744:47 *846:44 0.000393081
31 gpio_out[25] *3633:A 4.77425e-05
32 gpio_out[26] *3633:A 0.000207909
33 *2936:A *2941:B1 0
34 *3082:B1 *744:41 0
35 *3108:A2 *744:33 0.000176426
36 *3108:A2 *744:41 2.17231e-05
37 *3165:CLK *744:41 0
38 *3247:CLK *2941:B1 0
39 *3247:CLK *744:23 0
40 *3315:CLK *744:41 0
41 *3323:D *744:41 0
42 *3631:A *3633:A 0
43 *3:38 *744:33 0
44 *356:38 *744:33 0
45 *452:10 *3633:A 0
46 *452:10 *744:41 0
47 *452:20 *744:41 0.0014957
48 *455:14 *744:41 0
49 *467:8 *744:41 0
50 *654:10 *744:33 0.000207854
51 *726:10 *744:41 0
52 *736:32 *2941:B1 0
53 *739:52 *3633:A 0
54 *742:23 *744:23 0.00183011
*RES
1 *3247:Q *744:6 40 
2 *744:6 *2941:B1 46.2624 
3 *744:6 *744:23 32.1643 
4 *744:23 *744:33 49.8571 
5 *744:33 *744:41 28.4074 
6 *744:41 *744:47 41.8334 
7 *744:47 *2835:A1 20 
8 *744:41 *3633:A 29.8365 
*END

*D_NET *745 0.0127289
*CONN
*I *2880:B1 I *D sg13g2_a21oi_1
*I *3634:A I *D sg13g2_buf_1
*I *2839:A1 I *D sg13g2_a22oi_1
*I *3217:Q O *D sg13g2_dfrbpq_1
*CAP
1 *2880:B1 0.000107243
2 *3634:A 0.0012447
3 *2839:A1 0
4 *3217:Q 0
5 *745:18 0.0012898
6 *745:12 0.00410697
7 *745:10 0.00436793
8 *745:4 0.000413295
9 *3634:A *2843:A1 8.87962e-05
10 *3634:A *3197:RESET_B 0
11 *3634:A *3635:A 0
12 *3634:A *3636:A 0.000144593
13 *3634:A *793:14 0
14 *745:12 *888:55 0.000662208
15 *745:18 *846:44 2.14736e-05
16 gpio_out[26] *3634:A 0
17 gpio_out[28] *3634:A 0
18 *3633:A *3634:A 0
19 *84:10 *3634:A 4.77425e-05
20 *425:18 *3634:A 0
21 *425:28 *3634:A 0
22 *460:16 *745:18 0
23 *464:12 *745:18 0
24 *470:10 *3634:A 0
25 *496:50 *2880:B1 0
26 *497:8 *745:10 0.000234162
27 *499:8 *745:10 0
*RES
1 *3217:Q *745:4 20 
2 *745:4 *745:10 43.5638 
3 *745:10 *745:12 39.4696 
4 *745:12 *745:18 40.3502 
5 *745:18 *2839:A1 20 
6 *745:18 *3634:A 31.4995 
7 *745:4 *2880:B1 21.133 
*END

*D_NET *746 0.0160556
*CONN
*I *3635:A I *D sg13g2_buf_1
*I *2843:A1 I *D sg13g2_a22oi_1
*I *2884:B1 I *D sg13g2_a21oi_1
*I *3219:Q O *D sg13g2_dfrbpq_1
*CAP
1 *3635:A 0.000449539
2 *2843:A1 0.000199765
3 *2884:B1 0.000273102
4 *3219:Q 0.000353793
5 *746:27 0.00125725
6 *746:23 0.00372223
7 *746:10 0.00338738
8 *746:8 0.000353793
9 *2843:A1 *848:90 7.34808e-05
10 *2843:A1 *871:16 0.000339657
11 *2884:B1 *3219:RESET_B 0
12 *2884:B1 *822:108 0
13 *2884:B1 *824:18 0
14 *3635:A *3638:A 1.53311e-05
15 *3635:A *753:43 0
16 *3635:A *853:35 0
17 *746:8 *797:33 0
18 *746:8 *798:24 0.000872356
19 *746:23 *2814:A1 1.54008e-05
20 *746:23 *2856:A2 0
21 *746:23 *2896:B1 0
22 *746:23 *3219:RESET_B 0
23 *746:23 *750:20 0
24 *746:23 *767:8 0
25 *746:23 *822:108 0
26 *746:23 *837:29 0
27 *746:23 *837:40 0
28 *746:23 *837:93 0
29 *746:23 *843:20 0
30 *746:23 *1141:33 0
31 *746:27 *750:31 0
32 *746:27 *848:98 0
33 *746:27 *871:16 0.000333344
34 gpio_out[28] *3635:A 0
35 gpio_out[30] *3635:A 0
36 *3219:D *2884:B1 0
37 *3219:CLK *746:23 0
38 *3528:A *746:23 0
39 *3616:A *746:23 0
40 *3634:A *2843:A1 8.87962e-05
41 *3634:A *3635:A 0
42 *87:10 *3635:A 4.76665e-05
43 *448:10 *746:23 0
44 *450:10 *746:23 0.000370455
45 *473:14 *746:27 0.00170632
46 *726:44 *746:23 0.00156693
47 *726:52 *746:23 0.000629019
*RES
1 *3219:Q *746:8 44.0582 
2 *746:8 *746:10 20 
3 *746:10 *2884:B1 22.4823 
4 *746:10 *746:23 30.2511 
5 *746:23 *746:27 28.2606 
6 *746:27 *2843:A1 42.678 
7 *746:27 *3635:A 44.1509 
*END

*D_NET *747 0.015207
*CONN
*I *2847:A1 I *D sg13g2_a22oi_1
*I *3636:A I *D sg13g2_buf_1
*I *2888:B1 I *D sg13g2_a21oi_1
*I *3221:Q O *D sg13g2_dfrbpq_1
*CAP
1 *2847:A1 0.000165541
2 *3636:A 0.000330887
3 *2888:B1 0.000121313
4 *3221:Q 0.000655953
5 *747:46 0.000549524
6 *747:42 0.00350847
7 *747:36 0.00345538
8 *747:32 0.000937212
9 *747:28 0.00134715
10 *747:8 0.000367327
11 *2847:A1 *3637:A 0.000110829
12 *2888:B1 *822:16 0.000209807
13 *3636:A *3638:A 0
14 *3636:A *750:31 0.000232119
15 *3636:A *815:14 0
16 *3636:A *827:22 2.14736e-05
17 *3636:A *871:16 0
18 *747:8 *814:12 0
19 *747:28 *2882:A1 0
20 *747:28 *748:8 0.000447685
21 *747:28 *814:31 4.73078e-05
22 *747:28 *1141:33 4.73078e-05
23 *747:32 *2892:A1 0.000597829
24 *747:32 *748:31 0.00156761
25 *747:42 *848:90 0.000183722
26 *747:42 *1125:48 0
27 *747:46 *750:31 0.000126376
28 *747:46 *871:16 0
29 *2908:A2 *747:32 0
30 *3634:A *3636:A 0.000144593
31 *473:8 *2847:A1 3.15716e-05
32 *496:50 *747:28 0
33 *498:10 *747:28 0
34 *499:8 *747:28 0
35 *508:10 *747:8 0
36 *697:167 *747:32 0
37 *697:180 *747:32 0
38 *697:188 *2888:B1 0
39 *710:49 *747:32 0
40 *710:60 *747:32 0
*RES
1 *3221:Q *747:8 42.575 
2 *747:8 *2888:B1 41.4008 
3 *3221:Q *747:28 44.8719 
4 *747:28 *747:32 30.4854 
5 *747:32 *747:36 40 
6 *747:36 *747:42 39.5211 
7 *747:42 *747:46 20.5974 
8 *747:46 *3636:A 43.0488 
9 *747:46 *2847:A1 41.4266 
*END

*D_NET *748 0.018248
*CONN
*I *3637:A I *D sg13g2_buf_1
*I *2851:A1 I *D sg13g2_a22oi_1
*I *2892:B1 I *D sg13g2_a21oi_1
*I *3223:Q O *D sg13g2_dfrbpq_1
*CAP
1 *3637:A 0.000727532
2 *2851:A1 0
3 *2892:B1 0.000284457
4 *3223:Q 0.000166388
5 *748:39 0.000818737
6 *748:31 0.00478004
7 *748:10 0.0049733
8 *748:8 0.000166388
9 *2892:B1 *2892:A1 0
10 *2892:B1 *861:59 0
11 *3637:A *2847:B1 9.63331e-05
12 *3637:A *2851:B1 0.000248665
13 *3637:A *2863:A2 4.77425e-05
14 *3637:A *3197:RESET_B 0.000218116
15 *3637:A *753:28 0
16 *3637:A *753:43 7.99451e-05
17 *3637:A *848:98 0
18 *748:8 *898:59 0
19 *748:31 *2782:B1 0
20 *748:31 *2892:A1 0
21 *748:31 *3086:A1 0
22 *748:31 *3231:RESET_B 0
23 *748:31 *3317:RESET_B 0
24 *748:31 *3327:RESET_B 0.000358582
25 *748:31 *753:18 0
26 *748:31 *753:28 0
27 *748:31 *773:8 0
28 *748:31 *822:54 0
29 *748:31 *861:59 0
30 *748:31 *907:12 0.000496821
31 *748:31 *1126:18 1.54008e-05
32 *748:31 *1126:29 0
33 *748:31 *1132:31 0
34 *748:39 *3197:RESET_B 8.00842e-05
35 gpio_dir[0] *3637:A 0.000127255
36 gpio_out[30] *3637:A 0.000207741
37 *2785:A1 *748:31 0.000240669
38 *2785:A2 *748:31 0
39 *2845:B1 *748:31 0
40 *2847:A1 *3637:A 0.000110829
41 *2883:A *748:31 0.000240502
42 *3109:A *748:31 0
43 *3223:CLK *2892:B1 0
44 *3223:CLK *748:31 0
45 *3317:D *748:31 0
46 *3323:CLK *748:31 2.45653e-05
47 *273:14 *748:31 7.97732e-05
48 *391:63 *748:39 0.000179006
49 *425:18 *748:39 1.54008e-05
50 *425:28 *748:31 0.00126942
51 *478:18 *748:39 0.000179006
52 *508:10 *748:8 0
53 *646:94 *748:31 0
54 *710:60 *748:31 0
55 *710:83 *748:31 0
56 *747:28 *748:8 0.000447685
57 *747:32 *748:31 0.00156761
*RES
1 *3223:Q *748:8 42.3278 
2 *748:8 *748:10 20 
3 *748:10 *2892:B1 22.4823 
4 *748:10 *748:31 46.8203 
5 *748:31 *748:39 41.3802 
6 *748:39 *2851:A1 20 
7 *748:39 *3637:A 28.1381 
*END

*D_NET *749 0.00843526
*CONN
*I *2823:B2 I *D sg13g2_a22oi_1
*I *3535:X O *D sg13g2_buf_1
*CAP
1 *2823:B2 0
2 *3535:X 0.000655831
3 *749:22 0.00108126
4 *749:12 0.00173709
5 *749:12 *755:62 0.000184219
6 *749:12 *771:8 0.000236771
7 *749:12 *782:10 0.000933865
8 *749:12 *882:18 0
9 *749:12 *957:8 0
10 *749:12 *957:20 0.00110071
11 *749:22 *852:18 4.77425e-05
12 *749:22 *882:18 0.00205833
13 *749:22 *957:20 0
14 gpio_out[20] *749:22 0
15 *3631:A *749:22 0
16 *74:8 *749:22 0
17 *727:14 *749:12 0
18 *737:39 *749:22 0
19 *739:52 *749:22 0.000399432
20 *741:22 *749:22 0
*RES
1 *3535:X *749:12 49.3936 
2 *749:12 *749:22 33.081 
3 *749:22 *2823:B2 20 
*END

*D_NET *750 0.0126712
*CONN
*I *2896:B1 I *D sg13g2_a21oi_1
*I *3638:A I *D sg13g2_buf_1
*I *2855:A1 I *D sg13g2_a22oi_1
*I *3225:Q O *D sg13g2_dfrbpq_1
*CAP
1 *2896:B1 0.00042551
2 *3638:A 8.2592e-05
3 *2855:A1 0
4 *3225:Q 0.000148849
5 *750:31 0.00121164
6 *750:20 0.0035376
7 *750:10 0.00283406
8 *750:8 0.000148849
9 *2896:B1 *1130:66 0
10 *750:8 *768:12 0
11 *750:8 *769:31 0
12 *750:20 *2816:A1 0
13 *750:20 *2855:B1 4.77425e-05
14 *750:20 *837:93 0.000305141
15 *750:20 *854:24 0
16 *750:20 *1130:66 0
17 *750:20 *1135:52 0.00020984
18 *750:31 *2855:B1 4.77425e-05
19 *750:31 *2856:A1 0.000338872
20 *750:31 *2856:A2 0.000144783
21 *750:31 *753:43 0.000393075
22 *750:31 *754:46 0
23 *750:31 *815:14 0.000126146
24 *750:31 *848:98 0
25 *750:31 *854:59 0.00128883
26 *750:31 *882:18 0
27 *3183:CLK *750:20 0.000467757
28 *3219:CLK *2896:B1 0
29 *3635:A *3638:A 1.53311e-05
30 *3636:A *3638:A 0
31 *3636:A *750:31 0.000232119
32 *473:14 *750:31 0
33 *703:36 *750:20 3.85294e-05
34 *703:51 *750:20 0.000177203
35 *703:51 *750:31 0.000322581
36 *746:23 *2896:B1 0
37 *746:23 *750:20 0
38 *746:27 *750:31 0
39 *747:46 *750:31 0.000126376
*RES
1 *3225:Q *750:8 41.5862 
2 *750:8 *750:10 20 
3 *750:10 *750:20 21.4926 
4 *750:20 *2855:A1 20 
5 *750:20 *750:31 33.5548 
6 *750:31 *3638:A 40.7519 
7 *750:10 *2896:B1 23.8934 
*END

*D_NET *751 0.0161326
*CONN
*I *3639:A I *D sg13g2_buf_1
*I *2859:A1 I *D sg13g2_a22oi_1
*I *2900:B1 I *D sg13g2_a21oi_1
*I *3227:Q O *D sg13g2_dfrbpq_1
*CAP
1 *3639:A 0.000165985
2 *2859:A1 0
3 *2900:B1 0.000306809
4 *3227:Q 0.000403022
5 *751:54 0.00193198
6 *751:39 0.0025045
7 *751:29 0.002534
8 *751:10 0.00250533
9 *2900:B1 *2900:A1 0
10 *2900:B1 *800:22 0.000502289
11 *2900:B1 *1134:27 0
12 *3639:A *754:46 0
13 *751:10 *800:22 0.00119082
14 *751:29 *2806:B1 0.000241716
15 *751:29 *2812:B1 3.1684e-05
16 *751:29 *2812:A2 0.000112506
17 *751:29 *2838:A1 0.00027443
18 *751:29 *2838:B1 0.000241979
19 *751:29 *3181:RESET_B 0
20 *751:29 *831:75 6.48152e-05
21 *751:29 *841:68 0
22 *751:29 *1133:45 0
23 *751:39 *2859:B1 0
24 *751:39 *3207:RESET_B 0
25 *751:39 *1131:31 0.000704039
26 *751:39 *1133:45 0
27 *751:54 *2859:B1 4.77425e-05
28 *751:54 *3207:RESET_B 0
29 *751:54 *753:43 0
30 *751:54 *854:59 0
31 *751:54 *882:18 0.000399098
32 *751:54 *907:99 0
33 *751:54 *1133:59 0
34 gpio_dir[0] *3639:A 0
35 *2809:A1 *751:29 0
36 *2841:A1 *751:39 0
37 *2861:A2 *751:54 0.000499871
38 *2865:B1 *751:54 0.0002095
39 *2903:A *2900:B1 0
40 *3181:CLK *751:29 0
41 *3195:D *751:29 0
42 *3207:D *751:54 0
43 *3225:D *751:29 0
44 *3227:D *2900:B1 0
45 *3354:A *751:29 0
46 *8:10 *751:54 0.000611498
47 *31:8 *751:54 0
48 *89:10 *3639:A 0
49 *92:10 *3639:A 0
50 *388:14 *751:29 0
51 *392:12 *751:39 0.000392316
52 *466:10 *751:39 0
53 *467:16 *751:39 7.50805e-05
54 *468:8 *751:39 0.000181608
55 *512:8 *2900:B1 0
56 *697:264 *751:29 0
57 *697:268 *751:29 0
58 *722:82 *751:54 0
59 *743:29 *751:54 0
*RES
1 *3227:Q *751:10 45.8607 
2 *751:10 *2900:B1 44.1612 
3 *751:10 *751:29 36.4221 
4 *751:29 *751:39 48.1267 
5 *751:39 *2859:A1 20 
6 *751:39 *751:54 37.8087 
7 *751:54 *3639:A 41.4008 
*END

*D_NET *752 0.0219733
*CONN
*I *3640:A I *D sg13g2_buf_1
*I *2751:A1 I *D sg13g2_a22oi_1
*I *2987:B1 I *D sg13g2_a21oi_1
*I *3269:Q O *D sg13g2_dfrbpq_1
*CAP
1 *3640:A 0.000330695
2 *2751:A1 0
3 *2987:B1 0.00024863
4 *3269:Q 0.000860049
5 *752:69 0.000671995
6 *752:61 0.00181043
7 *752:50 0.00156891
8 *752:44 0.000576304
9 *752:34 0.00326386
10 *752:24 0.00339875
11 *2987:B1 *818:43 0
12 *2987:B1 *909:38 0
13 *3640:A *2775:A2 0
14 *3640:A *2854:A1 0
15 *3640:A *2858:A1 0.000177109
16 *3640:A *2858:B1 0.000144768
17 *3640:A *851:82 0
18 *3640:A *957:20 0
19 *752:24 *807:76 0
20 *752:24 *807:84 0
21 *752:24 *909:38 0.000630531
22 *752:34 *2744:A1 0.000117754
23 *752:34 *2786:A1 2.07911e-05
24 *752:34 *2786:A2 0
25 *752:34 *3169:RESET_B 0
26 *752:34 *790:26 0
27 *752:34 *790:34 0.00228067
28 *752:34 *807:84 8.00842e-05
29 *752:34 *833:58 0
30 *752:34 *839:44 0
31 *752:34 *901:14 0
32 *752:34 *901:42 0
33 *752:34 *903:8 0.000216466
34 *752:34 *903:14 0.000955156
35 *752:34 *1137:50 0
36 *752:44 *2743:A2 0
37 *752:44 *2744:A2 4.76053e-05
38 *752:44 *756:32 5.69261e-05
39 *752:44 *839:93 0
40 *752:44 *850:36 0
41 *752:44 *901:121 0
42 *752:44 *909:10 4.74163e-05
43 *752:50 *2743:A2 0.000144937
44 *752:61 *2751:B1 1.54008e-05
45 *752:61 *828:57 0.000128112
46 *752:61 *844:28 0
47 *752:61 *844:30 0
48 *752:61 *844:32 0
49 *752:61 *844:36 0
50 *752:61 *850:30 0
51 *752:61 *850:34 0
52 *752:61 *1105:18 0.000391571
53 *752:69 *761:50 0.000177032
54 *752:69 *804:18 0.000490114
55 *752:69 *848:43 0
56 *2960:A2 *752:34 0
57 *2961:B *752:34 0
58 *3255:D *752:34 0
59 *360:49 *752:24 0.000389923
60 *407:14 *752:44 0.000499506
61 *407:14 *752:50 0.000177279
62 *407:14 *752:61 4.77425e-05
63 *415:8 *752:61 0
64 *416:10 *752:61 0
65 *433:14 *752:61 0.00170898
66 *478:8 *752:69 0
67 *481:12 *752:69 0
68 *660:8 *752:24 0
69 *721:28 *2987:B1 0
70 *721:28 *752:24 0
71 *721:34 *752:24 0.000176713
72 *730:65 *752:61 0
73 *730:65 *752:69 0
74 *733:60 *752:61 7.33256e-05
75 *733:60 *752:69 4.77425e-05
*RES
1 *3269:Q *2987:B1 42.4617 
2 *3269:Q *752:24 46.7877 
3 *752:24 *752:34 47.9439 
4 *752:34 *752:44 44.6659 
5 *752:44 *752:50 41.1845 
6 *752:50 *2751:A1 20 
7 *752:50 *752:61 35.5015 
8 *752:61 *752:69 43.5123 
9 *752:69 *3640:A 43.2651 
*END

*D_NET *753 0.015668
*CONN
*I *2904:B1 I *D sg13g2_a21oi_1
*I *3641:A I *D sg13g2_buf_1
*I *2863:A1 I *D sg13g2_a22oi_1
*I *3229:Q O *D sg13g2_dfrbpq_1
*CAP
1 *2904:B1 0.000483186
2 *3641:A 0
3 *2863:A1 0
4 *3229:Q 0
5 *753:43 0.000335908
6 *753:28 0.00196774
7 *753:18 0.00424669
8 *753:6 0.00309804
9 *2904:B1 *766:55 0
10 *2904:B1 *824:18 0.000338503
11 *753:18 *2782:B1 0.000597308
12 *753:18 *754:31 0
13 *753:18 *766:49 0
14 *753:18 *773:8 0.000111054
15 *753:18 *1126:29 0.00198853
16 *753:18 *1126:37 0.000112061
17 *753:18 *1126:52 0.000790526
18 *753:28 *2844:B1 0
19 *753:28 *2844:A1 0
20 *753:28 *2844:A2 0
21 *753:28 *3197:RESET_B 0
22 *753:28 *754:31 0
23 *753:28 *847:8 1.54008e-05
24 *753:28 *847:14 4.77425e-05
25 *753:28 *847:22 8.00842e-05
26 *753:28 *907:25 0
27 *753:28 *1126:52 0
28 *753:43 *847:8 0.000209374
29 *753:43 *848:98 0.000111658
30 *753:43 *882:18 0
31 *2845:B1 *753:28 0.000274567
32 *3229:CLK *2904:B1 0.000273819
33 *3635:A *753:43 0
34 *3637:A *753:28 0
35 *3637:A *753:43 7.99451e-05
36 *485:8 *753:43 0
37 *703:44 *753:28 0.000112799
38 *710:60 *753:18 0
39 *710:68 *753:18 0
40 *748:31 *753:18 0
41 *748:31 *753:28 0
42 *750:31 *753:43 0.000393075
43 *751:54 *753:43 0
*RES
1 *3229:Q *753:6 40 
2 *753:6 *753:18 47.398 
3 *753:18 *753:28 14.0254 
4 *753:28 *2863:A1 20 
5 *753:28 *753:43 43.9861 
6 *753:43 *3641:A 20 
7 *753:6 *2904:B1 45.0882 
*END

*D_NET *754 0.0149944
*CONN
*I *3642:A I *D sg13g2_buf_1
*I *2867:A1 I *D sg13g2_a22oi_1
*I *2908:B1 I *D sg13g2_a21oi_1
*I *3231:Q O *D sg13g2_dfrbpq_1
*CAP
1 *3642:A 0
2 *2867:A1 0
3 *2908:B1 0
4 *3231:Q 2.77263e-05
5 *754:46 0.000525392
6 *754:31 0.00499348
7 *754:16 0.000402451
8 *754:6 0.00489826
9 *754:16 *872:63 0.000499887
10 *754:16 *873:80 0.000306227
11 *754:16 *888:61 0
12 *754:31 *2782:A2 0.000597203
13 *754:31 *2784:B1 0
14 *754:31 *2784:A2 0
15 *754:31 *2842:B1 0.000274491
16 *754:31 *2844:B1 0
17 *754:31 *2844:A1 0
18 *754:31 *2867:B1 4.77425e-05
19 *754:31 *843:45 0
20 *754:31 *873:80 0.000417988
21 *754:31 *908:16 0
22 *754:31 *1126:37 0
23 *754:31 *1126:52 0
24 *754:31 *1130:48 0.000435845
25 *754:46 *3420:A 4.77425e-05
26 *754:46 *848:98 0
27 *754:46 *854:59 7.33256e-05
28 *754:46 *882:18 0
29 *2833:B1 *754:31 6.39133e-05
30 *3191:D *754:31 0
31 *3317:CLK *754:31 7.53965e-05
32 *3639:A *754:46 0
33 *92:10 *754:46 0
34 *270:10 *754:31 7.92741e-05
35 *426:10 *754:31 0.000338872
36 *460:16 *754:31 0.000175709
37 *703:44 *754:31 0
38 *710:49 *754:16 4.78195e-05
39 *710:60 *754:31 0
40 *710:68 *754:31 0
41 *717:46 *754:31 0.000112437
42 *717:46 *754:46 4.77425e-05
43 *725:46 *754:31 0
44 *743:21 *754:16 0
45 *743:21 *754:31 0
46 *743:29 *754:46 0.000231654
47 *743:37 *754:46 0.00027377
48 *750:31 *754:46 0
49 *753:18 *754:31 0
50 *753:28 *754:31 0
*RES
1 *3231:Q *754:6 20.3502 
2 *754:6 *754:16 44.6968 
3 *754:16 *2908:B1 20 
4 *754:6 *754:31 42.9098 
5 *754:31 *2867:A1 20 
6 *754:31 *754:46 45.2221 
7 *754:46 *3642:A 20 
*END

*D_NET *755 0.0234825
*CONN
*I *3643:A I *D sg13g2_buf_1
*I *2755:A1 I *D sg13g2_a22oi_1
*I *2991:B1 I *D sg13g2_a21oi_1
*I *3271:Q O *D sg13g2_dfrbpq_1
*CAP
1 *3643:A 9.35639e-05
2 *2755:A1 2.77263e-05
3 *2991:B1 0.000149293
4 *3271:Q 0.000350445
5 *755:62 0.000222937
6 *755:54 0.00125518
7 *755:35 0.0024633
8 *755:29 0.00148448
9 *755:23 0.00364019
10 *755:21 0.00346547
11 *755:8 0.000499738
12 *2991:B1 *818:10 0.000212127
13 *2991:B1 *818:14 0.000337373
14 *755:8 *818:10 0.000182023
15 *755:8 *819:24 0
16 *755:23 *3171:RESET_B 0.000436369
17 *755:23 *758:57 0
18 *755:23 *796:10 0
19 *755:23 *796:14 0
20 *755:23 *796:28 0
21 *755:23 *818:10 0
22 *755:23 *819:24 0.00011266
23 *755:29 *909:49 0
24 *755:29 *1116:12 0
25 *755:35 *2791:A2 0
26 *755:35 *3153:RESET_B 0
27 *755:35 *766:37 0
28 *755:35 *1116:8 0
29 *755:54 *2755:B2 0
30 *755:54 *760:12 0.000870433
31 *755:54 *815:14 0
32 *755:54 *826:8 7.95529e-05
33 *755:54 *826:14 0
34 *755:54 *827:10 0.000394151
35 *755:54 *893:18 0
36 *755:54 *923:12 0.00092722
37 *755:54 *1116:8 0
38 *755:54 *1127:10 0
39 *755:54 *1127:16 0
40 *755:62 *882:18 0.000184793
41 gpio_out[0] *3643:A 0.00014402
42 *2757:A1 *755:35 8.00842e-05
43 *2757:A2 *755:35 0
44 *2962:B1 *755:23 0
45 *3271:CLK *2991:B1 0.000549588
46 *3271:CLK *755:8 0.000266318
47 *3547:A *755:62 0.000143728
48 *3564:A *2755:A1 0
49 *251:10 *755:29 0
50 *251:10 *755:35 0.000240855
51 *255:8 *755:54 0.000287776
52 *546:12 *755:23 0
53 *646:14 *755:23 0.000241979
54 *646:20 *755:8 0
55 *646:31 *755:23 0
56 *699:8 *755:29 0.000287256
57 *699:10 *755:29 0.000288587
58 *722:35 *2991:B1 4.77425e-05
59 *731:23 *755:23 0.003219
60 *731:34 *755:23 0.000112333
61 *749:12 *755:62 0.000184219
*RES
1 *3271:Q *755:8 44.3054 
2 *755:8 *2991:B1 42.8943 
3 *755:8 *755:21 20 
4 *755:21 *755:23 33.8458 
5 *755:23 *755:29 42.575 
6 *755:29 *755:35 11.5875 
7 *755:35 *2755:A1 20.3502 
8 *755:35 *755:54 33.3385 
9 *755:54 *755:62 41.8128 
10 *755:62 *3643:A 40.9682 
*END

*D_NET *756 0.0144272
*CONN
*I *3644:A I *D sg13g2_buf_1
*I *2759:A1 I *D sg13g2_a22oi_1
*I *2995:B1 I *D sg13g2_a21oi_1
*I *3273:Q O *D sg13g2_dfrbpq_1
*CAP
1 *3644:A 0
2 *2759:A1 0
3 *2995:B1 0
4 *3273:Q 0.000314185
5 *756:55 0
6 *756:51 0.00222215
7 *756:40 9.53182e-05
8 *756:32 0.00664522
9 *756:26 0.00432775
10 *756:24 0
11 *756:10 0.000314185
12 *756:10 *885:78 8.01789e-05
13 *756:10 *892:81 0
14 *756:10 *898:23 0
15 *756:32 *778:25 0
16 *756:32 *790:51 0.000146026
17 *756:32 *828:36 0
18 *756:32 *850:70 0
19 *756:40 *2747:B1 1.54556e-05
20 *756:40 *2747:A2 0
21 *756:40 *844:40 0
22 *756:51 *758:73 0
23 *756:51 *758:94 0
24 *756:51 *1138:16 0
25 *2991:A2 *756:10 0
26 *399:14 *756:51 0
27 *576:8 *756:10 0.000209769
28 *728:23 *756:32 0
29 *740:23 *756:32 0
30 *740:23 *756:51 0
31 *740:33 *756:51 0
32 *752:44 *756:32 5.69261e-05
*RES
1 *3273:Q *756:10 42.987 
2 *756:10 *2995:B1 40 
3 *3273:Q *756:24 40 
4 *756:24 *756:26 20 
5 *756:26 *756:32 45.3303 
6 *756:32 *756:40 40.8858 
7 *756:40 *2759:A1 20 
8 *756:32 *756:51 40.7545 
9 *756:51 *756:55 40 
10 *756:55 *3644:A 40 
*END

*D_NET *757 0.0249155
*CONN
*I *2763:A1 I *D sg13g2_a22oi_1
*I *3645:A I *D sg13g2_buf_1
*I *2999:B1 I *D sg13g2_a21oi_1
*I *3275:Q O *D sg13g2_dfrbpq_1
*CAP
1 *2763:A1 0
2 *3645:A 0
3 *2999:B1 0
4 *3275:Q 0.000131119
5 *757:71 0.000685174
6 *757:65 0.00190638
7 *757:61 0.00122121
8 *757:57 0.000714618
9 *757:53 0.0028955
10 *757:47 0.00290317
11 *757:33 0.00389627
12 *757:18 0.000397003
13 *757:10 0.00357099
14 *757:8 0.000131119
15 *757:8 *883:53 0.000341621
16 *757:8 *883:85 5.34469e-05
17 *757:18 *817:21 0
18 *757:33 *2964:A1 0.000176127
19 *757:33 *766:45 0.00046756
20 *757:33 *879:14 0
21 *757:33 *889:80 0
22 *757:33 *1137:50 0
23 *757:47 *3255:RESET_B 0
24 *757:47 *766:45 0
25 *757:47 *1137:50 8.01885e-05
26 *757:53 *3157:RESET_B 0
27 *757:53 *766:37 0
28 *757:53 *766:45 0
29 *757:53 *899:119 0
30 *757:53 *901:57 0.000287256
31 *757:53 *1137:50 0
32 *757:57 *2755:A2 4.77425e-05
33 *757:65 *1137:60 0
34 *757:71 *759:77 0
35 *757:71 *782:16 0
36 *2757:A2 *757:57 0
37 *2964:A2 *757:33 0
38 *2965:A *757:47 0.000112667
39 *2965:B *757:33 0
40 *2965:B *757:47 0.000112558
41 *2991:A2 *757:33 4.77425e-05
42 *3157:D *757:53 0.00017724
43 *3169:CLK *757:53 0
44 *3257:D *757:47 0.000123249
45 *3331:CLK *757:33 0
46 *259:10 *757:53 0
47 *359:28 *757:18 0.000112536
48 *359:28 *757:33 0.0010279
49 *359:32 *757:33 0
50 *359:47 *757:33 0
51 *386:10 *757:33 4.76068e-05
52 *410:14 *757:53 0
53 *410:14 *757:57 0
54 *428:10 *757:53 0.00150329
55 *559:10 *757:47 0.00018387
56 *571:97 *757:18 0
57 *571:108 *757:18 0.00012816
58 *698:38 *757:8 0
59 *717:32 *757:53 0.000287758
60 *722:35 *757:18 0
61 *722:35 *757:33 0
62 *724:53 *757:65 0.00114446
63 *728:48 *757:71 0
64 *730:20 *757:53 0
*RES
1 *3275:Q *757:8 41.8334 
2 *757:8 *757:10 20 
3 *757:10 *757:18 43.8213 
4 *757:18 *2999:B1 20 
5 *757:10 *757:33 31.1684 
6 *757:33 *757:47 47.2203 
7 *757:47 *757:53 42.5008 
8 *757:53 *757:57 25.7268 
9 *757:57 *757:61 40 
10 *757:61 *757:65 33.9462 
11 *757:65 *757:71 45.9431 
12 *757:71 *3645:A 40 
13 *757:57 *2763:A1 20 
*END

*D_NET *758 0.0271787
*CONN
*I *3646:A I *D sg13g2_buf_1
*I *2767:A1 I *D sg13g2_a22oi_1
*I *3003:B1 I *D sg13g2_a21oi_1
*I *3277:Q O *D sg13g2_dfrbpq_1
*CAP
1 *3646:A 0
2 *2767:A1 1.72309e-05
3 *3003:B1 0.000298868
4 *3277:Q 0.000120516
5 *758:94 0.000914142
6 *758:77 1.72309e-05
7 *758:73 0.00163973
8 *758:67 0.00126099
9 *758:57 0.00346623
10 *758:35 0.00379936
11 *758:25 0.00276934
12 *758:10 0.00219966
13 *758:8 0.000120516
14 *2767:A1 *804:8 3.15716e-05
15 *2767:A1 *845:91 3.15716e-05
16 *3003:B1 *3003:A1 0
17 *3003:B1 *808:29 0
18 *3003:B1 *866:35 0
19 *758:8 *883:85 0.000446855
20 *758:8 *1120:46 0.000287343
21 *758:25 *3125:B1 0
22 *758:25 *3125:A1 0.000922483
23 *758:25 *808:29 0.00228083
24 *758:25 *855:87 0.000181608
25 *758:25 *856:85 0.000887589
26 *758:25 *866:35 0
27 *758:25 *879:23 0.000920046
28 *758:25 *892:51 0
29 *758:35 *2971:B 0
30 *758:35 *794:37 7.93634e-05
31 *758:35 *856:85 0
32 *758:35 *866:64 0.000759716
33 *758:35 *879:30 0
34 *758:35 *885:108 0
35 *758:35 *885:119 0
36 *758:57 *2792:B1 0
37 *758:57 *3104:B1 4.77425e-05
38 *758:57 *3171:RESET_B 0
39 *758:57 *3325:RESET_B 0
40 *758:57 *794:37 0
41 *758:57 *796:10 0.000112733
42 *758:57 *796:14 0
43 *758:57 *796:28 0.000175831
44 *758:57 *796:32 1.54556e-05
45 *758:57 *806:66 0.000130055
46 *758:57 *808:46 0
47 *758:57 *818:102 0.00029161
48 *758:57 *1129:33 0
49 *758:67 *3417:A 0
50 *758:67 *845:16 0
51 *758:67 *901:78 6.99095e-05
52 *758:67 *901:101 0.000581879
53 *758:73 *771:14 0
54 *758:94 *1138:16 0
55 *2773:B1 *758:67 4.77863e-05
56 *2973:A *758:35 0
57 *3103:A *758:35 0.000144025
58 *3104:A2 *758:35 0.000144233
59 *3105:B *758:57 0
60 *3123:A2 *758:25 0
61 *3325:D *758:57 0.000488144
62 *305:12 *758:35 0.000241891
63 *417:8 *758:67 7.52158e-05
64 *432:10 *758:57 0.000177257
65 *437:14 *758:57 0
66 *646:31 *758:57 0
67 *716:12 *758:67 0.000597368
68 *720:35 *758:57 0.000273992
69 *720:68 *758:57 0.000110829
70 *755:23 *758:57 0
71 *756:51 *758:73 0
72 *756:51 *758:94 0
*RES
1 *3277:Q *758:8 42.0806 
2 *758:8 *758:10 20 
3 *758:10 *3003:B1 22.8325 
4 *758:10 *758:25 42.3613 
5 *758:25 *758:35 48.9919 
6 *758:35 *758:57 49.5198 
7 *758:57 *758:67 46.2727 
8 *758:67 *758:73 27.4057 
9 *758:73 *758:77 40 
10 *758:77 *2767:A1 40.2112 
11 *758:73 *758:94 48.7962 
12 *758:94 *3646:A 40 
*END

*D_NET *759 0.026889
*CONN
*I *3647:A I *D sg13g2_buf_1
*I *2771:A1 I *D sg13g2_a22oi_1
*I *3007:B1 I *D sg13g2_a21oi_1
*I *3279:Q O *D sg13g2_dfrbpq_1
*CAP
1 *3647:A 6.86092e-05
2 *2771:A1 0.000247859
3 *3007:B1 0
4 *3279:Q 0.00262118
5 *759:77 0.000766225
6 *759:54 0.00351086
7 *759:42 0.00357855
8 *759:28 0.00295859
9 *759:10 0.000675746
10 *2771:A1 *851:27 0.00076066
11 *2771:A1 *851:31 0.000231654
12 *3647:A *957:20 4.75166e-05
13 *759:10 *996:10 0
14 *759:28 *2947:C 0.000112826
15 *759:28 *2951:C 0
16 *759:28 *3079:C 0
17 *759:28 *3444:A 4.77425e-05
18 *759:28 *819:12 0
19 *759:28 *819:66 0
20 *759:28 *820:110 0
21 *759:42 *885:119 0.000722135
22 *759:54 *2768:A1 0
23 *759:54 *761:50 0.00426908
24 *759:54 *834:73 0.000532323
25 *759:54 *902:14 0.000500937
26 *759:77 *851:25 7.51285e-05
27 *759:77 *851:27 0.000477113
28 gpio_out[4] *3647:A 0.0001122
29 gpio_out[5] *3647:A 1.54008e-05
30 *2953:A *759:42 0.00010754
31 *2969:A *759:28 0
32 *3080:A2 *759:28 0
33 *3081:A *759:28 8.02698e-05
34 *3081:B *759:28 0
35 *3163:D *759:54 0
36 *3259:CLK *759:28 0.00066273
37 *300:12 *759:42 0
38 *300:12 *759:54 0
39 *304:10 *759:28 0.00024222
40 *419:14 *759:54 0
41 *433:14 *2771:A1 0.00097011
42 *433:14 *759:77 0.000549605
43 *595:14 *759:10 0.000288173
44 *697:63 *759:10 0
45 *697:63 *759:28 0
46 *699:89 *2771:A1 2.42507e-05
47 *700:36 *759:54 0
48 *700:51 *759:54 0
49 *723:51 *759:42 0
50 *723:51 *759:54 0.00163178
51 *723:63 *759:54 0
52 *724:43 *759:42 0
53 *728:48 *759:77 0
54 *733:8 *759:42 0
55 *733:37 *759:42 0
56 *757:71 *759:77 0
*RES
1 *3279:Q *759:10 47.6529 
2 *759:10 *3007:B1 40 
3 *3279:Q *759:28 38.0765 
4 *759:28 *759:42 49.8159 
5 *759:42 *759:54 49.8391 
6 *759:54 *2771:A1 45.0058 
7 *759:54 *759:77 48.0855 
8 *759:77 *3647:A 40.7519 
*END

*D_NET *760 0.00786448
*CONN
*I *2827:B2 I *D sg13g2_a22oi_1
*I *3536:X O *D sg13g2_buf_1
*CAP
1 *2827:B2 0
2 *3536:X 0.000501606
3 *760:18 0.000849403
4 *760:12 0.00135101
5 *760:12 *782:10 0
6 *760:12 *815:14 0
7 *760:12 *923:12 0.000448602
8 *760:18 *2807:A2 0
9 *760:18 *2827:A2 3.15716e-05
10 *760:18 *815:14 0.00176892
11 *760:18 *1127:16 0
12 *2827:A1 *760:18 0
13 *3532:A *760:12 0.000176367
14 *3623:A *760:18 0
15 *3625:A *760:18 0
16 *727:14 *760:12 0.00157932
17 *727:14 *760:18 0
18 *729:48 *760:18 0.000287256
19 *755:54 *760:12 0.000870433
*RES
1 *3536:X *760:12 48.9919 
2 *760:12 *760:18 30.2135 
3 *760:18 *2827:B2 20 
*END

*D_NET *761 0.0213995
*CONN
*I *3648:A I *D sg13g2_buf_1
*I *2775:A1 I *D sg13g2_a22oi_1
*I *2946:B1 I *D sg13g2_a21oi_1
*I *3249:Q O *D sg13g2_dfrbpq_1
*CAP
1 *3648:A 0.000525592
2 *2775:A1 4.62554e-05
3 *2946:B1 0
4 *3249:Q 0.00049623
5 *761:54 0.00068904
6 *761:50 0.00291571
7 *761:40 0.00294256
8 *761:34 0.00175756
9 *761:26 0.00175647
10 *761:10 0.000353284
11 *2775:A1 *2858:A1 8.00842e-05
12 *2775:A1 *848:33 4.77425e-05
13 *3648:A *804:18 0.00015642
14 *3648:A *848:25 0.000106064
15 *3648:A *848:27 0.000319022
16 *3648:A *848:31 0.000387036
17 *761:10 *2947:C 0.000208878
18 *761:10 *819:37 0.000340374
19 *761:26 *819:18 0
20 *761:34 *3259:RESET_B 0
21 *761:34 *819:37 0
22 *761:40 *798:24 0
23 *761:50 *3253:RESET_B 0
24 *761:50 *848:43 0.000144702
25 *761:54 *2858:B1 0
26 *761:54 *804:18 0.000334001
27 *761:54 *848:31 7.30101e-05
28 *761:54 *946:20 0.000126354
29 *2950:A2 *761:34 4.77425e-05
30 *2952:A2 *761:34 0
31 *2957:A *761:34 0.00014453
32 *3373:A *761:50 7.52107e-05
33 *300:12 *761:50 0
34 *362:32 *761:10 0
35 *362:32 *761:34 0
36 *419:14 *761:50 0
37 *546:67 *761:40 0
38 *546:88 *761:34 0.000128663
39 *546:120 *761:26 0
40 *552:18 *761:34 0
41 *553:10 *761:40 7.48178e-05
42 *555:12 *761:34 0
43 *697:63 *761:10 0
44 *697:97 *761:34 0
45 *700:20 *761:50 0.000273562
46 *723:51 *761:34 0
47 *729:35 *3648:A 8.00842e-05
48 *729:48 *3648:A 0.00030522
49 *730:65 *3648:A 0.000369903
50 *733:37 *761:50 0.0016473
51 *752:69 *761:50 0.000177032
52 *759:54 *761:50 0.00426908
*RES
1 *3249:Q *761:10 43.7286 
2 *761:10 *2946:B1 40 
3 *3249:Q *761:26 41.339 
4 *761:26 *761:34 34.6472 
5 *761:34 *761:40 41.5862 
6 *761:40 *761:50 31.1369 
7 *761:50 *761:54 21.5862 
8 *761:54 *2775:A1 40.5356 
9 *761:54 *3648:A 46.2933 
*END

*D_NET *762 0.0116662
*CONN
*I *3649:A I *D sg13g2_buf_1
*I *2779:A1 I *D sg13g2_a22oi_1
*I *2950:B1 I *D sg13g2_a21oi_1
*I *3251:Q O *D sg13g2_dfrbpq_1
*CAP
1 *3649:A 0.00051846
2 *2779:A1 0
3 *2950:B1 0
4 *3251:Q 4.89532e-05
5 *762:35 0.00202869
6 *762:31 0.00261226
7 *762:22 0.000332414
8 *762:10 0.00143445
9 *762:8 4.89532e-05
10 *3649:A *2783:A2 4.77425e-05
11 *3649:A *826:14 0
12 *3649:A *957:20 0
13 *762:8 *797:29 7.4563e-05
14 *762:8 *798:24 0.0001261
15 *762:22 *2950:A1 1.9636e-05
16 *762:22 *797:23 4.79447e-05
17 *762:22 *820:114 0
18 *762:31 *797:23 0.00211549
19 *762:35 *2774:B1 0
20 *762:35 *2776:A2 0
21 *762:35 *797:8 0.000111
22 *762:35 *902:40 0
23 gpio_out[6] *3649:A 0
24 gpio_out[8] *3649:A 0
25 *2797:B1 *762:35 0
26 *3173:D *762:35 0.000177203
27 *422:8 *762:35 0
28 *425:8 *762:35 0
29 *555:12 *762:22 0.000292789
30 *697:101 *762:22 0
31 *697:101 *762:31 0
32 *697:117 *762:31 0
33 *697:135 *762:31 0
34 *700:63 *762:35 0
35 *700:69 *762:35 0
36 *723:67 *762:35 0.00162952
37 *729:48 *3649:A 0
38 *730:65 *3649:A 0
39 *731:42 *762:35 0
*RES
1 *3251:Q *762:8 40.5974 
2 *762:8 *762:10 20 
3 *762:10 *762:22 44.3028 
4 *762:22 *2950:B1 20 
5 *762:10 *762:31 33.9462 
6 *762:31 *762:35 35.0277 
7 *762:35 *2779:A1 20 
8 *762:35 *3649:A 24.9337 
*END

*D_NET *763 0.00469661
*CONN
*I *2870:A_N I *D sg13g2_nand3b_1
*I *2735:A I *D sg13g2_nor2b_1
*I *2736:A_N I *D sg13g2_nand2b_1
*I *3650:A I *D sg13g2_buf_1
*I *3145:Q O *D sg13g2_dfrbpq_1
*CAP
1 *2870:A_N 4.01995e-05
2 *2735:A 0
3 *2736:A_N 4.72978e-05
4 *3650:A 0.000871759
5 *3145:Q 0.0012876
6 *763:32 0.000490498
7 *763:26 0.000899245
8 *2870:A_N *2870:C 7.43486e-05
9 *3650:A *3664:A 0
10 *3650:A *3678:A 0
11 *763:26 *797:33 0.000586165
12 *763:26 *798:24 0
13 *763:26 *1001:8 0
14 *763:32 *2870:C 0
15 *763:32 *3145:RESET_B 0
16 *763:32 *3211:RESET_B 0
17 *763:32 *797:33 0.000181694
18 s_axil_rdata[6] *763:26 0.000143449
19 *2871:B *763:32 0
20 *3211:D *763:32 0
21 *389:12 *763:32 0
22 *702:46 *763:32 0
23 *702:59 *2870:A_N 7.43486e-05
*RES
1 *3145:Q *3650:A 49.3936 
2 *3145:Q *763:26 44.9028 
3 *763:26 *763:32 24.4084 
4 *763:32 *2736:A_N 20.5974 
5 *763:32 *2735:A 20 
6 *763:26 *2870:A_N 40.497 
*END

*D_NET *764 0.0166703
*CONN
*I *3347:A I *D sg13g2_buf_1
*I *2727:A I *D sg13g2_inv_1
*I *3143:A1 I *D sg13g2_o21ai_1
*I *2873:A I *D sg13g2_nor3_1
*I *3651:A I *D sg13g2_buf_1
*I *3213:Q O *D sg13g2_dfrbpq_1
*CAP
1 *3347:A 2.77263e-05
2 *2727:A 0.000225874
3 *3143:A1 0
4 *2873:A 0
5 *3651:A 0
6 *3213:Q 0.000237601
7 *764:57 0.000468923
8 *764:50 0.00071061
9 *764:37 0.000252009
10 *764:31 0.00231449
11 *764:23 0.00323738
12 *764:10 0.00190778
13 *2727:A *1049:24 0
14 *2727:A *1136:8 3.23965e-05
15 *2727:A *1136:25 0
16 *764:10 *2709:A 0
17 *764:10 *3578:A 0
18 *764:10 *1097:8 0
19 *764:23 *2709:A 0
20 *764:23 *3233:RESET_B 0
21 *764:23 *3578:A 0
22 *764:23 *816:10 0.000286322
23 *764:23 *816:12 0.000450816
24 *764:23 *816:18 0.000994315
25 *764:23 *861:34 0.00081689
26 *764:23 *889:31 0
27 *764:23 *1077:16 0.000343008
28 *764:23 *1117:14 0.00147373
29 *764:23 *1119:10 0.00049207
30 *764:31 *825:10 0
31 *764:31 *868:102 0
32 *764:31 *889:31 0.00018387
33 *764:31 *889:48 0.00173014
34 *764:31 *1071:18 2.14736e-05
35 *764:31 *1077:16 0
36 *764:31 *1092:8 0
37 *764:31 *1106:14 0
38 *764:31 *1120:10 0
39 *764:31 *1122:54 7.30101e-05
40 *764:50 *1048:16 0
41 *764:50 *1049:24 0
42 *764:50 *1064:10 0.000182228
43 *764:50 *1106:14 0
44 *764:50 *1120:10 0
45 *764:57 *1049:14 0.000176722
46 *764:57 *1124:14 0
47 *764:57 *1136:8 1.54556e-05
48 s_axil_awready *764:10 0
49 *2874:A *2727:A 0
50 *2874:A *764:57 0
51 *3143:A2 *764:57 1.54008e-05
52 *492:12 *764:31 0
53 *493:22 *764:31 0
54 *493:28 *764:31 0
55 *708:82 *764:23 0
56 *714:52 *764:57 0
*RES
1 *3213:Q *764:10 22.3175 
2 *764:10 *3651:A 20 
3 *764:10 *764:23 40.4249 
4 *764:23 *764:31 36.3461 
5 *764:31 *764:37 42.9149 
6 *764:37 *2873:A 20 
7 *764:31 *764:50 44.7483 
8 *764:50 *3143:A1 20 
9 *764:50 *764:57 2.0497 
10 *764:57 *2727:A 22.3999 
11 *764:57 *3347:A 20.3502 
*END

*D_NET *765 0.00521323
*CONN
*I *2877:A I *D sg13g2_nand2_1
*I *3652:A I *D sg13g2_buf_1
*I *2876:B1 I *D sg13g2_a21o_1
*I *3215:Q O *D sg13g2_dfrbpq_1
*CAP
1 *2877:A 2.92417e-05
2 *3652:A 0
3 *2876:B1 0
4 *3215:Q 0.000338664
5 *765:33 0.000238774
6 *765:25 0.000457577
7 *765:18 0.000999348
8 *765:12 0.00131443
9 *765:8 0.000464185
10 *765:8 *979:10 0
11 *765:12 *3565:A 0
12 *765:18 *2872:B 0
13 *765:18 *979:10 0
14 *765:18 *1124:26 0
15 *765:25 *3345:RESET_B 0
16 *765:33 *982:10 0.000130055
17 s_axil_bvalid *765:33 0.00024205
18 *3527:A *765:8 0
19 *375:8 *765:18 0
20 *375:14 *2877:A 3.23417e-05
21 *375:14 *765:12 0.00020973
22 *375:14 *765:25 0.00029113
23 *375:14 *765:33 0.000339343
24 *494:10 *765:18 0.000126358
25 *709:44 *765:33 0
26 *709:52 *765:8 0
*RES
1 *3215:Q *765:8 43.811 
2 *765:8 *765:12 21.4008 
3 *765:12 *765:18 47.7662 
4 *765:18 *2876:B1 20 
5 *765:12 *765:25 2.0497 
6 *765:25 *765:33 42.8634 
7 *765:33 *3652:A 20 
8 *765:25 *2877:A 20.3193 
*END

*D_NET *766 0.0257308
*CONN
*I *3653:A I *D sg13g2_buf_1
*I *2744:A1 I *D sg13g2_o21ai_1
*I *3147:Q O *D sg13g2_dfrbpq_1
*CAP
1 *3653:A 0
2 *2744:A1 0.000101415
3 *3147:Q 0.000379733
4 *766:55 0.00266839
5 *766:49 0.0053136
6 *766:45 0.00523098
7 *766:37 0.00479844
8 *766:8 0.00269382
9 *2744:A1 *2744:A2 7.31538e-06
10 *2744:A1 *901:6 0
11 *2744:A1 *901:42 8.0216e-05
12 *766:8 *909:26 0
13 *766:37 *2791:A2 0
14 *766:37 *3153:RESET_B 0
15 *766:37 *3462:A 0.000240196
16 *766:37 *834:57 0
17 *766:37 *899:14 8.54744e-05
18 *766:37 *899:22 0
19 *766:37 *899:119 6.40949e-05
20 *766:45 *3257:RESET_B 0
21 *766:45 *864:52 0
22 *766:45 *879:34 0
23 *766:45 *899:22 0
24 *766:49 *778:29 0
25 *766:49 *864:52 0
26 *766:49 *864:71 0.000340704
27 *766:49 *873:86 0
28 *766:49 *878:49 0
29 *766:49 *885:119 0
30 *766:49 *888:23 0.000388172
31 *766:49 *888:34 0.000282079
32 *766:49 *888:55 0.000229924
33 *766:49 *1126:8 0
34 *766:49 *1126:18 0
35 *766:55 *2885:B 0
36 *766:55 *3017:C 0
37 *766:55 *3029:C 0
38 *766:55 *778:29 0
39 *766:55 *790:38 0
40 *766:55 *870:59 0
41 *766:55 *1146:27 7.33256e-05
42 *2765:A1 *766:37 0.000339507
43 *2793:A1 *766:37 0
44 *2793:B1 *766:37 0
45 *2904:B1 *766:55 0
46 *2958:B1 *766:45 0
47 *2965:B *766:45 0
48 *3257:D *766:45 0.000112536
49 *3372:A *766:37 8.03089e-05
50 *321:8 *766:55 0.000602381
51 *375:20 *766:55 0
52 *400:10 *766:8 0
53 *402:8 *766:8 0
54 *410:14 *766:37 0.000301716
55 *501:8 *766:55 0
56 *567:8 *766:45 0.000602498
57 *697:11 *766:49 0
58 *697:17 *766:49 0
59 *712:53 *766:45 0
60 *717:32 *766:8 0
61 *717:32 *766:37 0
62 *718:14 *766:55 0.000128662
63 *718:20 *766:55 0
64 *722:35 *766:45 0
65 *752:34 *2744:A1 0.000117754
66 *753:18 *766:49 0
67 *755:35 *766:37 0
68 *757:33 *766:45 0.00046756
69 *757:47 *766:45 0
70 *757:53 *766:37 0
71 *757:53 *766:45 0
*RES
1 *3147:Q *766:8 42.8222 
2 *766:8 *2744:A1 41.2051 
3 *766:8 *766:37 40.0015 
4 *766:37 *766:45 45.8015 
5 *766:45 *766:49 22.9175 
6 *766:49 *766:55 45.0287 
7 *766:55 *3653:A 20 
*END

*D_NET *767 0.0103316
*CONN
*I *3654:A I *D sg13g2_buf_1
*I *2784:A1 I *D sg13g2_o21ai_1
*I *3167:Q O *D sg13g2_dfrbpq_1
*CAP
1 *3654:A 0.000288451
2 *2784:A1 0.00056193
3 *3167:Q 3.80322e-05
4 *767:29 0.00354709
5 *767:8 0.00385861
6 *2784:A1 *2784:A2 0.000209385
7 *2784:A1 *772:27 0
8 *2784:A1 *908:10 0.000208901
9 *3654:A *801:25 0
10 *767:8 *1141:33 0
11 *767:29 *2820:A1 0.000718011
12 *767:29 *770:28 0.000393879
13 *767:29 *772:27 0
14 *767:29 *777:29 0
15 s_axil_rdata[13] *3654:A 0.000112391
16 *267:10 *767:29 0.000394869
17 *452:26 *2784:A1 0
18 *452:26 *767:29 0
19 *453:10 *767:29 0
20 *746:23 *767:8 0
*RES
1 *3167:Q *767:8 40.3193 
2 *767:8 *2784:A1 44.9646 
3 *767:8 *767:29 48.0057 
4 *767:29 *3654:A 23.0488 
*END

*D_NET *768 0.0168634
*CONN
*I *2788:A1 I *D sg13g2_o21ai_1
*I *3655:A I *D sg13g2_buf_1
*I *3169:Q O *D sg13g2_dfrbpq_1
*CAP
1 *2788:A1 7.78789e-06
2 *3655:A 0
3 *3169:Q 0.000636031
4 *768:32 0.000308145
5 *768:12 0.0056943
6 *768:10 0.00602997
7 *2788:A1 *2788:A2 2.44659e-05
8 *768:10 *833:25 0
9 *768:10 *899:14 0.000436636
10 *768:12 *769:31 0
11 *768:12 *769:39 0
12 *768:12 *796:10 0
13 *768:12 *796:53 0.000605863
14 *768:12 *799:16 0
15 *768:12 *833:14 0.000181192
16 *768:12 *835:41 0
17 *768:12 *1126:37 0
18 *768:12 *1131:8 0
19 *768:32 *2762:B1 0
20 *768:32 *828:28 0
21 *768:32 *899:14 0.000145052
22 *768:32 *1128:49 0.000340288
23 *3157:CLK *768:10 0
24 *3175:CLK *768:12 0.000340462
25 *3219:CLK *768:12 0.000287343
26 *410:14 *2788:A1 1.80959e-05
27 *646:35 *768:12 0
28 *646:57 *768:12 0
29 *646:72 *768:12 0
30 *697:121 *768:12 0
31 *701:28 *768:12 0
32 *701:39 *768:12 0.00143629
33 *701:63 *768:12 0
34 *701:89 *768:12 0
35 *713:10 *768:12 0.000371499
36 *713:59 *768:12 0
37 *713:72 *768:12 0
38 *750:8 *768:12 0
*RES
1 *3169:Q *768:10 43.6668 
2 *768:10 *768:12 60.667 
3 *768:12 *3655:A 40 
4 *3169:Q *768:32 43.126 
5 *768:32 *2788:A1 40.121 
*END

*D_NET *769 0.021434
*CONN
*I *3656:A I *D sg13g2_buf_1
*I *2792:A1 I *D sg13g2_o21ai_1
*I *3171:Q O *D sg13g2_dfrbpq_1
*CAP
1 *3656:A 0
2 *2792:A1 0.000428509
3 *3171:Q 5.91379e-05
4 *769:39 0.00171253
5 *769:31 0.00463837
6 *769:27 0.00365956
7 *769:8 0.00122137
8 *2792:A1 *2792:B1 0
9 *2792:A1 *834:49 0
10 *2792:A1 *839:8 0
11 *769:8 *3397:A 0
12 *769:27 *3397:A 0
13 *769:27 *3407:A 0.000177003
14 *769:27 *798:22 0.000792462
15 *769:27 *828:10 0
16 *769:27 *839:8 0
17 *769:31 *2800:B1 0
18 *769:31 *2800:A1 0
19 *769:31 *770:22 0.00304188
20 *769:31 *770:28 0
21 *769:31 *772:27 0
22 *769:31 *958:10 0.00044727
23 *769:31 *1016:8 0.00076745
24 *769:31 *1131:8 0
25 *769:39 *770:28 0.00363344
26 *769:39 *835:41 0
27 *3175:CLK *769:31 0
28 *3219:CLK *769:31 0
29 *306:10 *769:31 0
30 *437:14 *2792:A1 0.000144661
31 *438:12 *769:31 0
32 *697:275 *769:39 0
33 *697:315 *769:39 0
34 *700:20 *2792:A1 0
35 *700:20 *769:27 0
36 *701:39 *769:31 0
37 *701:39 *769:39 0
38 *701:89 *769:39 0
39 *713:10 *769:31 0
40 *713:72 *769:31 0
41 *722:58 *769:31 0
42 *724:43 *769:8 7.95529e-05
43 *724:43 *769:27 0.000630841
44 *734:8 *769:31 0
45 *734:27 *769:31 0
46 *750:8 *769:31 0
47 *768:12 *769:31 0
48 *768:12 *769:39 0
*RES
1 *3171:Q *769:8 40.5356 
2 *769:8 *2792:A1 44.0376 
3 *769:8 *769:27 48.1473 
4 *769:27 *769:31 33.5471 
5 *769:31 *769:39 40.0541 
6 *769:39 *3656:A 20 
*END

*D_NET *770 0.0246243
*CONN
*I *2796:A1 I *D sg13g2_o21ai_1
*I *3657:A I *D sg13g2_buf_1
*I *3173:Q O *D sg13g2_dfrbpq_1
*CAP
1 *2796:A1 0
2 *3657:A 0
3 *3173:Q 0.000172387
4 *770:39 0.000235188
5 *770:28 0.00167491
6 *770:22 0.00445375
7 *770:14 0.00315606
8 *770:10 0.000314415
9 *770:10 *793:14 0.000336423
10 *770:10 *1125:42 0
11 *770:14 *848:21 0
12 *770:22 *2803:B1 0
13 *770:22 *772:27 0
14 *770:22 *848:21 0
15 *770:22 *1085:14 0.000175946
16 *770:22 *1130:35 0
17 *770:28 *1016:8 0.00076745
18 *770:39 *1125:42 0
19 *770:39 *1130:35 0.000287342
20 *267:10 *770:28 0
21 *424:8 *770:22 0.000285178
22 *440:10 *770:22 0
23 *452:26 *770:22 0
24 *452:26 *770:28 0.0037997
25 *453:10 *770:28 0.000818821
26 *460:16 *770:39 0
27 *725:29 *770:22 0
28 *734:27 *770:22 0
29 *736:53 *770:14 0.000208901
30 *736:53 *770:22 0.000821494
31 *737:39 *770:10 4.71556e-05
32 *767:29 *770:28 0.000393879
33 *769:31 *770:22 0.00304188
34 *769:31 *770:28 0
35 *769:39 *770:28 0.00363344
*RES
1 *3173:Q *770:10 41.9055 
2 *770:10 *770:14 21.4008 
3 *770:14 *770:22 49.7567 
4 *770:22 *770:28 48.325 
5 *770:28 *3657:A 20 
6 *770:14 *770:39 42.575 
7 *770:39 *2796:A1 20 
*END

*D_NET *771 0.00237062
*CONN
*I *2830:A1 I *D sg13g2_a21oi_1
*I *3537:X O *D sg13g2_buf_1
*CAP
1 *2830:A1 0
2 *3537:X 4.63659e-05
3 *771:14 0.00090256
4 *771:8 0.000948926
5 *771:8 *957:8 0.000235998
6 *413:16 *771:14 0
7 *724:49 *771:14 0
8 *724:74 *771:14 0
9 *749:12 *771:8 0.000236771
10 *758:73 *771:14 0
*RES
1 *3537:X *771:8 41.0918 
2 *771:8 *771:14 49.4039 
3 *771:14 *2830:A1 40 
*END

*D_NET *772 0.0161668
*CONN
*I *3658:A I *D sg13g2_buf_1
*I *2800:A1 I *D sg13g2_o21ai_1
*I *3175:Q O *D sg13g2_dfrbpq_1
*CAP
1 *3658:A 0
2 *2800:A1 0.000244314
3 *3175:Q 0.000158764
4 *772:27 0.00444547
5 *772:8 0.00484854
6 *2800:A1 *2800:B1 0.000287256
7 *2800:A1 *2800:A2 1.54008e-05
8 *2800:A1 *902:25 0.000425033
9 *772:8 *2776:B1 0
10 *772:27 *2780:B1 0.00153968
11 *772:27 *2808:A1 0
12 *772:27 *2820:A1 0.000714418
13 *772:27 *774:25 0
14 *772:27 *777:29 0.000287465
15 *772:27 *800:33 0.000654352
16 *772:27 *841:121 0
17 *772:27 *902:25 0.000287196
18 *772:27 *902:36 0.000265312
19 *772:27 *1131:23 0
20 *772:27 *1133:31 0
21 *772:27 *1133:45 0
22 *772:27 *1136:31 0.000288087
23 *2784:A1 *772:27 0
24 *3175:CLK *2800:A1 4.77425e-05
25 *258:8 *772:27 0.000126325
26 *426:10 *772:27 0.000550996
27 *438:12 *2800:A1 0
28 *442:8 *772:27 0
29 *444:10 *772:27 0
30 *452:26 *772:27 0
31 *702:33 *772:27 0.000980409
32 *722:58 *772:27 0
33 *723:63 *772:8 0
34 *734:8 *2800:A1 0
35 *734:8 *772:27 0
36 *734:27 *772:27 0
37 *767:29 *772:27 0
38 *769:31 *2800:A1 0
39 *769:31 *772:27 0
40 *770:22 *772:27 0
*RES
1 *3175:Q *772:8 41.6171 
2 *772:8 *2800:A1 43.6359 
3 *772:8 *772:27 48.6262 
4 *772:27 *3658:A 40 
*END

*D_NET *773 0.0157423
*CONN
*I *3659:A I *D sg13g2_buf_1
*I *2804:A1 I *D sg13g2_o21ai_1
*I *3177:Q O *D sg13g2_dfrbpq_1
*CAP
1 *3659:A 0
2 *2804:A1 0.000380384
3 *3177:Q 7.44675e-05
4 *773:31 0.000505826
5 *773:23 0.00248552
6 *773:8 0.00243455
7 *2804:A1 *2802:B1 0.000445754
8 *2804:A1 *2804:A2 1.54008e-05
9 *2804:A1 *832:56 5.30319e-05
10 *2804:A1 *1132:31 0
11 *773:8 *2782:B1 4.68099e-05
12 *773:23 *2814:A1 0.000446767
13 *773:23 *2814:B1 0.000159096
14 *773:23 *2824:A1 0
15 *773:23 *776:27 0
16 *773:23 *832:56 0.000980384
17 *773:23 *837:23 0.00436307
18 *773:23 *837:29 0.000129281
19 *773:23 *837:119 0.000427235
20 *773:23 *979:33 0.000922032
21 *773:23 *1135:75 0.00145471
22 *773:31 *2824:A1 0
23 *773:31 *774:25 0
24 *773:31 *801:25 0
25 *773:31 *835:52 0
26 *3187:CLK *773:31 0.000306963
27 *450:10 *773:23 0
28 *452:20 *2804:A1 0
29 *454:8 *773:23 0
30 *455:22 *2804:A1 0
31 *455:22 *773:23 0
32 *455:26 *773:23 0
33 *456:12 *773:23 0
34 *748:31 *773:8 0
35 *753:18 *773:8 0.000111054
*RES
1 *3177:Q *773:8 40.7519 
2 *773:8 *2804:A1 43.9243 
3 *773:8 *773:23 30.5086 
4 *773:23 *773:31 45.2736 
5 *773:31 *3659:A 40 
*END

*D_NET *774 0.00480013
*CONN
*I *3660:A I *D sg13g2_buf_1
*I *2808:A1 I *D sg13g2_o21ai_1
*I *3179:Q O *D sg13g2_dfrbpq_1
*CAP
1 *3660:A 0
2 *2808:A1 0.000414315
3 *3179:Q 2.55137e-05
4 *774:25 0.000980457
5 *774:8 0.00142029
6 *2808:A1 *2808:B1 0.000177493
7 *2808:A1 *2808:A2 0.000177569
8 *2808:A1 *843:20 0
9 *774:8 *1147:20 4.7803e-05
10 *774:25 *2824:A1 0
11 *774:25 *777:29 0
12 *774:25 *841:121 0
13 s_axil_rdata[15] *774:25 0
14 *389:20 *774:25 0.00150889
15 *393:8 *774:8 4.7803e-05
16 *393:14 *774:25 0
17 *702:33 *774:25 0
18 *772:27 *2808:A1 0
19 *772:27 *774:25 0
20 *773:31 *774:25 0
*RES
1 *3179:Q *774:8 40.3193 
2 *774:8 *2808:A1 44.7483 
3 *774:8 *774:25 32.1952 
4 *774:25 *3660:A 20 
*END

*D_NET *775 0.00690587
*CONN
*I *3661:A I *D sg13g2_buf_1
*I *2812:A1 I *D sg13g2_o21ai_1
*I *3181:Q O *D sg13g2_dfrbpq_1
*CAP
1 *3661:A 0
2 *2812:A1 0.00027437
3 *3181:Q 0.000169191
4 *775:23 0.00129609
5 *775:8 0.00173965
6 *2812:A1 *2739:B 7.52149e-05
7 *2812:A1 *2812:A2 4.79124e-05
8 *2812:A1 *776:27 0
9 *2812:A1 *835:64 0
10 *2812:A1 *841:68 4.78028e-05
11 *2812:A1 *1135:75 0
12 *775:8 *2739:A 3.15716e-05
13 *775:8 *2808:A2 0.000143341
14 *775:8 *1143:52 0
15 *775:23 *2739:B 0.000318694
16 *775:23 *776:27 0
17 *775:23 *835:56 0
18 *775:23 *905:73 0.000287256
19 *775:23 *990:31 0.000604974
20 *775:23 *1139:54 0.000287759
21 *269:12 *775:23 0
22 *393:31 *2812:A1 0.000708941
23 *393:31 *775:23 0.000873099
24 *459:10 *775:23 0
*RES
1 *3181:Q *775:8 41.6171 
2 *775:8 *2812:A1 43.6359 
3 *775:8 *775:23 35.9238 
4 *775:23 *3661:A 20 
*END

*D_NET *776 0.0133403
*CONN
*I *3662:A I *D sg13g2_buf_1
*I *2816:A1 I *D sg13g2_o21ai_1
*I *3183:Q O *D sg13g2_dfrbpq_1
*CAP
1 *3662:A 0
2 *2816:A1 0.000472363
3 *3183:Q 6.64282e-05
4 *776:27 0.00121556
5 *776:10 0.00175435
6 *2816:A1 *837:23 0.000713562
7 *2816:A1 *837:29 0.000510603
8 *2816:A1 *837:40 1.54008e-05
9 *776:10 *3695:A 6.96804e-05
10 *776:27 *2812:B1 0.000341603
11 *776:27 *2824:A1 0
12 *776:27 *3665:A 0.000144298
13 *776:27 *835:52 0.000159096
14 *776:27 *835:54 0.000267751
15 *776:27 *835:56 0.00196867
16 *776:27 *835:64 0.000288184
17 *776:27 *837:23 0.0036716
18 *776:27 *837:119 0.000448209
19 s_axil_rdata[18] *776:27 0
20 s_axil_rdata[19] *776:27 0
21 *2812:A1 *776:27 0
22 *3183:CLK *2816:A1 0.000338174
23 *389:41 *2816:A1 0
24 *447:8 *2816:A1 0.000288379
25 *447:8 *776:27 0.000606369
26 *750:20 *2816:A1 0
27 *773:23 *776:27 0
28 *775:23 *776:27 0
*RES
1 *3183:Q *776:10 40.6695 
2 *776:10 *2816:A1 46.4787 
3 *776:10 *776:27 42.5776 
4 *776:27 *3662:A 20 
*END

*D_NET *777 0.00657932
*CONN
*I *3663:A I *D sg13g2_buf_1
*I *2820:A1 I *D sg13g2_o21ai_1
*I *3185:Q O *D sg13g2_dfrbpq_1
*CAP
1 *3663:A 0
2 *2820:A1 0.00030491
3 *3185:Q 0
4 *777:29 0.0010243
5 *777:6 0.00132921
6 *2820:A1 *2820:B1 0
7 *777:29 *3665:A 0.000658077
8 *777:29 *801:25 0.00130198
9 s_axil_rdata[15] *777:29 0
10 s_axil_rdata[17] *777:29 0
11 *701:89 *2820:A1 0.000240957
12 *767:29 *2820:A1 0.000718011
13 *767:29 *777:29 0
14 *772:27 *2820:A1 0.000714418
15 *772:27 *777:29 0.000287465
16 *774:25 *777:29 0
*RES
1 *3185:Q *777:6 40 
2 *777:6 *2820:A1 44.9337 
3 *777:6 *777:29 32.3188 
4 *777:29 *3663:A 20 
*END

*D_NET *778 0.0297892
*CONN
*I *3664:A I *D sg13g2_buf_1
*I *2748:A1 I *D sg13g2_o21ai_1
*I *3149:Q O *D sg13g2_dfrbpq_1
*CAP
1 *3664:A 0.000152996
2 *2748:A1 2.86747e-05
3 *3149:Q 0.00041474
4 *778:29 0.0059939
5 *778:27 0.0058409
6 *778:25 0.00401488
7 *778:23 0.00401488
8 *778:12 0.000443415
9 *2748:A1 *2748:A2 1.54008e-05
10 *3664:A *1001:8 0
11 *778:12 *2751:A2 4.77534e-05
12 *778:12 *844:40 0
13 *778:12 *844:55 8.00842e-05
14 *778:12 *844:62 0
15 *778:25 *790:51 0.000146092
16 *778:25 *833:37 0.000113616
17 *778:25 *833:58 0.000310561
18 *778:25 *833:83 0.000472609
19 *778:29 *2904:A1 0.00012816
20 *778:29 *2963:B 0
21 *778:29 *3040:A1 0.000229173
22 *778:29 *3099:B 0
23 *778:29 *814:35 0
24 *778:29 *814:56 0.000280573
25 *778:29 *822:95 0.000106566
26 *778:29 *823:69 0.000176396
27 *778:29 *855:67 0
28 *778:29 *864:52 0.00246904
29 *778:29 *864:71 0
30 *778:29 *865:96 0
31 *778:29 *872:23 0
32 *778:29 *873:86 0
33 *778:29 *878:49 0.000653706
34 *778:29 *879:34 0
35 *778:29 *885:78 0
36 *778:29 *898:97 0
37 *778:29 *1011:8 0
38 *778:29 *1143:8 0
39 s_axil_rdata[0] *3664:A 0
40 *2742:A1 *778:12 0
41 *3281:CLK *778:29 0
42 *3650:A *3664:A 0
43 *289:8 *778:29 0.000448099
44 *322:8 *778:29 0
45 *357:28 *778:29 0.000181192
46 *358:27 *778:29 0.000708735
47 *361:18 *778:29 0
48 *361:51 *778:29 0.000227897
49 *394:10 *778:12 0
50 *401:10 *2748:A1 4.77537e-05
51 *401:10 *778:12 5.71422e-05
52 *564:12 *778:29 0
53 *616:10 *778:29 0
54 *718:20 *778:29 0
55 *719:10 *778:29 0.00175559
56 *719:30 *778:29 0.000228663
57 *728:23 *778:25 0
58 *756:32 *778:25 0
59 *766:49 *778:29 0
60 *766:55 *778:29 0
*RES
1 *3149:Q *778:12 24.429 
2 *778:12 *2748:A1 20.3193 
3 *778:12 *778:23 40 
4 *778:23 *778:25 34.711 
5 *778:25 *778:27 20 
6 *778:27 *778:29 66.847 
7 *778:29 *3664:A 41.4008 
*END

*D_NET *779 0.00301641
*CONN
*I *3665:A I *D sg13g2_buf_1
*I *2824:A1 I *D sg13g2_o21ai_1
*I *3187:Q O *D sg13g2_dfrbpq_1
*CAP
1 *3665:A 0.000424982
2 *2824:A1 0.000417101
3 *3187:Q 0.000136051
4 *779:8 0.000978134
5 *2824:A1 *835:41 1.54556e-05
6 *2824:A1 *835:52 0.000242313
7 s_axil_rdata[17] *3665:A 0
8 s_axil_rdata[18] *3665:A 0
9 s_axil_rdata[19] *3665:A 0
10 *3187:CLK *2824:A1 0
11 *773:23 *2824:A1 0
12 *773:31 *2824:A1 0
13 *774:25 *2824:A1 0
14 *776:27 *2824:A1 0
15 *776:27 *3665:A 0.000144298
16 *777:29 *3665:A 0.000658077
*RES
1 *3187:Q *779:8 41.5862 
2 *779:8 *2824:A1 44.6865 
3 *779:8 *3665:A 44.7792 
*END

*D_NET *780 0.00438695
*CONN
*I *3666:A I *D sg13g2_buf_1
*I *2828:A1 I *D sg13g2_o21ai_1
*I *3189:Q O *D sg13g2_dfrbpq_1
*CAP
1 *3666:A 0
2 *2828:A1 0
3 *3189:Q 8.28896e-05
4 *780:29 0.000632472
5 *780:16 0.000512751
6 *780:6 0.00122811
7 *780:6 *801:25 0
8 *780:6 *837:119 0.000111032
9 *780:16 *784:25 0
10 *780:16 *843:125 0.000499773
11 *780:16 *1139:62 0
12 *780:29 *2836:A1 0
13 *780:29 *781:10 0
14 *780:29 *837:119 0.000388627
15 *3187:D *780:16 0
16 *459:10 *780:16 0
17 *704:58 *780:29 0.000177164
18 *704:68 *780:16 0.000754133
19 *704:68 *780:29 0
*RES
1 *3189:Q *780:6 20.7519 
2 *780:6 *780:16 46.5199 
3 *780:16 *2828:A1 20 
4 *780:6 *780:29 46.0152 
5 *780:29 *3666:A 20 
*END

*D_NET *781 0.0100518
*CONN
*I *2832:A1 I *D sg13g2_o21ai_1
*I *3667:A I *D sg13g2_buf_1
*I *3191:Q O *D sg13g2_dfrbpq_1
*CAP
1 *2832:A1 0
2 *3667:A 0.000119088
3 *3191:Q 4.42352e-05
4 *781:27 0.000306695
5 *781:10 0.00190375
6 *781:6 0.00213559
7 *3667:A *3668:A 0
8 *3667:A *784:25 0.000175917
9 *781:6 *854:24 8.01788e-05
10 *781:6 *1130:66 7.9524e-05
11 *781:10 *784:25 0
12 *781:10 *832:33 0.00194648
13 *781:10 *832:110 0.000693323
14 *781:10 *836:10 0
15 *781:10 *841:58 0.00124415
16 *781:10 *1132:46 0
17 *781:10 *1146:49 0
18 *781:27 *837:44 0.000340288
19 *781:27 *854:24 0.000129458
20 *781:27 *1130:66 0.000144531
21 *781:27 *1132:46 0.000708612
22 s_axil_rdata[24] *3667:A 0
23 *464:12 *781:10 0
24 *464:12 *781:27 0
25 *465:8 *781:10 0
26 *466:10 *781:10 0
27 *467:16 *781:10 0
28 *703:10 *781:10 0
29 *780:29 *781:10 0
*RES
1 *3191:Q *781:6 20.5356 
2 *781:6 *781:10 43.8342 
3 *781:10 *3667:A 41.1845 
4 *781:6 *781:27 44.2848 
5 *781:27 *2832:A1 20 
*END

*D_NET *782 0.00758146
*CONN
*I *2835:B2 I *D sg13g2_a22oi_1
*I *3538:X O *D sg13g2_buf_1
*CAP
1 *2835:B2 0
2 *3538:X 0.00043547
3 *782:22 0.00131302
4 *782:16 0.0019918
5 *782:10 0.00111425
6 *782:10 *882:18 7.34842e-05
7 *782:16 *946:20 0
8 *782:22 *846:64 0.000273254
9 *2766:A1 *782:22 0
10 *413:16 *782:16 0
11 *455:14 *782:22 0
12 *478:18 *782:22 0
13 *700:51 *782:22 0.00113613
14 *723:102 *782:22 0
15 *727:14 *782:10 0
16 *728:48 *782:16 0
17 *734:44 *782:22 0.000181608
18 *736:53 *782:22 0.000128576
19 *749:12 *782:10 0.000933865
20 *757:71 *782:16 0
21 *760:12 *782:10 0
*RES
1 *3538:X *782:10 44.841 
2 *782:10 *782:16 46.592 
3 *782:16 *782:22 33.493 
4 *782:22 *2835:B2 20 
*END

*D_NET *783 0.00224752
*CONN
*I *3668:A I *D sg13g2_buf_1
*I *2836:A1 I *D sg13g2_o21ai_1
*I *3193:Q O *D sg13g2_dfrbpq_1
*CAP
1 *3668:A 0.000312641
2 *2836:A1 0.000587309
3 *3193:Q 0.000135933
4 *783:14 0.00103588
5 *2836:A1 *2836:A2 0.000112826
6 *2836:A1 *3193:RESET_B 0
7 *2836:A1 *784:25 0
8 *2836:A1 *837:119 0
9 *3668:A *784:25 0
10 s_axil_rdata[21] *3668:A 1.54008e-05
11 s_axil_rdata[23] *3668:A 0
12 s_axil_rdata[24] *3668:A 0
13 s_axil_rdata[25] *3668:A 4.75265e-05
14 *3667:A *3668:A 0
15 *780:29 *2836:A1 0
*RES
1 *3193:Q *783:14 41.7716 
2 *783:14 *2836:A1 45.5517 
3 *783:14 *3668:A 43.0488 
*END

*D_NET *784 0.00577026
*CONN
*I *3669:A I *D sg13g2_buf_1
*I *2840:A1 I *D sg13g2_o21ai_1
*I *3195:Q O *D sg13g2_dfrbpq_1
*CAP
1 *3669:A 0
2 *2840:A1 0.000361232
3 *3195:Q 0
4 *784:25 0.00152144
5 *784:6 0.00188267
6 *2840:A1 *831:50 7.33256e-05
7 *2840:A1 *831:52 0.000551527
8 *2840:A1 *841:58 0
9 *2840:A1 *905:125 0
10 *2840:A1 *1144:28 0
11 *784:25 *801:25 0
12 *784:25 *831:50 0.000583766
13 *784:25 *841:48 0
14 *784:25 *841:58 0
15 *784:25 *905:65 0
16 *784:25 *1142:52 0.00023464
17 s_axil_rdata[22] *784:25 0.000143888
18 s_axil_rdata[24] *784:25 0
19 *2836:A1 *784:25 0
20 *3667:A *784:25 0.000175917
21 *3668:A *784:25 0
22 *271:10 *784:25 0
23 *391:10 *2840:A1 0.000241847
24 *392:12 *2840:A1 0
25 *465:8 *784:25 0
26 *780:16 *784:25 0
27 *781:10 *784:25 0
*RES
1 *3195:Q *784:6 40 
2 *784:6 *2840:A1 44.4393 
3 *784:6 *784:25 36.6242 
4 *784:25 *3669:A 20 
*END

*D_NET *785 0.0116093
*CONN
*I *3670:A I *D sg13g2_buf_1
*I *2844:A1 I *D sg13g2_o21ai_1
*I *3197:Q O *D sg13g2_dfrbpq_1
*CAP
1 *3670:A 0
2 *2844:A1 0.000362469
3 *3197:Q 0
4 *785:23 0.00265731
5 *785:6 0.00301977
6 *2844:A1 *2844:B1 0
7 *2844:A1 *2844:A2 3.11364e-05
8 *785:23 *2850:A2 0.000448013
9 *785:23 *2859:B1 0
10 *785:23 *2864:B1 0.000181192
11 *785:23 *3671:A 0
12 *785:23 *791:12 0.000552831
13 *785:23 *832:37 0.000816987
14 *785:23 *836:8 0
15 *785:23 *842:24 0
16 *785:23 *906:21 0.00023464
17 *785:23 *906:36 0.00267601
18 *464:12 *2844:A1 0
19 *464:12 *785:23 0
20 *718:44 *785:23 0
21 *723:102 *2844:A1 0.000553749
22 *723:102 *785:23 7.52328e-05
23 *753:28 *2844:A1 0
24 *754:31 *2844:A1 0
*RES
1 *3197:Q *785:6 40 
2 *785:6 *2844:A1 44.4084 
3 *785:6 *785:23 30.4365 
4 *785:23 *3670:A 40 
*END

*D_NET *786 0.00340629
*CONN
*I *3671:A I *D sg13g2_buf_1
*I *2848:A1 I *D sg13g2_o21ai_1
*I *3199:Q O *D sg13g2_dfrbpq_1
*CAP
1 *3671:A 0.000782683
2 *2848:A1 0.000508936
3 *3199:Q 0.000100794
4 *786:8 0.00139241
5 *2848:A1 *2848:A2 1.54008e-05
6 *2848:A1 *2850:A2 0
7 *2848:A1 *788:37 0
8 *2848:A1 *842:24 0.000446352
9 *3671:A *2852:A1 0
10 *3671:A *788:37 0
11 *3671:A *801:25 0
12 *786:8 *1139:62 0.000144311
13 s_axil_rdata[27] *3671:A 0
14 *2853:A1 *786:8 0
15 *2853:B1 *786:8 1.54008e-05
16 *785:23 *3671:A 0
*RES
1 *3199:Q *786:8 40.9682 
2 *786:8 *2848:A1 44.5938 
3 *786:8 *3671:A 46.7877 
*END

*D_NET *787 0.0036245
*CONN
*I *3672:A I *D sg13g2_buf_1
*I *2852:A1 I *D sg13g2_o21ai_1
*I *3201:Q O *D sg13g2_dfrbpq_1
*CAP
1 *3672:A 0.000548131
2 *2852:A1 0.000591892
3 *3201:Q 0
4 *787:6 0.00114002
5 *2852:A1 *2868:A2 0.000209186
6 *2852:A1 *788:37 0
7 *2852:A1 *789:23 0
8 *2852:A1 *836:45 1.54285e-05
9 *3672:A *789:23 0
10 s_axil_rdata[27] *3672:A 0.000594392
11 s_axil_rdata[28] *2852:A1 0.000343849
12 s_axil_rdata[28] *3672:A 0.0001816
13 *3671:A *2852:A1 0
14 *704:43 *2852:A1 0
15 *704:58 *2852:A1 0
*RES
1 *3201:Q *787:6 40 
2 *787:6 *2852:A1 45.9534 
3 *787:6 *3672:A 46.3345 
*END

*D_NET *788 0.00917767
*CONN
*I *3673:A I *D sg13g2_buf_1
*I *2856:A1 I *D sg13g2_o21ai_1
*I *3203:Q O *D sg13g2_dfrbpq_1
*CAP
1 *3673:A 0
2 *2856:A1 0.000479441
3 *3203:Q 6.043e-05
4 *788:37 0.00258871
5 *788:31 0.00286722
6 *788:10 0.000818381
7 *2856:A1 *854:59 0.000241979
8 *788:10 *3695:A 6.98161e-05
9 *788:31 *1131:31 0.000337604
10 *788:37 *2859:B1 0
11 *788:37 *801:25 0.000176861
12 *788:37 *842:24 0
13 *788:37 *1144:36 0
14 *788:37 *1148:43 0
15 gpio_dir[22] *788:10 0
16 *2848:A1 *788:37 0
17 *2852:A1 *788:37 0
18 *2865:A1 *788:31 0.000338086
19 *3671:A *788:37 0
20 *391:20 *788:37 0.000126552
21 *476:18 *788:37 0
22 *477:10 *788:37 0
23 *481:12 *2856:A1 0
24 *484:8 *788:37 0
25 *488:20 *2856:A1 0.000499492
26 *488:20 *788:31 0.000234224
27 *704:43 *788:37 0
28 *704:58 *788:37 0
29 *750:31 *2856:A1 0.000338872
*RES
1 *3203:Q *788:10 40.6695 
2 *788:10 *2856:A1 45.3766 
3 *788:10 *788:31 43.3578 
4 *788:31 *788:37 41.5579 
5 *788:37 *3673:A 20 
*END

*D_NET *789 0.00619132
*CONN
*I *3674:A I *D sg13g2_buf_1
*I *2860:A1 I *D sg13g2_o21ai_1
*I *3205:Q O *D sg13g2_dfrbpq_1
*CAP
1 *3674:A 0
2 *2860:A1 0.000522311
3 *3205:Q 0
4 *789:23 0.00147075
5 *789:6 0.00199306
6 *2860:A1 *2860:A2 1.54008e-05
7 *2860:A1 *1144:28 8.93523e-05
8 *789:23 *791:21 0
9 *789:23 *792:8 0
10 *789:23 *801:25 0
11 s_axil_rdata[27] *789:23 0
12 s_axil_rdata[29] *789:23 0
13 s_axil_rdata[30] *789:23 0
14 *2852:A1 *789:23 0
15 *3205:CLK *2860:A1 0.000112426
16 *3672:A *789:23 0
17 *476:18 *2860:A1 0.000712014
18 *476:18 *789:23 0.001276
19 *483:10 *2860:A1 0
20 *488:20 *2860:A1 0
21 *488:20 *789:23 0
22 *704:43 *789:23 0
*RES
1 *3205:Q *789:6 40 
2 *789:6 *2860:A1 45.7989 
3 *789:6 *789:23 36.274 
4 *789:23 *3674:A 20 
*END

*D_NET *790 0.032281
*CONN
*I *2752:A1 I *D sg13g2_o21ai_1
*I *3675:A I *D sg13g2_buf_1
*I *3151:Q O *D sg13g2_dfrbpq_1
*CAP
1 *2752:A1 1.57766e-05
2 *3675:A 0
3 *3151:Q 0.000200877
4 *790:51 9.13768e-05
5 *790:38 0.00542629
6 *790:36 0.00542629
7 *790:34 0.001467
8 *790:26 0.00235441
9 *790:12 0.00116389
10 *2752:A1 *833:75 3.98456e-05
11 *2752:A1 *901:14 3.35737e-05
12 *790:12 *828:47 8.00376e-05
13 *790:12 *839:67 7.92789e-05
14 *790:12 *909:26 0.000279386
15 *790:26 *2760:B1 0.000209035
16 *790:26 *3169:RESET_B 0.000402682
17 *790:26 *795:14 8.00842e-05
18 *790:26 *795:26 0.000144872
19 *790:26 *833:58 0.000663338
20 *790:26 *839:44 1.54008e-05
21 *790:26 *1128:32 0
22 *790:34 *3091:D 4.77425e-05
23 *790:34 *3095:D 4.77425e-05
24 *790:34 *3169:RESET_B 0
25 *790:34 *795:26 0.00173034
26 *790:34 *909:38 0
27 *790:38 *2897:C 0.000859883
28 *790:38 *2951:D 0.000345105
29 *790:38 *2964:B1 0
30 *790:38 *3029:B 0
31 *790:38 *794:41 0
32 *790:38 *814:56 0
33 *790:38 *858:92 0.00029161
34 *790:38 *870:59 0
35 *790:38 *878:60 0.000534277
36 *790:38 *878:62 0.000316848
37 *790:38 *885:86 0.000125095
38 *790:38 *899:43 0
39 *790:38 *1121:52 0.000974945
40 *790:38 *1126:8 0.00104732
41 *790:38 *1126:18 0.000468823
42 *790:38 *1139:25 0.000130012
43 *3083:A *790:38 0
44 *259:10 *790:26 0
45 *305:12 *790:38 0.000507162
46 *356:46 *790:38 0
47 *375:20 *790:38 0.0026027
48 *375:30 *790:38 0.000237686
49 *501:8 *790:38 0.000345425
50 *510:8 *790:38 0.000559304
51 *546:20 *790:38 0.000237686
52 *554:8 *790:38 0
53 *559:10 *790:38 0
54 *657:10 *790:34 0
55 *660:8 *790:38 0.000125095
56 *697:11 *790:38 0
57 *721:48 *790:34 0
58 *752:34 *790:26 0
59 *752:34 *790:34 0.00228067
60 *756:32 *790:51 0.000146026
61 *766:55 *790:38 0
62 *778:25 *790:51 0.000146092
*RES
1 *3151:Q *790:12 42.1939 
2 *790:12 *790:26 49.5069 
3 *790:26 *790:34 37.4585 
4 *790:34 *790:36 20 
5 *790:36 *790:38 65.611 
6 *790:38 *3675:A 40 
7 *790:12 *790:51 40.9682 
8 *790:51 *2752:A1 40.224 
*END

*D_NET *791 0.00785322
*CONN
*I *3676:A I *D sg13g2_buf_1
*I *2864:A1 I *D sg13g2_o21ai_1
*I *3207:Q O *D sg13g2_dfrbpq_1
*CAP
1 *3676:A 0.000201538
2 *2864:A1 0
3 *3207:Q 0
4 *791:21 0.00149982
5 *791:12 0.000466599
6 *791:4 0.00176488
7 *3676:A *3677:A 0
8 *3676:A *792:12 0
9 *3676:A *801:25 0.000339245
10 *791:12 *842:24 2.20966e-05
11 *791:12 *1143:75 0.000564676
12 *791:12 *1144:28 0.00013507
13 *791:12 *1144:57 0.000371094
14 *791:21 *792:8 0.00023547
15 *791:21 *842:8 0
16 *791:21 *925:8 0.00012816
17 *791:21 *1139:62 0
18 s_axil_rdata[31] *791:21 0
19 *2866:A1 *791:21 0.000606694
20 *391:10 *791:12 4.77425e-05
21 *391:20 *791:12 0.000340704
22 *473:14 *791:21 0
23 *474:10 *791:21 0.000448428
24 *488:20 *791:21 0
25 *489:8 *791:21 0
26 *719:36 *791:21 0.00012816
27 *785:23 *791:12 0.000552831
28 *789:23 *791:21 0
*RES
1 *3207:Q *791:4 20 
2 *791:4 *791:12 46.3551 
3 *791:12 *2864:A1 20 
4 *791:4 *791:21 34.1934 
5 *791:21 *3676:A 42.266 
*END

*D_NET *792 0.00159792
*CONN
*I *3677:A I *D sg13g2_buf_1
*I *2868:A1 I *D sg13g2_o21ai_1
*I *3209:Q O *D sg13g2_dfrbpq_1
*CAP
1 *3677:A 2.24784e-05
2 *2868:A1 0.000140566
3 *3209:Q 0.000232756
4 *792:12 0.000371131
5 *792:8 0.000440841
6 *2868:A1 *3209:RESET_B 0
7 *3677:A *3209:RESET_B 0
8 *792:12 *2868:A2 0
9 s_axil_rdata[29] *792:8 7.45698e-05
10 s_axil_rdata[31] *792:8 0
11 *3209:CLK *792:12 8.01116e-05
12 *3676:A *3677:A 0
13 *3676:A *792:12 0
14 *789:23 *792:8 0
15 *791:21 *792:8 0.00023547
*RES
1 *3209:Q *792:8 42.8222 
2 *792:8 *792:12 22.266 
3 *792:12 *2868:A1 21.5862 
4 *792:12 *3677:A 20.3193 
*END

*D_NET *793 0.00684812
*CONN
*I *2839:B2 I *D sg13g2_a22oi_1
*I *3539:X O *D sg13g2_buf_1
*CAP
1 *2839:B2 0
2 *3539:X 0.000584312
3 *793:14 0.00212225
4 *793:8 0.00270656
5 *793:8 *2854:A1 0
6 *793:8 *798:10 0
7 *793:8 *804:8 0
8 *793:8 *830:40 8.01938e-05
9 *793:8 *830:51 0.000629359
10 *793:8 *849:14 0
11 *793:14 *961:8 0.000341292
12 *793:14 *1125:42 0
13 *2766:A1 *793:14 0
14 *3633:A *793:14 0
15 *3634:A *793:14 0
16 *467:8 *793:14 4.77425e-05
17 *723:102 *793:14 0
18 *728:42 *793:14 0
19 *731:42 *793:14 0
20 *770:10 *793:14 0.000336423
*RES
1 *3539:X *793:8 45.8463 
2 *793:8 *793:14 37.819 
3 *793:14 *2839:B2 20 
*END

*D_NET *794 0.0256432
*CONN
*I *3678:A I *D sg13g2_buf_1
*I *2756:A1 I *D sg13g2_o21ai_1
*I *3153:Q O *D sg13g2_dfrbpq_1
*CAP
1 *3678:A 8.9536e-05
2 *2756:A1 0
3 *3153:Q 0
4 *794:41 0.00526479
5 *794:39 0.00517526
6 *794:37 0.00276184
7 *794:16 0.000528964
8 *794:6 0.00329081
9 *3678:A *1001:8 0
10 *794:16 *3171:RESET_B 0
11 *794:16 *840:40 9.05293e-05
12 *794:37 *2790:A1 0.000144805
13 *794:37 *2790:A2 0
14 *794:37 *2790:B1 0.000726321
15 *794:37 *2798:A2 0.000176781
16 *794:37 *3102:B1 0
17 *794:37 *808:54 0.000112426
18 *794:37 *839:14 0
19 *794:37 *840:32 0
20 *794:37 *1129:33 0
21 *794:37 *1131:14 0
22 *794:41 *2897:C 0
23 *794:41 *2951:B 0
24 *794:41 *3084:A1 0
25 *794:41 *3108:B1 0
26 *794:41 *3680:A 0
27 *794:41 *796:34 0
28 *794:41 *806:48 0
29 *794:41 *806:52 0.000269894
30 *794:41 *806:66 0.0016379
31 *794:41 *813:51 0
32 *794:41 *861:92 0.000660896
33 *794:41 *864:82 0
34 *794:41 *900:41 0
35 *794:41 *900:52 0
36 *794:41 *1121:52 0
37 *2970:A2 *794:37 8.00842e-05
38 *2973:A *794:37 0
39 *3105:B *794:37 0
40 *3325:D *794:37 0
41 *3650:A *3678:A 0
42 *333:8 *794:41 0
43 *356:46 *794:41 0
44 *375:30 *794:41 0.000237975
45 *378:27 *794:41 0.000399198
46 *546:67 *794:37 0.000291765
47 *596:75 *794:41 0.00115319
48 *610:8 *794:41 0.000670648
49 *646:102 *794:41 0.000232778
50 *651:8 *794:41 0.000286947
51 *665:10 *794:37 0.000177306
52 *697:144 *794:37 0
53 *699:8 *794:16 0
54 *699:89 *794:37 0.00011236
55 *717:32 *794:16 0.000181279
56 *720:35 *794:16 0
57 *720:68 *794:16 0.00012816
58 *724:43 *794:37 0
59 *731:34 *794:16 0.000234224
60 *731:34 *794:37 0.000447183
61 *758:35 *794:37 7.93634e-05
62 *758:57 *794:37 0
63 *790:38 *794:41 0
*RES
1 *3153:Q *794:6 40 
2 *794:6 *794:16 45.3766 
3 *794:16 *2756:A1 40 
4 *794:6 *794:37 46.4409 
5 *794:37 *794:39 20 
6 *794:39 *794:41 55.2286 
7 *794:41 *3678:A 40.9682 
*END

*D_NET *795 0.0254276
*CONN
*I *2760:A1 I *D sg13g2_o21ai_1
*I *3679:A I *D sg13g2_buf_1
*I *3155:Q O *D sg13g2_dfrbpq_1
*CAP
1 *2760:A1 0
2 *3679:A 0
3 *3155:Q 0.000194142
4 *795:28 0.00524338
5 *795:26 0.00772457
6 *795:14 0.00252527
7 *795:10 0.000238221
8 *795:10 *833:29 2.14736e-05
9 *795:14 *2760:B1 0
10 *795:26 *2760:B1 0
11 *795:26 *3169:RESET_B 0
12 *795:26 *796:34 0.000614612
13 *795:26 *807:84 0
14 *795:26 *899:73 0.000589373
15 *795:26 *899:75 0.000288752
16 *795:28 *2900:A1 0
17 *795:28 *3680:A 0.000399041
18 *795:28 *796:34 0
19 *795:28 *814:75 0
20 *795:28 *824:24 0
21 *795:28 *900:18 0.000291458
22 *795:28 *908:16 0.000400239
23 *795:28 *908:37 0.0012088
24 *795:28 *1147:8 0
25 *2761:A1 *795:10 0
26 *3094:A2 *795:26 0.000758729
27 *336:8 *795:28 0
28 *407:28 *795:26 0
29 *550:8 *795:28 0
30 *556:8 *795:26 0
31 *559:10 *795:26 0
32 *569:10 *795:28 0.00029161
33 *596:59 *795:28 0.000447015
34 *602:8 *795:28 0.000291251
35 *653:16 *795:28 0.000233157
36 *721:48 *795:26 0.000533914
37 *731:8 *795:26 0.000560538
38 *733:14 *795:28 0.000616789
39 *790:26 *795:14 8.00842e-05
40 *790:26 *795:26 0.000144872
41 *790:34 *795:26 0.00173034
*RES
1 *3155:Q *795:10 41.442 
2 *795:10 *795:14 20.5356 
3 *795:14 *795:26 48.6649 
4 *795:26 *795:28 53.7454 
5 *795:28 *3679:A 40 
6 *795:14 *2760:A1 20 
*END

*D_NET *796 0.0251605
*CONN
*I *2764:A1 I *D sg13g2_o21ai_1
*I *3680:A I *D sg13g2_buf_1
*I *3157:Q O *D sg13g2_dfrbpq_1
*CAP
1 *2764:A1 0
2 *3680:A 0.000227404
3 *3157:Q 0.000129463
4 *796:53 0.000187562
5 *796:34 0.00513244
6 *796:32 0.00533755
7 *796:28 0.00123326
8 *796:14 0.00113817
9 *796:10 0.000279329
10 *796:28 *819:102 0
11 *796:28 *1129:25 0
12 *796:34 *3108:B1 0.000443136
13 *796:34 *818:102 0.000615018
14 *796:34 *900:12 0.000342032
15 *796:34 *900:18 0.000291566
16 *796:34 *900:30 0.000181903
17 *796:34 *900:41 0.000560213
18 *796:34 *900:52 0.000658454
19 *796:34 *908:16 0.000400753
20 *796:34 *908:37 0.00118637
21 *796:34 *908:43 0.000670315
22 *796:34 *908:54 0.000612747
23 *796:34 *908:69 0.000611866
24 s_axil_rdata[4] *3680:A 0.000129961
25 *333:8 *796:34 0.000393947
26 *552:8 *796:34 0.000343683
27 *569:10 *796:34 0.00029161
28 *596:59 *796:34 0.000447015
29 *596:75 *796:34 0
30 *602:8 *796:34 0.000291208
31 *646:31 *796:28 0.000176475
32 *653:16 *796:34 0.000233157
33 *697:105 *796:28 0
34 *720:25 *796:28 7.35518e-05
35 *720:25 *796:32 0
36 *733:14 *796:34 0.000616789
37 *755:23 *796:10 0
38 *755:23 *796:14 0
39 *755:23 *796:28 0
40 *758:57 *796:10 0.000112733
41 *758:57 *796:14 0
42 *758:57 *796:28 0.000175831
43 *758:57 *796:32 1.54556e-05
44 *768:12 *796:10 0
45 *768:12 *796:53 0.000605863
46 *794:41 *3680:A 0
47 *794:41 *796:34 0
48 *795:26 *796:34 0.000614612
49 *795:28 *3680:A 0.000399041
50 *795:28 *796:34 0
*RES
1 *3157:Q *796:10 41.3493 
2 *796:10 *796:14 21.4008 
3 *796:14 *796:28 47.7456 
4 *796:28 *796:32 24.2745 
5 *796:32 *796:34 54.7342 
6 *796:34 *3680:A 43.4608 
7 *796:14 *796:53 42.8222 
8 *796:53 *2764:A1 20 
*END

*D_NET *797 0.0200483
*CONN
*I *3681:A I *D sg13g2_buf_1
*I *2768:A1 I *D sg13g2_o21ai_1
*I *3159:Q O *D sg13g2_dfrbpq_1
*CAP
1 *3681:A 0
2 *2768:A1 0.000465006
3 *3159:Q 8.30232e-05
4 *797:33 0.00299377
5 *797:29 0.00468571
6 *797:23 0.00347136
7 *797:8 0.00232745
8 *2768:A1 *834:73 1.54008e-05
9 *2768:A1 *834:81 0
10 *797:23 *820:114 0
11 *797:29 *798:24 0
12 *797:29 *819:68 0
13 *797:29 *824:24 0
14 *797:29 *824:36 0
15 *797:29 *1130:10 0.0018221
16 *797:33 *2870:B 0
17 *797:33 *2900:A1 0
18 *797:33 *798:24 0
19 *797:33 *823:80 0
20 *797:33 *824:24 0
21 *797:33 *908:84 0
22 *460:16 *2768:A1 0
23 *496:104 *797:33 0.000340288
24 *511:8 *797:33 0
25 *646:84 *797:29 0.000283164
26 *646:94 *797:29 0
27 *697:135 *797:23 0
28 *700:36 *2768:A1 0
29 *710:68 *797:29 0.000444195
30 *731:42 *797:8 0
31 *732:33 *797:29 0
32 *746:8 *797:33 0
33 *759:54 *2768:A1 0
34 *762:8 *797:29 7.4563e-05
35 *762:22 *797:23 4.79447e-05
36 *762:31 *797:23 0.00211549
37 *762:35 *797:8 0.000111
38 *763:26 *797:33 0.000586165
39 *763:32 *797:33 0.000181694
*RES
1 *3159:Q *797:8 40.7519 
2 *797:8 *2768:A1 43.8213 
3 *797:8 *797:23 41.9493 
4 *797:23 *797:29 38.7151 
5 *797:29 *797:33 48.7782 
6 *797:33 *3681:A 20 
*END

*D_NET *798 0.0233543
*CONN
*I *2772:A1 I *D sg13g2_o21ai_1
*I *3682:A I *D sg13g2_buf_1
*I *3161:Q O *D sg13g2_dfrbpq_1
*CAP
1 *2772:A1 0
2 *3682:A 7.90207e-05
3 *3161:Q 0.00040252
4 *798:39 0.000314117
5 *798:24 0.0050669
6 *798:22 0.00767559
7 *798:10 0.00340434
8 *3682:A *1001:8 0
9 *798:22 *2800:A2 0.000112426
10 *798:22 *3159:RESET_B 0.000338646
11 *798:22 *3251:RESET_B 0.000144949
12 *798:22 *3407:A 0
13 *798:22 *830:33 0
14 *798:22 *834:38 0.000129573
15 *798:24 *2870:C 0
16 *798:24 *2950:A1 0
17 *798:24 *1130:10 0.0018221
18 *798:24 *1144:10 0
19 *798:24 *1144:28 0
20 *798:39 *829:8 0
21 *798:39 *845:8 0
22 *2766:A1 *798:39 0.000498072
23 *3175:CLK *798:22 0
24 *3253:D *798:22 0.0001775
25 *300:12 *798:24 0
26 *301:14 *798:24 0.000502169
27 *392:26 *798:22 0
28 *438:12 *798:22 8.0216e-05
29 *478:8 *798:10 0
30 *553:10 *798:24 0
31 *710:83 *798:24 0
32 *724:43 *798:22 0
33 *733:37 *798:10 8.94839e-05
34 *733:37 *798:22 0.000725706
35 *733:45 *798:39 0
36 *733:60 *798:10 0
37 *746:8 *798:24 0.000872356
38 *761:40 *798:24 0
39 *762:8 *798:24 0.0001261
40 *763:26 *798:24 0
41 *769:27 *798:22 0.000792462
42 *793:8 *798:10 0
43 *797:29 *798:24 0
44 *797:33 *798:24 0
*RES
1 *3161:Q *798:10 24.0479 
2 *798:10 *798:22 45.9148 
3 *798:22 *798:24 51.5206 
4 *798:24 *3682:A 40.7519 
5 *798:10 *798:39 43.3166 
6 *798:39 *2772:A1 20 
*END

*D_NET *799 0.0159666
*CONN
*I *2776:A1 I *D sg13g2_o21ai_1
*I *3683:A I *D sg13g2_buf_1
*I *3163:Q O *D sg13g2_dfrbpq_1
*CAP
1 *2776:A1 0
2 *3683:A 5.70239e-05
3 *3163:Q 0.000111264
4 *799:31 0.000287582
5 *799:16 0.00442442
6 *799:10 0.00510836
7 *799:6 0.00113981
8 *799:16 *3106:B1 0.000288816
9 *799:16 *800:18 0
10 *799:16 *800:22 0
11 *799:16 *1132:10 0.00124718
12 *799:31 *834:30 0
13 s_axil_rdata[10] *3683:A 0
14 *287:8 *799:16 0
15 *306:10 *799:10 0
16 *388:8 *799:16 0
17 *388:14 *799:16 0
18 *646:72 *799:16 0.000765039
19 *646:120 *799:16 0
20 *650:8 *799:16 0
21 *721:71 *799:31 0
22 *725:29 *799:6 0.000208878
23 *725:29 *799:10 0.00131018
24 *732:37 *799:10 0
25 *734:27 *799:6 0.000193477
26 *734:27 *799:10 0.00082454
27 *768:12 *799:16 0
*RES
1 *3163:Q *799:6 21.4008 
2 *799:6 *799:10 28.755 
3 *799:10 *799:16 44.7123 
4 *799:16 *3683:A 40.5356 
5 *799:6 *799:31 42.8222 
6 *799:31 *2776:A1 20 
*END

*D_NET *800 0.0158601
*CONN
*I *2780:A1 I *D sg13g2_o21ai_1
*I *3684:A I *D sg13g2_buf_1
*I *3165:Q O *D sg13g2_dfrbpq_1
*CAP
1 *2780:A1 0
2 *3684:A 0
3 *3165:Q 0.000146626
4 *800:33 0.000142901
5 *800:22 0.00185854
6 *800:18 0.00317265
7 *800:8 0.00160364
8 *800:8 *1132:31 0.000230444
9 *800:18 *3106:B1 0
10 *800:18 *1130:48 0
11 *800:18 *1132:10 0
12 *800:18 *1132:31 0.000755217
13 *800:22 *2736:B 0.000342035
14 *800:22 *2870:C 0
15 *800:22 *822:108 0.000234224
16 *800:22 *835:8 0
17 *800:22 *1001:12 0.000181279
18 *800:22 *1130:48 0
19 *2900:B1 *800:22 0.000502289
20 *287:8 *800:22 0
21 *388:8 *800:22 0.000585514
22 *388:14 *800:22 0.00331777
23 *509:8 *800:22 0.000287672
24 *713:80 *800:18 0
25 *722:58 *800:33 0.000654163
26 *726:10 *800:8 0
27 *726:10 *800:18 0
28 *744:41 *800:18 0
29 *751:10 *800:22 0.00119082
30 *772:27 *800:33 0.000654352
31 *799:16 *800:18 0
32 *799:16 *800:22 0
*RES
1 *3165:Q *800:8 21.751 
2 *800:8 *800:18 32.6793 
3 *800:18 *800:22 47.7894 
4 *800:22 *3684:A 20 
5 *800:8 *800:33 43.0694 
6 *800:33 *2780:A1 20 
*END

*D_NET *801 0.00985977
*CONN
*I *3685:A I *D sg13g2_buf_1
*I *2870:C I *D sg13g2_nand3b_1
*I *3211:Q O *D sg13g2_dfrbpq_1
*CAP
1 *3685:A 0
2 *2870:C 0.000446903
3 *3211:Q 0.000158304
4 *801:25 0.00297519
5 *801:21 0.00297519
6 *801:8 0.000605207
7 *2870:C *2870:B 1.54008e-05
8 *2870:C *3145:RESET_B 0
9 *801:25 *837:119 0
10 *801:25 *1001:8 0.000209637
11 s_axil_rdata[10] *801:25 0
12 s_axil_rdata[13] *801:25 0
13 s_axil_rdata[14] *801:25 0
14 s_axil_rdata[22] *801:25 0
15 s_axil_rdata[27] *801:25 0
16 s_axil_rdata[28] *801:25 0.000176127
17 s_axil_rdata[30] *801:25 0.000175644
18 s_axil_rdata[9] *801:8 0.000182216
19 s_axil_rdata[9] *801:25 0
20 s_axil_rvalid *801:25 4.75265e-05
21 *2870:A_N *2870:C 7.43486e-05
22 *3187:CLK *801:25 0
23 *3209:CLK *801:25 0
24 *3654:A *801:25 0
25 *3671:A *801:25 0
26 *3676:A *801:25 0.000339245
27 *702:46 *2870:C 0
28 *702:46 *801:25 0
29 *702:59 *2870:C 0
30 *704:58 *801:25 0
31 *704:68 *801:25 0
32 *763:32 *2870:C 0
33 *773:31 *801:25 0
34 *777:29 *801:25 0.00130198
35 *780:6 *801:25 0
36 *784:25 *801:25 0
37 *788:37 *801:25 0.000176861
38 *789:23 *801:25 0
39 *798:24 *2870:C 0
40 *800:22 *2870:C 0
*RES
1 *3211:Q *801:8 42.0806 
2 *801:8 *2870:C 44.0376 
3 *801:8 *801:21 20 
4 *801:21 *801:25 30.3971 
5 *801:25 *3685:A 20 
*END

*D_NET *802 0.00114277
*CONN
*I *3686:A I *D sg13g2_buf_1
*I *3347:X O *D sg13g2_buf_1
*CAP
1 *3686:A 0.000123688
2 *3347:X 0.000342822
3 *802:8 0.00046651
4 *3686:A *982:10 0
5 *3686:A *1025:12 0
6 *802:8 *1136:21 0
7 *170:8 *802:8 0
8 *347:8 *802:8 0
9 *709:44 *3686:A 0.000209746
*RES
1 *3347:X *802:8 43.811 
2 *802:8 *3686:A 41.4008 
*END

*D_NET *803 0.0160781
*CONN
*I *3005:A1 I *D sg13g2_o21ai_1
*I *3001:A1 I *D sg13g2_o21ai_1
*I *3133:A1 I *D sg13g2_o21ai_1
*I *3117:A1 I *D sg13g2_o21ai_1
*I *2981:A1 I *D sg13g2_o21ai_1
*I *3113:A1 I *D sg13g2_o21ai_1
*I *2989:A1 I *D sg13g2_o21ai_1
*I *3121:A1 I *D sg13g2_o21ai_1
*I *3376:X O *D sg13g2_buf_1
*CAP
1 *3005:A1 0
2 *3001:A1 0
3 *3133:A1 0
4 *3117:A1 0
5 *2981:A1 0
6 *3113:A1 4.84707e-05
7 *2989:A1 0
8 *3121:A1 0
9 *3376:X 7.14613e-05
10 *803:98 0.000931593
11 *803:81 0.00147327
12 *803:68 0.00117069
13 *803:57 0.000580536
14 *803:53 0.000529263
15 *803:38 0.000799562
16 *803:30 0.000792348
17 *803:20 0.00155054
18 *803:12 0.00109333
19 *803:8 0.000136301
20 *3113:A1 *3113:B1 0
21 *803:12 *808:29 8.0216e-05
22 *803:20 *3001:B1 0
23 *803:20 *3388:A 0.000994315
24 *803:30 *3339:RESET_B 0
25 *803:30 *884:27 0.000449703
26 *803:30 *1012:18 0.000240548
27 *803:38 *2730:A 0.000450307
28 *803:38 *862:10 0.000125527
29 *803:38 *885:10 0.000708806
30 *803:38 *890:36 0
31 *803:38 *1012:18 0
32 *803:53 *2730:A 4.78524e-05
33 *803:53 *885:153 7.30101e-05
34 *803:53 *890:36 0
35 *803:81 *3113:B1 0
36 *803:81 *862:93 0
37 *803:81 *862:108 0
38 *803:81 *891:14 0
39 *803:98 *3128:B 0
40 *803:98 *865:8 0
41 *803:98 *866:39 0
42 *803:98 *880:51 0
43 *803:98 *880:55 0
44 *803:98 *891:10 0.000371829
45 *803:98 *891:14 0
46 *2980:A *803:81 0.000500971
47 *2981:A2 *803:81 0.000112558
48 *2989:A2 *803:68 1.54008e-05
49 *3001:A2 *803:30 0.000370812
50 *3005:A2 *803:12 0.000112634
51 *3113:A2 *3113:A1 1.54008e-05
52 *3117:A2 *803:98 0.000176411
53 *3121:A2 *803:53 0.000144891
54 *3134:B *803:30 0
55 *351:10 *803:38 0
56 *351:14 *803:53 0.000804309
57 *354:12 *803:30 0.000394931
58 *354:32 *803:98 0
59 *355:24 *803:68 0.000566151
60 *359:28 *803:20 0
61 *359:28 *803:30 0
62 *573:12 *803:81 0.000144118
63 *580:22 *803:68 0
64 *580:22 *803:81 0
65 *580:22 *803:98 0
66 *671:102 *803:98 0
*RES
1 *3376:X *803:8 40.5974 
2 *803:8 *803:12 20.7519 
3 *803:12 *803:20 49.5378 
4 *803:20 *803:30 46.18 
5 *803:30 *803:38 44.1612 
6 *803:38 *3121:A1 20 
7 *803:38 *803:53 46.6126 
8 *803:53 *803:57 40 
9 *803:57 *2989:A1 20 
10 *803:57 *803:68 6.3963 
11 *803:68 *3113:A1 20.6695 
12 *803:68 *803:81 6.2933 
13 *803:81 *2981:A1 20 
14 *803:81 *803:98 48.2606 
15 *803:98 *3117:A1 20 
16 *803:30 *3133:A1 20 
17 *803:20 *3001:A1 20 
18 *803:12 *3005:A1 20 
*END

*D_NET *804 0.00702631
*CONN
*I *2843:B2 I *D sg13g2_a22oi_1
*I *3540:X O *D sg13g2_buf_1
*CAP
1 *2843:B2 0
2 *3540:X 0.000428407
3 *804:18 0.00237851
4 *804:8 0.00280692
5 *804:8 *827:10 0
6 *804:8 *845:91 0
7 *804:18 *2827:B1 0
8 *804:18 *2843:B1 0
9 *804:18 *2851:A2 0.000112426
10 *804:18 *848:25 0
11 *804:18 *852:24 0
12 *804:18 *946:20 0
13 *2767:A1 *804:8 3.15716e-05
14 *2827:A1 *804:18 0
15 *3539:A *804:8 0.000207854
16 *3648:A *804:18 0.00015642
17 *413:10 *804:8 0
18 *470:10 *804:18 8.00842e-05
19 *481:12 *804:18 0
20 *699:89 *804:8 0
21 *730:65 *804:18 0
22 *742:27 *804:18 0
23 *752:69 *804:18 0.000490114
24 *761:54 *804:18 0.000334001
25 *793:8 *804:8 0
*RES
1 *3540:X *804:8 43.7148 
2 *804:8 *804:18 39.57 
3 *804:18 *2843:B2 20 
*END

*D_NET *805 0.0127204
*CONN
*I *3137:A1 I *D sg13g2_o21ai_1
*I *3009:A1 I *D sg13g2_o21ai_1
*I *3125:A1 I *D sg13g2_o21ai_1
*I *3141:A1 I *D sg13g2_o21ai_1
*I *3376:A I *D sg13g2_buf_1
*I *3377:X O *D sg13g2_buf_1
*CAP
1 *3137:A1 0.000262504
2 *3009:A1 0
3 *3125:A1 0.000520288
4 *3141:A1 0
5 *3376:A 0
6 *3377:X 0.000181309
7 *805:60 0.000910648
8 *805:54 0.00109025
9 *805:37 0.00128891
10 *805:24 0.001007
11 *805:18 0.000552555
12 *805:12 0.000578391
13 *3137:A1 *861:22 0.000586514
14 *3137:A1 *885:22 0.000144635
15 *805:12 *861:22 0.000559728
16 *805:12 *873:31 0.000130676
17 *805:24 *3341:RESET_B 0
18 *805:24 *808:16 0
19 *805:24 *881:122 0
20 *805:37 *820:46 0
21 *805:37 *1120:46 0
22 *805:54 *3140:C 0
23 *805:54 *856:108 0.000144156
24 *805:54 *885:22 8.01224e-05
25 *805:54 *947:12 0.000112422
26 *805:60 *891:35 0.000392345
27 *805:60 *891:52 0.000157916
28 *805:60 *891:65 0.000105753
29 *805:60 *947:12 0
30 *3004:A *805:24 1.54008e-05
31 *3009:A2 *805:54 0.000435239
32 *3123:A2 *3125:A1 0
33 *3123:A2 *805:60 0
34 *3125:A2 *3125:A1 0.000112749
35 *3135:A2 *805:24 0
36 *3137:A2 *3137:A1 0.000144635
37 *3139:B1 *805:60 0
38 *3141:A2 *805:54 0.000144921
39 *3142:B *805:54 0
40 *357:22 *805:37 0.000566118
41 *571:125 *805:37 2.20966e-05
42 *671:29 *805:24 0
43 *671:29 *805:37 0.000631054
44 *690:8 *3137:A1 0.000340009
45 *690:8 *805:12 0.000579612
46 *724:8 *805:60 0
47 *758:25 *3125:A1 0.000922483
*RES
1 *3377:X *805:12 43.708 
2 *805:12 *805:18 41.4008 
3 *805:18 *805:24 23.6977 
4 *805:24 *3376:A 20 
5 *805:24 *805:37 47.0349 
6 *805:37 *3141:A1 20 
7 *805:37 *805:54 7.3898 
8 *805:54 *805:60 44.5526 
9 *805:60 *3125:A1 26.1594 
10 *805:54 *3009:A1 20 
11 *805:12 *3137:A1 43.7904 
*END

*D_NET *806 0.0144478
*CONN
*I *3080:A1 I *D sg13g2_o21ai_1
*I *3084:A1 I *D sg13g2_o21ai_1
*I *2976:A1 I *D sg13g2_o21ai_1
*I *2956:A1 I *D sg13g2_o21ai_1
*I *2952:A1 I *D sg13g2_o21ai_1
*I *2972:A1 I *D sg13g2_o21ai_1
*I *2968:A1 I *D sg13g2_o21ai_1
*I *2948:A1 I *D sg13g2_o21ai_1
*I *3378:X O *D sg13g2_buf_1
*CAP
1 *3080:A1 2.90123e-05
2 *3084:A1 0.000155263
3 *2976:A1 8.41447e-05
4 *2956:A1 6.08676e-05
5 *2952:A1 9.42337e-05
6 *2972:A1 0
7 *2968:A1 0
8 *2948:A1 0
9 *3378:X 2.92417e-05
10 *806:91 0.00027068
11 *806:66 0.00107731
12 *806:52 0.00129488
13 *806:48 0.000279522
14 *806:46 0.001055
15 *806:37 0.00112591
16 *806:33 0.000672951
17 *806:25 0.000562915
18 *806:16 0.000329183
19 *806:6 0.000416883
20 *2956:A1 *819:66 0.000112426
21 *3080:A1 *3443:A 4.77425e-05
22 *3084:A1 *861:92 0.000267468
23 *3084:A1 *900:41 0.000345425
24 *806:6 *3079:C 3.23417e-05
25 *806:16 *3079:C 8.00842e-05
26 *806:16 *3378:A 0
27 *806:16 *3444:A 0.000234224
28 *806:16 *898:46 0.000710211
29 *806:25 *3443:A 0.000285865
30 *806:25 *3444:A 0.000287256
31 *806:33 *820:76 0
32 *806:33 *820:97 0
33 *806:37 *2968:B1 0
34 *806:46 *3083:C 0
35 *806:46 *819:66 0
36 *806:46 *820:97 0
37 *806:46 *864:48 0
38 *806:46 *864:63 0
39 *806:46 *864:78 0
40 *806:48 *861:92 0.000232459
41 *806:48 *900:12 0.000234401
42 *806:48 *900:30 0.00010444
43 *806:66 *2972:B1 1.54285e-05
44 *806:66 *3104:B1 0
45 *806:66 *3261:RESET_B 4.77537e-05
46 *806:66 *885:119 0
47 *806:91 *861:92 0.000162602
48 *806:91 *900:30 7.57253e-05
49 *806:91 *900:41 0.000107782
50 *2948:A2 *806:16 4.77425e-05
51 *2952:A2 *2952:A1 0.000144389
52 *2955:A *806:46 8.01938e-05
53 *2956:A2 *2952:A1 0
54 *2956:A2 *2956:A1 0.000112535
55 *2966:B1 *806:46 0
56 *2972:A2 *806:66 1.54008e-05
57 *3078:B1 *806:33 0
58 *3080:A2 *3080:A1 1.54008e-05
59 *3084:A2 *3084:A1 0.000112426
60 *3104:A2 *806:66 0.000209203
61 *3:30 *806:37 0
62 *552:8 *806:66 0
63 *563:10 *806:33 0
64 *564:12 *806:46 0
65 *647:8 *806:33 7.34121e-05
66 *707:49 *806:16 4.77425e-05
67 *725:25 *806:37 0
68 *725:25 *806:46 0
69 *732:25 *806:46 0.000629901
70 *758:57 *806:66 0.000130055
71 *794:41 *3084:A1 0
72 *794:41 *806:48 0
73 *794:41 *806:52 0.000269894
74 *794:41 *806:66 0.0016379
*RES
1 *3378:X *806:6 20.3193 
2 *806:6 *806:16 44.1715 
3 *806:16 *2948:A1 20 
4 *806:6 *806:25 21.339 
5 *806:25 *806:33 45.0573 
6 *806:33 *806:37 21.8334 
7 *806:37 *2968:A1 20 
8 *806:37 *806:46 28.6017 
9 *806:46 *806:48 1.5862 
10 *806:48 *806:52 1.6583 
11 *806:52 *806:66 32.5454 
12 *806:66 *2972:A1 20 
13 *806:52 *2952:A1 40.9682 
14 *806:48 *2956:A1 40.7519 
15 *806:46 *806:91 0.8446 
16 *806:91 *2976:A1 40.7519 
17 *806:91 *3084:A1 42.3381 
18 *806:25 *3080:A1 40.3193 
*END

*D_NET *807 0.0166964
*CONN
*I *2964:A1 I *D sg13g2_o21ai_1
*I *3092:A1 I *D sg13g2_o21ai_1
*I *3096:A1 I *D sg13g2_o21ai_1
*I *2960:A1 I *D sg13g2_o21ai_1
*I *2985:A1 I *D sg13g2_o21ai_1
*I *2997:A1 I *D sg13g2_o21ai_1
*I *3129:A1 I *D sg13g2_o21ai_1
*I *2993:A1 I *D sg13g2_o21ai_1
*I *3379:X O *D sg13g2_buf_1
*CAP
1 *2964:A1 0.000408339
2 *3092:A1 0.000272687
3 *3096:A1 0
4 *2960:A1 0
5 *2985:A1 0.000219782
6 *2997:A1 0
7 *3129:A1 0
8 *2993:A1 0
9 *3379:X 0.000103212
10 *807:91 0.000316909
11 *807:84 0.000496872
12 *807:76 0.0011262
13 *807:70 0.000993443
14 *807:68 0.00100029
15 *807:51 0.00176322
16 *807:37 0.000512234
17 *807:27 0.000569396
18 *807:23 0.0012937
19 *807:12 0.000769292
20 *807:8 0.000179109
21 *2964:A1 *2964:B1 0.000130061
22 *2964:A1 *855:73 0
23 *2964:A1 *879:40 0
24 *2985:A1 *909:38 4.79124e-05
25 *3092:A1 *3092:B1 0
26 *3092:A1 *909:38 0
27 *807:8 *2992:C 0.000235345
28 *807:8 *856:73 0
29 *807:8 *892:23 0
30 *807:8 *892:34 0
31 *807:12 *883:61 0
32 *807:23 *3379:A 0
33 *807:23 *879:14 0
34 *807:23 *883:61 0
35 *807:23 *892:81 0.000496501
36 *807:23 *898:33 0.000422884
37 *807:23 *898:46 0.00113642
38 *807:23 *1137:20 0
39 *807:27 *892:81 0.000229428
40 *807:27 *898:33 0.000230844
41 *807:37 *892:93 0.000713588
42 *807:51 *2985:B1 0
43 *807:51 *818:52 0
44 *807:51 *865:72 0
45 *807:68 *2959:B 0
46 *807:68 *865:72 0.000921182
47 *807:68 *879:40 8.03692e-05
48 *807:68 *879:42 0.000129116
49 *807:68 *885:78 0
50 *807:68 *885:80 0
51 *807:68 *898:8 0
52 *807:76 *909:38 0
53 *807:84 *899:75 0
54 *807:91 *909:38 0
55 *2960:A2 *807:84 8.00842e-05
56 *2964:A2 *2964:A1 0.000176127
57 *2985:A2 *2985:A1 0.000209863
58 *2985:A2 *807:51 0
59 *2985:A2 *807:68 0
60 *2993:A2 *807:12 0.000112558
61 *2993:A2 *807:23 1.54008e-05
62 *2994:B *807:23 0
63 *2997:A2 *807:37 0.000177203
64 *3096:A2 *807:76 0.000274132
65 *3096:A2 *807:91 6.48861e-05
66 *3265:CLK *807:37 0.000112558
67 *571:43 *807:37 0
68 *571:43 *807:51 0
69 *571:62 *2985:A1 0
70 *571:62 *807:51 0.00017691
71 *660:8 *2964:A1 0
72 *660:8 *807:76 0
73 *661:20 *3092:A1 0.00024211
74 *671:117 *807:37 0
75 *721:10 *807:37 0
76 *721:28 *807:76 0
77 *721:34 *807:84 0
78 *752:24 *807:76 0
79 *752:24 *807:84 0
80 *752:34 *807:84 8.00842e-05
81 *757:33 *2964:A1 0.000176127
82 *795:26 *807:84 0
*RES
1 *3379:X *807:8 41.339 
2 *807:8 *807:12 20.7519 
3 *807:12 *2993:A1 20 
4 *807:12 *807:23 29.1052 
5 *807:23 *807:27 21.0918 
6 *807:27 *807:37 45.7474 
7 *807:37 *3129:A1 20 
8 *807:27 *2997:A1 20 
9 *807:23 *807:51 24.8616 
10 *807:51 *2985:A1 22.2454 
11 *807:51 *807:68 49.1979 
12 *807:68 *807:70 20 
13 *807:70 *807:76 24.8101 
14 *807:76 *807:84 43.8522 
15 *807:84 *2960:A1 20 
16 *807:76 *807:91 0.5356 
17 *807:91 *3096:A1 20 
18 *807:91 *3092:A1 23.1106 
19 *807:70 *2964:A1 44.2539 
*END

*D_NET *808 0.0200831
*CONN
*I *3378:A I *D sg13g2_buf_1
*I *3104:A1 I *D sg13g2_o21ai_1
*I *3379:A I *D sg13g2_buf_1
*I *3377:A I *D sg13g2_buf_1
*I *3380:X O *D sg13g2_buf_1
*CAP
1 *3378:A 0.000629977
2 *3104:A1 0
3 *3379:A 0.000280472
4 *3377:A 0
5 *3380:X 2.89281e-05
6 *808:54 0.000242408
7 *808:46 0.00206021
8 *808:31 0.00228777
9 *808:29 0.00295884
10 *808:16 0.000371121
11 *808:6 0.00253942
12 *3378:A *3443:A 0.000212127
13 *3378:A *3444:A 0.00012816
14 *3378:A *879:8 0.00156234
15 *3378:A *898:46 0
16 *3379:A *879:14 0.000181192
17 *3379:A *898:46 0
18 *808:16 *3004:C 0
19 *808:16 *881:103 0
20 *808:16 *881:122 0
21 *808:29 *3003:A1 0
22 *808:29 *856:85 0.000565752
23 *808:31 *879:8 0.000106064
24 *808:31 *879:14 0.000395811
25 *808:31 *898:46 0
26 *808:46 *2972:B1 0
27 *808:46 *3104:B1 0
28 *808:46 *879:23 0
29 *808:46 *885:100 0
30 *808:46 *962:10 0.000112569
31 *2972:A2 *808:46 0
32 *2993:A2 *3379:A 0
33 *2994:B *3379:A 0
34 *3003:B1 *808:29 0
35 *3005:A2 *808:6 0
36 *3005:A2 *808:16 0.000320094
37 *3005:A2 *808:29 0
38 *3006:B *808:29 0
39 *3104:A2 *808:54 1.54008e-05
40 *3335:CLK *808:29 0
41 *314:10 *808:29 0
42 *345:14 *808:16 0.000145018
43 *357:28 *808:29 0
44 *546:52 *808:54 0.000560796
45 *549:8 *3378:A 0.000288173
46 *571:125 *808:29 0
47 *671:29 *808:16 0
48 *671:29 *808:29 0.0012778
49 *720:25 *3379:A 0.000339185
50 *720:25 *808:46 0
51 *758:25 *808:29 0.00228083
52 *758:57 *808:46 0
53 *794:37 *808:54 0.000112426
54 *803:12 *808:29 8.0216e-05
55 *805:24 *808:16 0
56 *806:16 *3378:A 0
57 *807:23 *3379:A 0
*RES
1 *3380:X *808:6 20.3502 
2 *808:6 *808:16 43.399 
3 *808:16 *3377:A 20 
4 *808:6 *808:29 43.484 
5 *808:29 *808:31 2.3278 
6 *808:31 *3379:A 43.1106 
7 *808:31 *808:46 36.1092 
8 *808:46 *808:54 43.3269 
9 *808:54 *3104:A1 20 
10 *808:29 *3378:A 48.2606 
*END

*D_NET *809 0.0143161
*CONN
*I *3051:A1 I *D sg13g2_o21ai_1
*I *3047:A1 I *D sg13g2_o21ai_1
*I *2927:A1 I *D sg13g2_o21ai_1
*I *2919:A1 I *D sg13g2_o21ai_1
*I *2923:A1 I *D sg13g2_o21ai_1
*I *3055:A1 I *D sg13g2_o21ai_1
*I *2931:A1 I *D sg13g2_o21ai_1
*I *2915:A1 I *D sg13g2_o21ai_1
*I *3381:X O *D sg13g2_buf_1
*CAP
1 *3051:A1 0.000103862
2 *3047:A1 0.000150776
3 *2927:A1 9.72936e-05
4 *2919:A1 0.00012039
5 *2923:A1 0.00025746
6 *3055:A1 0
7 *2931:A1 3.06411e-05
8 *2915:A1 0
9 *3381:X 0.000554704
10 *809:108 0.000463028
11 *809:54 0.000393792
12 *809:46 0.00104888
13 *809:31 0.00111776
14 *809:20 0.00090149
15 *809:14 0.000437314
16 *809:12 0.000542903
17 *809:10 0.000686998
18 *2919:A1 *1060:18 0.000207843
19 *2923:A1 *861:59 0.000262451
20 *2927:A1 *2927:B1 0
21 *2927:A1 *3569:A 0.000144491
22 *2927:A1 *1075:26 0
23 *3047:A1 *3576:A 0
24 *3047:A1 *1031:8 4.70394e-05
25 *809:10 *2718:A 1.54008e-05
26 *809:10 *886:76 0.000269143
27 *809:12 *867:49 0.000346091
28 *809:12 *886:10 0.00018112
29 *809:12 *886:16 0.000396486
30 *809:12 *886:76 0.000130162
31 *809:12 *894:62 0.00136498
32 *809:14 *2919:B1 0.000279156
33 *809:14 *894:62 0.000103552
34 *809:20 *2919:B1 0.000124547
35 *809:20 *861:34 7.48842e-05
36 *809:20 *1079:18 0.000207843
37 *809:31 *3600:A 0
38 *809:31 *861:59 0
39 *809:31 *891:81 0
40 *809:31 *1079:18 7.99664e-05
41 *809:31 *1119:10 7.91362e-05
42 *809:46 *861:59 0.000305186
43 *809:46 *891:71 0
44 *809:46 *1121:10 0
45 *809:54 *867:102 0
46 *809:54 *894:23 0
47 *809:108 *2718:A 0.000143171
48 *809:108 *1120:10 0
49 *2915:A2 *809:20 0.000207843
50 *2919:A2 *2919:A1 0.000207677
51 *2923:A2 *2923:A1 7.18392e-05
52 *2923:A2 *809:46 0
53 *2925:A2 *809:31 0
54 *2927:A2 *2927:A1 7.34141e-06
55 *3045:A2 *809:108 0
56 *3048:A *809:108 0
57 *3051:A2 *3051:A1 0.000144361
58 *3056:A *809:54 4.77425e-05
59 *356:10 *809:20 0
60 *356:22 *809:46 0
61 *368:6 *809:10 4.75166e-05
62 *368:6 *809:108 0.000400677
63 *368:16 *3047:A1 0
64 *368:16 *809:10 7.85947e-05
65 *492:20 *809:108 0.000234931
66 *521:10 *809:46 0
67 *523:10 *809:12 0.000107631
68 *523:10 *809:14 0.000361235
69 *523:10 *809:20 0.000282079
70 *529:8 *809:54 0.000446711
71 *535:12 *809:31 0
72 *623:10 *3047:A1 0
73 *628:8 *809:54 0
*RES
1 *3381:X *809:10 42.0909 
2 *809:10 *809:12 6.5302 
3 *809:12 *809:14 1.8334 
4 *809:14 *809:20 22.7398 
5 *809:20 *2915:A1 20 
6 *809:20 *809:31 6.3304 
7 *809:31 *2931:A1 20.3502 
8 *809:31 *809:46 43.8831 
9 *809:46 *809:54 44.3775 
10 *809:54 *3055:A1 20 
11 *809:46 *2923:A1 23.1904 
12 *809:14 *2919:A1 41.4008 
13 *809:12 *2927:A1 40.9682 
14 *809:10 *3047:A1 41.2849 
15 *3381:X *809:108 43.7904 
16 *809:108 *3051:A1 40.9682 
*END

*D_NET *810 0.0039389
*CONN
*I *3071:A1 I *D sg13g2_o21ai_1
*I *2939:A1 I *D sg13g2_o21ai_1
*I *2935:A1 I *D sg13g2_o21ai_1
*I *2943:A1 I *D sg13g2_o21ai_1
*I *3382:X O *D sg13g2_buf_1
*CAP
1 *3071:A1 7.00177e-05
2 *2939:A1 0
3 *2935:A1 0.000253791
4 *2943:A1 0.000544555
5 *3382:X 5.08741e-05
6 *810:12 0.000964044
7 *810:10 0.000262255
8 *810:8 0.000217448
9 *2935:A1 *861:59 0
10 *2935:A1 *883:100 0
11 *2935:A1 *895:12 7.99451e-05
12 *2935:A1 *895:23 7.99451e-05
13 *3071:A1 *2937:A1 0
14 *3071:A1 *895:23 0.000212543
15 *810:8 *873:80 8.00842e-05
16 *810:10 *2937:A1 0
17 *810:10 *895:23 0.00032018
18 *810:12 *2937:A1 0
19 *810:12 *895:23 0.000446855
20 *2935:A2 *2935:A1 1.53311e-05
21 *521:64 *2943:A1 0.000341031
22 *521:100 *2943:A1 0
23 *544:14 *2943:A1 0
24 *544:14 *810:12 0
*RES
1 *3382:X *810:8 40.5356 
2 *810:8 *810:10 1.5862 
3 *810:10 *810:12 2.3278 
4 *810:12 *2943:A1 45.047 
5 *810:12 *2935:A1 42.266 
6 *810:10 *2939:A1 40 
7 *810:8 *3071:A1 41.0918 
*END

*D_NET *811 0.0165148
*CONN
*I *3382:A I *D sg13g2_buf_1
*I *3075:A1 I *D sg13g2_o21ai_1
*I *3067:A1 I *D sg13g2_o21ai_1
*I *3063:A1 I *D sg13g2_o21ai_1
*I *3059:A1 I *D sg13g2_o21ai_1
*I *3381:A I *D sg13g2_buf_1
*I *3383:X O *D sg13g2_buf_1
*CAP
1 *3382:A 0.000129843
2 *3075:A1 0
3 *3067:A1 0
4 *3063:A1 0
5 *3059:A1 0
6 *3381:A 0
7 *3383:X 0.000666362
8 *811:92 0.00144756
9 *811:77 0.00134147
10 *811:70 0.000123971
11 *811:62 0.00073087
12 *811:55 0.000130076
13 *811:47 0.00113224
14 *811:26 0.000151401
15 *811:16 0.000692769
16 *811:8 0.000788712
17 *3382:A *3071:A2 0
18 *3382:A *873:80 0.000209615
19 *811:8 *3303:RESET_B 0
20 *811:8 *886:97 0
21 *811:16 *886:76 0.00163511
22 *811:16 *895:81 0
23 *811:26 *2718:A 4.78359e-05
24 *811:26 *868:29 8.09822e-05
25 *811:26 *1036:12 7.30101e-05
26 *811:47 *2721:A 0
27 *811:47 *2724:A 0
28 *811:47 *3057:A1 0
29 *811:47 *821:115 0
30 *811:47 *886:97 7.9225e-05
31 *811:55 *3074:C 4.78685e-05
32 *811:55 *1043:8 0.000234936
33 *811:55 *1122:14 0
34 *811:62 *821:115 0
35 *811:70 *895:42 0
36 *811:70 *895:57 0
37 *811:77 *3075:A2 1.54008e-05
38 *811:92 *3075:A2 0.000134052
39 *811:92 *825:53 0.000124547
40 *811:92 *877:34 0.000554907
41 *811:92 *877:40 0.00167397
42 *811:92 *895:38 0
43 *3058:A *811:8 0
44 *3059:A2 *811:8 1.54008e-05
45 *3059:A2 *811:16 0.000176592
46 *3060:A *811:8 0
47 *3060:A *811:47 0.000143171
48 *3060:B *811:8 0
49 *3065:A2 *811:92 0
50 *3067:A2 *811:70 4.77425e-05
51 *323:12 *811:26 4.77425e-05
52 *328:10 *811:92 0
53 *368:31 *811:8 0
54 *368:31 *811:16 0.00168721
55 *372:16 *811:62 0.000501212
56 *372:16 *811:77 3.24568e-05
57 *372:16 *811:92 0.000129135
58 *374:18 *811:70 4.77425e-05
59 *374:18 *811:92 0
60 *377:6 *811:47 0.000208631
61 *377:6 *811:62 0
62 *377:6 *811:92 0
63 *493:20 *811:16 0.00012927
64 *544:14 *811:92 0
65 *621:70 *811:55 0.000340762
66 *621:87 *811:62 4.79017e-05
67 *621:100 *811:62 0.000226682
68 *637:8 *811:92 0
69 *638:8 *811:70 0.000285109
70 *645:8 *811:70 0.000128247
71 *697:204 *811:92 0
72 *708:82 *811:26 7.30101e-05
*RES
1 *3383:X *811:8 22.4926 
2 *811:8 *811:16 49.9395 
3 *811:16 *811:26 41.854 
4 *811:26 *3381:A 20 
5 *811:8 *3059:A1 20 
6 *3383:X *811:47 24.017 
7 *811:47 *811:55 41.9055 
8 *811:55 *3063:A1 20 
9 *811:47 *811:62 5.7268 
10 *811:62 *811:70 41.6583 
11 *811:70 *3067:A1 20 
12 *811:62 *811:77 0.3193 
13 *811:77 *3075:A1 20 
14 *811:77 *811:92 36.1401 
15 *811:92 *3382:A 41.4008 
*END

*D_NET *812 0.0113529
*CONN
*I *3034:A1 I *D sg13g2_o21ai_1
*I *3022:A1 I *D sg13g2_o21ai_1
*I *3026:A1 I *D sg13g2_o21ai_1
*I *2894:A1 I *D sg13g2_o21ai_1
*I *2902:A1 I *D sg13g2_o21ai_1
*I *2910:A1 I *D sg13g2_o21ai_1
*I *3014:A1 I *D sg13g2_o21ai_1
*I *2890:A1 I *D sg13g2_o21ai_1
*I *3384:X O *D sg13g2_buf_1
*CAP
1 *3034:A1 0.000627561
2 *3022:A1 3.72666e-05
3 *3026:A1 3.34444e-05
4 *2894:A1 4.05719e-05
5 *2902:A1 0
6 *2910:A1 0
7 *3014:A1 0.000190097
8 *2890:A1 0.000343487
9 *3384:X 3.13338e-05
10 *812:59 0.000372522
11 *812:44 0.000372522
12 *812:33 0.000702366
13 *812:16 0.00090772
14 *812:14 0.000401035
15 *812:12 0.000393166
16 *812:10 0.000199675
17 *812:6 0.00077008
18 *2890:A1 *2890:B1 0.000340288
19 *2890:A1 *858:10 0
20 *2890:A1 *858:32 0
21 *2890:A1 *896:70 0.000181192
22 *2894:A1 *2894:B1 0
23 *3014:A1 *2902:B1 0.000179542
24 *3034:A1 *3394:A 0
25 *3034:A1 *813:27 0
26 *3034:A1 *823:6 0
27 *3034:A1 *897:20 4.77425e-05
28 *3034:A1 *1145:14 0
29 *812:10 *3022:B1 0.000106392
30 *812:12 *3022:B1 0.000266492
31 *812:14 *3022:B1 0.00110913
32 *812:14 *814:12 0
33 *812:14 *825:67 0
34 *812:16 *3022:B1 0.000128527
35 *812:16 *814:12 0
36 *812:16 *896:70 5.30319e-05
37 *812:33 *872:69 0
38 *812:59 *2902:B1 0
39 *812:59 *3037:B 5.15366e-05
40 *812:59 *872:63 0.000287846
41 *812:59 *888:74 0
42 *2890:A2 *2890:A1 8.02102e-05
43 *2910:A2 *812:59 1.54008e-05
44 *3020:A2 *3034:A1 8.02431e-05
45 *3026:A2 *3026:A1 4.77425e-05
46 *3027:A *3034:A1 0
47 *3034:A2 *3034:A1 0.000209505
48 *3386:A *3034:A1 0.000242182
49 *3386:A *812:6 4.77425e-05
50 *372:20 *812:33 0
51 *376:18 *812:10 0
52 *378:14 *812:59 0
53 *379:22 *2890:A1 0
54 *507:10 *812:14 0.000176396
55 *507:10 *812:16 7.48178e-05
56 *508:10 *2890:A1 0.000497577
57 *508:10 *812:16 2.14736e-05
58 *513:10 *812:59 7.30101e-05
59 *520:16 *3014:A1 0.000446352
60 *596:30 *3034:A1 0
61 *604:10 *812:10 7.51285e-05
62 *604:10 *812:12 0.000288087
63 *604:10 *812:14 0.000390334
64 *605:8 *812:10 0.000124859
65 *711:12 *3014:A1 0
66 *711:18 *3014:A1 0.000287256
*RES
1 *3384:X *812:6 20.3193 
2 *812:6 *812:10 21.339 
3 *812:10 *812:12 1.339 
4 *812:12 *812:14 5.2942 
5 *812:14 *812:16 0.8446 
6 *812:16 *2890:A1 44.3775 
7 *812:16 *812:33 45.9431 
8 *812:33 *3014:A1 42.8222 
9 *812:33 *812:44 20 
10 *812:44 *2910:A1 20 
11 *812:44 *812:59 42.7246 
12 *812:59 *2902:A1 20 
13 *812:14 *2894:A1 40.3193 
14 *812:12 *3026:A1 40.3193 
15 *812:10 *3022:A1 40.3193 
16 *812:6 *3034:A1 26.6435 
*END

*D_NET *813 0.015369
*CONN
*I *3030:A1 I *D sg13g2_o21ai_1
*I *3018:A1 I *D sg13g2_o21ai_1
*I *2898:A1 I *D sg13g2_o21ai_1
*I *2906:A1 I *D sg13g2_o21ai_1
*I *2886:A1 I *D sg13g2_o21ai_1
*I *3038:A1 I *D sg13g2_o21ai_1
*I *3042:A1 I *D sg13g2_o21ai_1
*I *3384:A I *D sg13g2_buf_1
*I *3385:X O *D sg13g2_buf_1
*CAP
1 *3030:A1 6.13589e-05
2 *3018:A1 7.14194e-05
3 *2898:A1 0.000231983
4 *2906:A1 0.000821141
5 *2886:A1 0.000136743
6 *3038:A1 0
7 *3042:A1 0
8 *3384:A 0
9 *3385:X 2.77263e-05
10 *813:55 0.0011483
11 *813:53 0.000574667
12 *813:51 0.00043056
13 *813:49 0.00108817
14 *813:38 0.00120774
15 *813:27 0.00114645
16 *813:16 0.000309923
17 *813:6 0.00109629
18 *2886:A1 *908:43 0.00018387
19 *2886:A1 *1134:27 0.000112426
20 *2906:A1 *2885:B 0
21 *2906:A1 *3281:RESET_B 0
22 *2906:A1 *823:52 0
23 *2906:A1 *875:82 8.02105e-05
24 *2906:A1 *1134:27 0
25 *3030:A1 *3030:A2 0.000112426
26 *3030:A1 *1143:48 0.000112426
27 *813:16 *3026:B1 0
28 *813:16 *825:67 0.000441305
29 *813:16 *1136:25 0
30 *813:27 *3026:B1 0
31 *813:27 *814:10 4.77425e-05
32 *813:27 *897:20 0
33 *813:27 *1145:37 0
34 *813:38 *3038:B1 0
35 *813:38 *897:16 0.000370934
36 *813:38 *1145:37 0
37 *813:38 *1148:37 0.000436239
38 *813:49 *823:63 0
39 *813:49 *823:69 0
40 *813:49 *908:69 0.000130012
41 *813:49 *1148:37 0.000743125
42 *813:51 *908:54 0.000127455
43 *813:51 *908:69 0.000483864
44 *813:53 *908:54 0.000400239
45 *813:55 *908:43 0.000400904
46 *813:55 *908:54 0.000107631
47 *2886:A2 *2886:A1 0.000112535
48 *2898:A2 *2898:A1 0.000436418
49 *2898:A2 *2906:A1 0
50 *2903:B *2898:A1 0.000436418
51 *2906:A2 *2906:A1 1.54556e-05
52 *3018:A2 *3018:A1 0.000112426
53 *3034:A1 *813:27 0
54 *3281:D *2906:A1 0.000176543
55 *3386:A *813:16 0
56 *3386:A *813:27 0
57 *378:14 *2906:A1 0
58 *517:10 *2906:A1 0
59 *596:75 *813:49 0.000810228
60 *596:75 *813:51 0.00018387
61 *599:10 *2906:A1 0
62 *608:8 *813:16 0.000441805
63 *794:41 *813:51 0
*RES
1 *3385:X *813:6 20.3502 
2 *813:6 *813:16 43.8007 
3 *813:16 *3384:A 20 
4 *813:6 *813:27 7.0452 
5 *813:27 *3042:A1 20 
6 *813:27 *813:38 4.4496 
7 *813:38 *3038:A1 20 
8 *813:38 *813:49 28.8889 
9 *813:49 *813:51 2.8222 
10 *813:51 *813:53 1.8334 
11 *813:53 *813:55 2.3278 
12 *813:55 *2886:A1 41.5965 
13 *813:55 *2906:A1 47.9413 
14 *813:53 *2898:A1 42.9149 
15 *813:51 *3018:A1 40.7519 
16 *813:49 *3030:A1 40.7519 
*END

*D_NET *814 0.0167129
*CONN
*I *3385:A I *D sg13g2_buf_1
*I *3108:A1 I *D sg13g2_o21ai_1
*I *3100:A1 I *D sg13g2_o21ai_1
*I *3088:A1 I *D sg13g2_o21ai_1
*I *2882:A1 I *D sg13g2_o21ai_1
*I *3386:X O *D sg13g2_buf_1
*CAP
1 *3385:A 0
2 *3108:A1 0
3 *3100:A1 0
4 *3088:A1 3.77166e-05
5 *2882:A1 0.000319264
6 *3386:X 0.000101156
7 *814:75 0.000556198
8 *814:60 0.000634646
9 *814:56 0.000641073
10 *814:35 0.00131415
11 *814:31 0.0017625
12 *814:12 0.00264253
13 *814:10 0.00137573
14 *2882:A1 *2882:B1 0
15 *2882:A1 *873:80 0.000306244
16 *2882:A1 *898:86 0
17 *814:10 *825:67 0
18 *814:12 *824:18 0
19 *814:12 *825:67 0
20 *814:12 *883:110 0.00071243
21 *814:31 *908:22 4.77425e-05
22 *814:31 *1141:33 0.000112651
23 *814:35 *3088:B1 0.00151427
24 *814:56 *872:44 0
25 *814:75 *3100:B1 0
26 *2879:C *814:12 0
27 *3100:A2 *814:60 0.000112287
28 *3101:B *814:75 0
29 *3108:A2 *814:75 0.000240174
30 *336:8 *814:75 0
31 *498:10 *814:12 0
32 *507:10 *814:12 0
33 *508:10 *2882:A1 0
34 *508:10 *814:12 0
35 *596:8 *814:10 0.000234311
36 *596:8 *814:12 0.00187437
37 *654:10 *814:35 7.31655e-05
38 *654:10 *814:56 0
39 *710:21 *814:31 8.00842e-05
40 *743:21 *814:31 0.0014044
41 *744:33 *814:75 0
42 *744:41 *814:75 0.000240174
43 *747:8 *814:12 0
44 *747:28 *2882:A1 0
45 *747:28 *814:31 4.73078e-05
46 *778:29 *814:35 0
47 *778:29 *814:56 0.000280573
48 *790:38 *814:56 0
49 *795:28 *814:75 0
50 *812:14 *814:12 0
51 *812:16 *814:12 0
52 *813:27 *814:10 4.77425e-05
*RES
1 *3386:X *814:10 41.4111 
2 *814:10 *814:12 15.9238 
3 *814:12 *2882:A1 43.3887 
4 *814:12 *814:31 30.506 
5 *814:31 *814:35 28.0134 
6 *814:35 *3088:A1 40.3193 
7 *814:35 *814:56 45.1706 
8 *814:56 *814:60 20.7519 
9 *814:60 *3100:A1 20 
10 *814:60 *814:75 45.1912 
11 *814:75 *3108:A1 20 
12 *814:10 *3385:A 40 
*END

*D_NET *815 0.00799672
*CONN
*I *2847:B2 I *D sg13g2_a22oi_1
*I *3541:X O *D sg13g2_buf_1
*CAP
1 *2847:B2 0
2 *3541:X 2.61126e-05
3 *815:20 1.72309e-05
4 *815:14 0.00127847
5 *815:8 0.00128735
6 *815:8 *1127:10 0
7 *815:14 *827:10 0.000181279
8 *815:14 *827:22 0.00324807
9 *815:14 *882:18 0
10 *815:14 *1127:16 0
11 *815:20 *853:33 3.15716e-05
12 *3636:A *815:14 0
13 *473:8 *815:20 3.15716e-05
14 *727:14 *815:14 0
15 *750:31 *815:14 0.000126146
16 *755:54 *815:14 0
17 *760:12 *815:14 0
18 *760:18 *815:14 0.00176892
*RES
1 *3541:X *815:8 40.3193 
2 *815:8 *815:14 39.0241 
3 *815:14 *815:20 40.2112 
4 *815:20 *2847:B2 20 
*END

*D_NET *816 0.0157116
*CONN
*I *2917:A1 I *D sg13g2_a21oi_1
*I *2933:A1 I *D sg13g2_a21oi_1
*I *2941:A1 I *D sg13g2_a21oi_1
*I *2921:A1 I *D sg13g2_a21oi_1
*I *2929:A1 I *D sg13g2_a21oi_1
*I *2913:A1 I *D sg13g2_a21oi_1
*I *3135:A1 I *D sg13g2_a21oi_1
*I *2875:B I *D sg13g2_and2_1
*I *3387:X O *D sg13g2_buf_1
*CAP
1 *2917:A1 0.000136337
2 *2933:A1 0
3 *2941:A1 0
4 *2921:A1 0
5 *2929:A1 0
6 *2913:A1 0
7 *3135:A1 0
8 *2875:B 0.000328186
9 *3387:X 0.000200496
10 *816:100 0.000494094
11 *816:85 0.00101661
12 *816:70 0.000961167
13 *816:51 0.00127182
14 *816:36 0.00120012
15 *816:18 0.00143991
16 *816:12 0.00155975
17 *816:10 0.000417907
18 *2875:B *2875:A 0
19 *2917:A1 *1117:8 7.91347e-05
20 *816:10 *1119:18 0.000158578
21 *816:12 *1119:18 0.000429461
22 *816:18 *863:10 0
23 *816:18 *881:122 0.000129874
24 *816:18 *890:91 0
25 *816:18 *1119:18 0.00115583
26 *816:51 *1121:10 0
27 *816:51 *1121:14 0
28 *816:70 *883:85 0
29 *816:85 *891:109 0
30 *2913:A2 *816:36 1.54556e-05
31 *2913:A2 *816:51 0.00100154
32 *2917:A2 *2917:A1 1.53311e-05
33 *2917:B1 *816:36 0
34 *2921:A2 *816:70 9.6255e-06
35 *2921:A2 *816:85 0.000174569
36 *2924:A *816:85 0
37 *2925:A2 *2917:A1 0
38 *2932:A *816:51 0
39 *2941:A2 *816:85 4.77425e-05
40 *2941:B1 *816:100 0
41 *3004:A *2875:B 0
42 *3135:A2 *2875:B 0
43 *3135:A2 *816:18 0
44 *3247:CLK *816:100 0
45 *296:8 *816:100 0
46 *358:14 *816:51 0
47 *521:12 *816:51 0.000105445
48 *521:53 *816:51 0.000497436
49 *521:53 *816:70 1.53311e-05
50 *521:60 *816:70 0.000224766
51 *521:94 *816:100 0
52 *530:10 *816:70 0
53 *536:8 *816:51 0
54 *723:16 *2875:B 0
55 *723:16 *816:18 0
56 *735:8 *816:36 0.000530891
57 *736:14 *816:36 0
58 *736:14 *816:85 0
59 *736:32 *816:100 0.000144932
60 *737:14 *816:70 0.00011694
61 *737:14 *816:85 2.14475e-05
62 *737:27 *816:85 7.93989e-05
63 *741:8 *816:51 0
64 *764:23 *816:10 0.000286322
65 *764:23 *816:12 0.000450816
66 *764:23 *816:18 0.000994315
*RES
1 *3387:X *816:10 42.3072 
2 *816:10 *816:12 2.0806 
3 *816:12 *816:18 32.9986 
4 *816:18 *2875:B 22.8634 
5 *816:18 *3135:A1 20 
6 *816:12 *816:36 23.5638 
7 *816:36 *2913:A1 20 
8 *816:36 *816:51 49.6408 
9 *816:51 *2929:A1 20 
10 *816:51 *816:70 44.6556 
11 *816:70 *2921:A1 20 
12 *816:70 *816:85 5.3972 
13 *816:85 *2941:A1 20 
14 *816:85 *816:100 44.7586 
15 *816:100 *2933:A1 20 
16 *816:10 *2917:A1 41.4008 
*END

*D_NET *817 0.0152901
*CONN
*I *3003:A1 I *D sg13g2_a21oi_1
*I *2999:A1 I *D sg13g2_a21oi_1
*I *3123:A1 I *D sg13g2_a21oi_1
*I *3115:A1 I *D sg13g2_a21oi_1
*I *2979:A1 I *D sg13g2_a21oi_1
*I *3111:A1 I *D sg13g2_a21oi_1
*I *3119:A1 I *D sg13g2_a21oi_1
*I *3131:A1 I *D sg13g2_a21oi_1
*I *3388:X O *D sg13g2_buf_1
*CAP
1 *3003:A1 0.000578921
2 *2999:A1 5.68546e-05
3 *3123:A1 0
4 *3115:A1 0
5 *2979:A1 0
6 *3111:A1 0
7 *3119:A1 0.000555886
8 *3131:A1 6.79358e-05
9 *3388:X 9.29934e-05
10 *817:81 0.00085906
11 *817:68 0.00157059
12 *817:53 0.00122805
13 *817:46 0.000689964
14 *817:42 0.000515368
15 *817:21 0.00123332
16 *817:19 0.000514783
17 *817:17 0.00124958
18 *817:6 0.000709165
19 *3119:A1 *862:72 0
20 *3119:A1 *880:16 0
21 *3131:A1 *3339:RESET_B 0
22 *817:17 *3339:RESET_B 0
23 *817:42 *3445:A 0.000371648
24 *817:42 *883:53 0
25 *817:42 *884:106 2.14736e-05
26 *817:46 *862:93 0
27 *817:46 *880:8 0
28 *817:46 *880:116 0.00020978
29 *817:46 *883:53 0.000112181
30 *817:46 *884:83 4.77425e-05
31 *817:53 *880:34 0
32 *817:53 *880:40 0
33 *817:53 *880:51 0
34 *817:53 *880:116 9.68672e-05
35 *817:68 *2984:C 0.000112667
36 *817:68 *3128:C 0
37 *817:68 *856:60 0.000124547
38 *817:68 *856:73 0
39 *817:68 *880:51 0
40 *817:81 *3125:B1 0
41 *817:81 *3128:C 0
42 *817:81 *856:73 0
43 *817:81 *866:52 0.000273902
44 *817:81 *889:97 0
45 *817:81 *1137:8 0.00145654
46 *2979:B1 *817:53 0
47 *2979:B1 *817:68 0
48 *2999:A2 *2999:A1 1.54008e-05
49 *3002:A *2999:A1 0
50 *3002:B *2999:A1 0
51 *3003:B1 *3003:A1 0
52 *3006:A *3003:A1 0
53 *3006:B *3003:A1 0
54 *3123:A2 *817:81 1.54008e-05
55 *3131:A2 *3131:A1 8.03089e-05
56 *3131:B1 *817:6 0
57 *359:28 *817:17 0
58 *571:20 *817:42 0.000242017
59 *571:20 *817:46 0
60 *571:20 *817:53 0.000565596
61 *571:20 *817:68 1.54556e-05
62 *571:37 *817:68 0.000201864
63 *571:97 *817:21 0
64 *571:108 *3003:A1 0
65 *572:10 *817:53 0.000209763
66 *671:8 *3119:A1 0.00046883
67 *671:14 *3119:A1 1.54008e-05
68 *671:81 *3119:A1 0.000300954
69 *671:87 *817:46 8.03692e-05
70 *671:87 *817:53 1.54556e-05
71 *671:100 *817:53 3.24568e-05
72 *698:40 *817:42 0.000280967
73 *722:14 *3131:A1 0
74 *722:35 *3131:A1 0
75 *722:35 *817:17 0
76 *757:18 *817:21 0
77 *808:29 *3003:A1 0
*RES
1 *3388:X *817:6 21.0918 
2 *817:6 *3131:A1 20.7519 
3 *817:6 *817:17 25.0779 
4 *817:17 *817:19 1.0918 
5 *817:19 *817:21 3.3166 
6 *817:21 *3119:A1 45.9946 
7 *817:21 *817:42 43.8213 
8 *817:42 *817:46 22.0497 
9 *817:46 *3111:A1 20 
10 *817:46 *817:53 5.7268 
11 *817:53 *2979:A1 20 
12 *817:53 *817:68 26.283 
13 *817:68 *3115:A1 40 
14 *817:68 *817:81 30.3412 
15 *817:81 *3123:A1 20 
16 *817:19 *2999:A1 40.5356 
17 *817:17 *3003:A1 46.077 
*END

*D_NET *818 0.0154876
*CONN
*I *2958:A1 I *D sg13g2_a21oi_1
*I *2970:A1 I *D sg13g2_a21oi_1
*I *2962:A1 I *D sg13g2_a21oi_1
*I *2991:A1 I *D sg13g2_a21oi_1
*I *2995:A1 I *D sg13g2_a21oi_1
*I *3127:A1 I *D sg13g2_a21oi_1
*I *2983:A1 I *D sg13g2_a21oi_1
*I *2987:A1 I *D sg13g2_a21oi_1
*I *3389:X O *D sg13g2_buf_1
*CAP
1 *2958:A1 0.000338006
2 *2970:A1 0
3 *2962:A1 0
4 *2991:A1 3.84491e-05
5 *2995:A1 0
6 *3127:A1 0
7 *2983:A1 0
8 *2987:A1 0
9 *3389:X 0.000243188
10 *818:102 0.00059695
11 *818:94 0.00105959
12 *818:87 0.00122368
13 *818:62 0.000664708
14 *818:52 0.000871408
15 *818:43 0.000201239
16 *818:28 0.00072349
17 *818:16 0.00109688
18 *818:14 0.000604435
19 *818:10 0.00154028
20 *818:10 *819:24 0
21 *818:28 *2985:B1 0
22 *818:28 *909:38 0
23 *818:43 *865:72 0
24 *818:62 *892:81 0
25 *818:62 *892:93 0
26 *818:62 *898:33 0
27 *818:87 *3077:A 0
28 *818:87 *3077:B 0
29 *818:87 *3271:RESET_B 0.000209637
30 *818:87 *855:67 0
31 *2958:A2 *2958:A1 1.21797e-05
32 *2962:B1 *818:87 0
33 *2962:B1 *818:94 0
34 *2973:A *818:102 1.54008e-05
35 *2983:A2 *818:43 1.54556e-05
36 *2985:A2 *818:16 0.000386892
37 *2985:A2 *818:28 7.48178e-05
38 *2987:B1 *818:43 0
39 *2991:A2 *2991:A1 1.54008e-05
40 *2991:B1 *818:10 0.000212127
41 *2991:B1 *818:14 0.000337373
42 *3271:CLK *818:16 0.00039332
43 *311:8 *818:62 0
44 *546:12 *818:87 0
45 *546:20 *818:94 1.54285e-05
46 *546:31 *2958:A1 0.000129438
47 *546:31 *818:94 0.000209317
48 *546:39 *2958:A1 0.000209796
49 *559:10 *818:94 7.97646e-05
50 *571:43 *818:52 1.54008e-05
51 *571:54 *818:52 0.000241979
52 *571:70 *818:28 4.78192e-05
53 *571:70 *818:43 1.54008e-05
54 *577:8 *818:28 0
55 *580:22 *818:62 0.000241302
56 *584:8 *818:62 0
57 *586:10 *818:62 0.000288587
58 *646:8 *818:14 0
59 *671:117 *818:62 1.54008e-05
60 *706:10 *818:16 0.00089584
61 *706:10 *818:28 0.000234329
62 *706:12 *818:28 2.21839e-05
63 *720:25 *818:10 0.000176416
64 *721:10 *818:62 0
65 *721:28 *818:28 0.00037182
66 *721:28 *818:62 0
67 *722:35 *2958:A1 6.17328e-05
68 *722:35 *818:87 0
69 *722:45 *2958:A1 0
70 *740:10 *818:43 0.000178046
71 *740:21 *818:43 7.40536e-05
72 *755:8 *818:10 0.000182023
73 *755:23 *818:10 0
74 *758:57 *818:102 0.00029161
75 *796:34 *818:102 0.000615018
76 *807:51 *818:52 0
*RES
1 *3389:X *818:10 43.0179 
2 *818:10 *818:14 2.3999 
3 *818:14 *818:16 6.0358 
4 *818:16 *818:28 25.9225 
5 *818:28 *2987:A1 20 
6 *818:28 *818:43 41.9776 
7 *818:43 *2983:A1 20 
8 *818:16 *818:52 22.0497 
9 *818:52 *818:62 47.1688 
10 *818:62 *3127:A1 20 
11 *818:52 *2995:A1 20 
12 *818:14 *2991:A1 40.3193 
13 *818:10 *818:87 29.9704 
14 *818:87 *2962:A1 20 
15 *818:87 *818:94 1.4008 
16 *818:94 *818:102 46.4632 
17 *818:102 *2970:A1 20 
18 *818:94 *2958:A1 23.9964 
*END

*D_NET *819 0.019215
*CONN
*I *3102:A1 I *D sg13g2_a21oi_1
*I *3094:A1 I *D sg13g2_a21oi_1
*I *3090:A1 I *D sg13g2_a21oi_1
*I *2954:A1 I *D sg13g2_a21oi_1
*I *2950:A1 I *D sg13g2_a21oi_1
*I *2966:A1 I *D sg13g2_a21oi_1
*I *2946:A1 I *D sg13g2_a21oi_1
*I *3389:A I *D sg13g2_buf_1
*I *3390:X O *D sg13g2_buf_1
*CAP
1 *3102:A1 5.04936e-05
2 *3094:A1 0.000430978
3 *3090:A1 0.000335347
4 *2954:A1 3.56043e-05
5 *2950:A1 0.000202419
6 *2966:A1 0
7 *2946:A1 4.26895e-05
8 *3389:A 0
9 *3390:X 0.000916741
10 *819:102 0.00201085
11 *819:100 0.00210442
12 *819:87 0.00150412
13 *819:68 0.000968958
14 *819:66 0.000962813
15 *819:37 0.000548266
16 *819:24 0.0010315
17 *819:18 0.00184295
18 *819:12 0.000628656
19 *819:8 0.000384136
20 *3090:A1 *3090:B1 8.02763e-05
21 *3094:A1 *1129:14 0
22 *3102:A1 *3102:B1 0
23 *819:18 *2968:B1 0
24 *819:18 *855:87 0
25 *819:24 *855:87 0
26 *819:37 *3079:C 0
27 *819:66 *820:110 0
28 *819:66 *861:92 4.77153e-05
29 *819:66 *903:48 0.000403924
30 *819:87 *903:48 0
31 *819:102 *1129:25 0
32 *2950:A2 *2950:A1 4.77425e-05
33 *2951:A *819:66 0
34 *2954:B1 *819:87 4.77425e-05
35 *2955:A *819:66 0
36 *2956:A1 *819:66 0.000112426
37 *2956:A2 *819:66 0.000209451
38 *2966:B1 *819:12 0
39 *2966:B1 *819:18 0
40 *2969:A *819:12 0.000436603
41 *2969:A *819:66 0
42 *2974:A2 *819:87 0.000179386
43 *2974:A2 *819:100 0
44 *3090:A2 *3090:A1 8.0216e-05
45 *3094:A2 *3094:A1 0.000662354
46 *3102:A2 *3102:A1 7.48257e-05
47 *3259:CLK *819:12 0
48 *3325:CLK *819:102 0.000584182
49 *299:10 *819:24 0
50 *362:32 *819:37 0.000499381
51 *546:88 *2950:A1 8.01933e-05
52 *546:88 *819:87 0
53 *546:88 *819:100 0
54 *546:110 *2946:A1 0
55 *546:120 *2946:A1 0
56 *546:120 *819:18 0.000144898
57 *546:120 *819:24 0
58 *547:8 *819:37 0
59 *553:10 *2950:A1 0.000236897
60 *553:10 *819:87 0
61 *555:12 *2950:A1 0
62 *555:12 *819:66 0
63 *646:31 *819:24 4.78524e-05
64 *646:35 *819:102 0
65 *646:72 *819:100 0
66 *659:10 *3094:A1 0
67 *697:21 *819:37 0
68 *697:63 *819:37 0
69 *697:105 *819:100 0
70 *697:105 *819:102 0
71 *707:30 *819:24 0
72 *707:49 *819:37 0
73 *712:10 *819:102 0.000765322
74 *712:16 *819:102 0
75 *712:18 *819:102 0
76 *712:22 *3090:A1 0
77 *712:22 *819:102 0
78 *713:29 *2954:A1 0
79 *721:48 *3094:A1 0
80 *723:51 *819:37 0
81 *755:8 *819:24 0
82 *755:23 *819:24 0.00011266
83 *759:28 *819:12 0
84 *759:28 *819:66 0
85 *761:10 *819:37 0.000340374
86 *761:26 *819:18 0
87 *761:34 *819:37 0
88 *762:22 *2950:A1 1.9636e-05
89 *796:28 *819:102 0
90 *797:29 *819:68 0
91 *798:24 *2950:A1 0
92 *806:46 *819:66 0
93 *818:10 *819:24 0
*RES
1 *3390:X *819:8 40.5974 
2 *819:8 *819:12 23.3475 
3 *819:12 *819:18 23.296 
4 *819:18 *819:24 30.9901 
5 *819:24 *3389:A 20 
6 *819:18 *819:37 45.4281 
7 *819:37 *2946:A1 40.3193 
8 *819:12 *2966:A1 20 
9 *3390:X *819:66 48.8127 
10 *819:66 *819:68 1.0918 
11 *819:68 *2950:A1 42.3741 
12 *819:68 *819:87 46.1388 
13 *819:87 *2954:A1 40.3193 
14 *819:87 *819:100 7.0967 
15 *819:100 *819:102 12.2158 
16 *819:102 *3090:A1 42.6162 
17 *819:102 *3094:A1 44.429 
18 *819:100 *3102:A1 40.4995 
*END

*D_NET *820 0.0203278
*CONN
*I *3082:A1 I *D sg13g2_a21oi_1
*I *2974:A1 I *D sg13g2_a21oi_1
*I *3390:A I *D sg13g2_buf_1
*I *3078:A1 I *D sg13g2_a21oi_1
*I *3007:A1 I *D sg13g2_a21oi_1
*I *3139:A1 I *D sg13g2_a21oi_1
*I *3388:A I *D sg13g2_buf_1
*I *3387:A I *D sg13g2_buf_1
*I *3391:X O *D sg13g2_buf_1
*CAP
1 *3082:A1 0.000702305
2 *2974:A1 3.59813e-05
3 *3390:A 0
4 *3078:A1 0
5 *3007:A1 0
6 *3139:A1 0
7 *3388:A 0.000629468
8 *3387:A 0
9 *3391:X 0
10 *820:114 0.00169329
11 *820:110 0.00123506
12 *820:97 0.000919347
13 *820:82 1.92325e-05
14 *820:76 0.00130359
15 *820:72 0.0020189
16 *820:61 0.00198235
17 *820:46 0.00150264
18 *820:27 0.00282649
19 *820:16 0.000316723
20 *820:4 0.00161962
21 *3082:A1 *1130:27 0
22 *3388:A *866:10 0.000562351
23 *820:27 *890:91 0
24 *820:27 *1120:10 0
25 *820:27 *1121:10 0
26 *820:46 *881:122 0
27 *820:72 *2947:D 0
28 *820:72 *856:108 0
29 *820:72 *864:10 0
30 *820:72 *864:19 0
31 *820:72 *878:10 0
32 *820:72 *889:97 0
33 *820:82 *2968:B1 0
34 *820:110 *885:119 7.36416e-05
35 *2917:B1 *820:16 7.99455e-05
36 *2955:A *820:97 1.54556e-05
37 *2955:A *820:110 0.00040317
38 *2966:B1 *820:97 0
39 *3135:A2 *3388:A 0
40 *3139:A2 *820:46 6.2775e-06
41 *3139:A2 *820:61 4.22708e-05
42 *3139:B1 *820:61 0
43 *3142:A *820:61 0
44 *3142:B *820:46 0
45 *3391:A *820:27 0
46 *352:16 *3388:A 0
47 *357:16 *3388:A 0
48 *357:22 *820:46 0
49 *357:22 *820:61 0
50 *357:28 *820:61 0
51 *357:28 *820:72 0
52 *493:28 *820:16 0.000234461
53 *493:28 *820:27 0
54 *521:27 *820:16 0
55 *546:88 *3082:A1 0
56 *548:8 *820:72 0
57 *563:10 *820:97 0
58 *564:12 *820:97 0.000436717
59 *564:12 *820:110 3.23965e-05
60 *571:133 *820:61 8.01776e-05
61 *646:20 *820:82 3.15716e-05
62 *646:72 *3082:A1 0
63 *646:120 *3082:A1 7.34423e-05
64 *647:8 *820:97 0
65 *650:8 *3082:A1 0
66 *722:35 *3388:A 0.000274507
67 *723:31 *820:72 0.000182109
68 *724:29 *820:61 0
69 *724:29 *820:72 0
70 *729:10 *2974:A1 0
71 *732:25 *820:97 0
72 *732:33 *820:114 0
73 *732:37 *2974:A1 0
74 *736:14 *820:16 0
75 *736:14 *820:27 0
76 *759:28 *820:110 0
77 *762:22 *820:114 0
78 *797:23 *820:114 0
79 *803:20 *3388:A 0.000994315
80 *805:37 *820:46 0
81 *806:33 *820:76 0
82 *806:33 *820:97 0
83 *806:46 *820:97 0
84 *819:66 *820:110 0
*RES
1 *3391:X *820:4 20 
2 *820:4 *820:16 43.193 
3 *820:16 *3387:A 20 
4 *820:4 *820:27 34.4818 
5 *820:27 *3388:A 48.3636 
6 *820:27 *820:46 28.5593 
7 *820:46 *3139:A1 20 
8 *820:46 *820:61 6.386 
9 *820:61 *3007:A1 20 
10 *820:61 *820:72 33.2458 
11 *820:72 *820:76 27.6735 
12 *820:76 *820:82 40.2112 
13 *820:82 *3078:A1 20 
14 *820:76 *820:97 47.107 
15 *820:97 *3390:A 20 
16 *820:97 *820:110 43.0488 
17 *820:110 *820:114 30.918 
18 *820:114 *2974:A1 40.3193 
19 *820:114 *3082:A1 46.3551 
*END

*D_NET *821 0.0225498
*CONN
*I *3061:A1 I *D sg13g2_a21oi_1
*I *3057:A1 I *D sg13g2_a21oi_1
*I *3069:A1 I *D sg13g2_a21oi_1
*I *2937:A1 I *D sg13g2_a21oi_1
*I *3053:A1 I *D sg13g2_a21oi_1
*I *3049:A1 I *D sg13g2_a21oi_1
*I *3045:A1 I *D sg13g2_a21oi_1
*I *2925:A1 I *D sg13g2_a21oi_1
*I *3392:X O *D sg13g2_buf_1
*CAP
1 *3061:A1 0
2 *3057:A1 9.23238e-05
3 *3069:A1 0.000281845
4 *2937:A1 0.000875393
5 *3053:A1 8.11124e-05
6 *3049:A1 0
7 *3045:A1 0
8 *2925:A1 0.000343851
9 *3392:X 0.00050465
10 *821:121 2.43358e-05
11 *821:115 0.00050691
12 *821:100 0.000574899
13 *821:74 0.00218948
14 *821:63 0.00150064
15 *821:50 0.00049287
16 *821:34 0.00193404
17 *821:28 0.00225748
18 *821:14 0.00113255
19 *821:10 0.000864323
20 *2925:A1 *1051:10 0
21 *2937:A1 *861:59 7.97988e-05
22 *3053:A1 *894:50 0.000144894
23 *3069:A1 *3069:B1 0
24 *3069:A1 *895:38 0
25 *3069:A1 *1141:8 0.00012816
26 *821:10 *2720:A 0
27 *821:10 *1108:14 7.92359e-05
28 *821:10 *1121:10 0.000669134
29 *821:14 *868:46 0.000614504
30 *821:14 *868:94 0.000342671
31 *821:14 *1121:10 0.00141764
32 *821:28 *2712:A 0
33 *821:28 *2713:A 0
34 *821:28 *2714:A 1.54008e-05
35 *821:28 *1042:14 0
36 *821:34 *2718:A 0
37 *821:34 *3297:D 0.000144403
38 *821:34 *867:16 0.000344389
39 *821:34 *1023:18 0
40 *821:34 *1036:12 0
41 *821:34 *1042:14 0
42 *821:34 *1081:8 0
43 *821:34 *1083:10 0.000337906
44 *821:34 *1090:16 0
45 *821:50 *3049:B1 0
46 *821:63 *3049:B1 0
47 *821:74 *2930:C 0
48 *821:74 *3070:B 0
49 *821:74 *3070:D 0
50 *821:74 *3301:RESET_B 0
51 *821:74 *894:50 9.69533e-05
52 *821:115 *825:38 0
53 *821:115 *1123:16 0
54 *821:115 *1133:27 0
55 *2925:A2 *2925:A1 1.54008e-05
56 *2928:A *2925:A1 0
57 *2938:A *821:74 0
58 *3045:A2 *821:28 0.000290066
59 *3045:A2 *821:34 1.54556e-05
60 *3045:A2 *821:50 0
61 *3049:A2 *821:50 1.54556e-05
62 *3049:A2 *821:63 6.47546e-05
63 *3053:A2 *3053:A1 4.77425e-05
64 *3057:A2 *3057:A1 0.000144339
65 *3057:A2 *821:115 0.000208663
66 *3071:A1 *2937:A1 0
67 *3239:CLK *2925:A1 0.000337248
68 *3396:A *821:10 0
69 *3488:A *821:74 0.000208195
70 *3489:A *821:74 0
71 *297:10 *2937:A1 0
72 *329:8 *2937:A1 0.00044728
73 *329:8 *3069:A1 0.00012816
74 *356:22 *2937:A1 0
75 *358:10 *821:34 0.000657744
76 *365:22 *821:74 0
77 *368:16 *821:34 0.000716781
78 *371:10 *821:34 0
79 *374:18 *821:121 4.25029e-05
80 *492:20 *821:14 0
81 *526:12 *821:34 0
82 *533:10 *821:34 0
83 *621:25 *3053:A1 6.46834e-05
84 *621:25 *821:63 0.000341119
85 *621:37 *3069:A1 1.54556e-05
86 *621:37 *821:74 0
87 *621:44 *821:63 0.000181192
88 *621:57 *821:63 0.000288917
89 *621:87 *821:115 0.000194296
90 *621:87 *821:121 1.00461e-05
91 *621:100 *821:121 4.25029e-05
92 *629:14 *821:63 0
93 *640:8 *2937:A1 0
94 *697:188 *821:74 0
95 *708:8 *3069:A1 0
96 *708:69 *821:28 0
97 *708:69 *821:50 0
98 *743:14 *2937:A1 0
99 *810:10 *2937:A1 0
100 *810:12 *2937:A1 0
101 *811:47 *3057:A1 0
102 *811:47 *821:115 0
103 *811:62 *821:115 0
*RES
1 *3392:X *821:10 45.5517 
2 *821:10 *821:14 26.5302 
3 *821:14 *821:28 6.7156 
4 *821:28 *821:34 37.0465 
5 *821:34 *2925:A1 43.3475 
6 *821:28 *3045:A1 20 
7 *821:14 *821:50 0.9682 
8 *821:50 *3049:A1 20 
9 *821:50 *821:63 45.0264 
10 *821:63 *3053:A1 20.9682 
11 *821:63 *821:74 30.2691 
12 *821:74 *2937:A1 49.3627 
13 *821:74 *3069:A1 42.7707 
14 *821:10 *821:100 20 
15 *821:100 *3057:A1 20.9682 
16 *821:100 *821:115 45.1809 
17 *821:115 *821:121 40.2832 
18 *821:121 *3061:A1 20 
*END

*D_NET *822 0.0174145
*CONN
*I *2888:A1 I *D sg13g2_a21oi_1
*I *2896:A1 I *D sg13g2_a21oi_1
*I *2884:A1 I *D sg13g2_a21oi_1
*I *2904:A1 I *D sg13g2_a21oi_1
*I *2880:A1 I *D sg13g2_a21oi_1
*I *3086:A1 I *D sg13g2_a21oi_1
*I *2908:A1 I *D sg13g2_a21oi_1
*I *2892:A1 I *D sg13g2_a21oi_1
*I *3393:X O *D sg13g2_buf_1
*CAP
1 *2888:A1 0
2 *2896:A1 0
3 *2884:A1 0
4 *2904:A1 0.000124461
5 *2880:A1 0.00010312
6 *3086:A1 0.000266788
7 *2908:A1 0
8 *2892:A1 0.000681175
9 *3393:X 9.73317e-05
10 *822:108 0.00069153
11 *822:95 0.00143091
12 *822:78 0.00153765
13 *822:54 0.00101678
14 *822:37 0.000864176
15 *822:22 0.000892988
16 *822:20 0.000771406
17 *822:16 0.00188435
18 *822:12 0.000667826
19 *822:8 0.000125269
20 *2880:A1 *898:86 0
21 *3086:A1 *1126:18 0
22 *822:16 *824:18 0
23 *822:20 *872:63 0
24 *822:20 *896:32 0.000340791
25 *822:54 *3231:RESET_B 0.000240054
26 *822:54 *872:63 0.000448215
27 *822:54 *888:61 0
28 *822:78 *3229:RESET_B 0
29 *822:95 *3229:RESET_B 0
30 *822:95 *824:18 0
31 *822:95 *1135:46 0
32 *822:108 *1130:48 0
33 *2884:B1 *822:108 0
34 *2887:A *822:95 0
35 *2888:A2 *822:12 8.00842e-05
36 *2888:A2 *822:16 0
37 *2888:B1 *822:16 0.000209807
38 *2892:B1 *2892:A1 0
39 *2907:A *822:78 0.000112558
40 *2907:B *822:78 0
41 *2908:A2 *2880:A1 0
42 *2908:A2 *2892:A1 0.0001447
43 *2908:A2 *822:37 0.000209117
44 *3089:B *3086:A1 0
45 *3089:B *822:54 0
46 *3219:CLK *822:108 0.000588478
47 *3221:CLK *822:16 0.000501057
48 *3229:CLK *2904:A1 0.00014413
49 *3361:A *822:16 0
50 *3361:A *822:78 0
51 *356:22 *822:54 0
52 *496:50 *2880:A1 1.54008e-05
53 *496:50 *2892:A1 0.000532942
54 *496:68 *2904:A1 1.54008e-05
55 *496:68 *822:16 0.000209384
56 *496:68 *822:78 0.000694267
57 *496:83 *2904:A1 0.00012873
58 *496:83 *822:78 0.00014413
59 *496:83 *822:95 0.000145031
60 *496:83 *822:108 1.54008e-05
61 *496:94 *822:108 0
62 *520:16 *2880:A1 0
63 *646:102 *3086:A1 1.53662e-05
64 *697:188 *822:16 0
65 *697:220 *822:78 0
66 *710:21 *822:20 0
67 *710:49 *2880:A1 0
68 *710:49 *822:37 0.000209117
69 *710:49 *822:54 4.77425e-05
70 *711:37 *822:16 0
71 *711:37 *822:78 0
72 *746:23 *822:108 0
73 *747:32 *2892:A1 0.000597829
74 *748:31 *2892:A1 0
75 *748:31 *3086:A1 0
76 *748:31 *822:54 0
77 *778:29 *2904:A1 0.00012816
78 *778:29 *822:95 0.000106566
79 *800:22 *822:108 0.000234224
*RES
1 *3393:X *822:8 40.8446 
2 *822:8 *822:12 20.5356 
3 *822:12 *822:16 6.9422 
4 *822:16 *822:20 25.7886 
5 *822:20 *822:22 0.8446 
6 *822:22 *2892:A1 47.1894 
7 *822:22 *822:37 21.4008 
8 *822:37 *2908:A1 20 
9 *822:37 *822:54 48.3224 
10 *822:54 *3086:A1 22.329 
11 *822:20 *2880:A1 40.7834 
12 *822:16 *822:78 26.6126 
13 *822:78 *2904:A1 41.5656 
14 *822:78 *822:95 27.622 
15 *822:95 *2884:A1 20 
16 *822:95 *822:108 46.8186 
17 *822:108 *2896:A1 20 
18 *822:12 *2888:A1 20 
*END

*D_NET *823 0.0138116
*CONN
*I *3040:A1 I *D sg13g2_a21oi_1
*I *3016:A1 I *D sg13g2_a21oi_1
*I *2900:A1 I *D sg13g2_a21oi_1
*I *3028:A1 I *D sg13g2_a21oi_1
*I *3012:A1 I *D sg13g2_a21oi_1
*I *3032:A1 I *D sg13g2_a21oi_1
*I *3024:A1 I *D sg13g2_a21oi_1
*I *3020:A1 I *D sg13g2_a21oi_1
*I *3394:X O *D sg13g2_buf_1
*CAP
1 *3040:A1 0.0001029
2 *3016:A1 3.34037e-05
3 *2900:A1 0.000843867
4 *3028:A1 0
5 *3012:A1 0
6 *3032:A1 0
7 *3024:A1 0
8 *3020:A1 0
9 *3394:X 0.0005337
10 *823:80 0.00157863
11 *823:69 0.00137153
12 *823:63 0.00104221
13 *823:52 0.00096593
14 *823:46 0.00158319
15 *823:35 0.000348119
16 *823:33 0.000376143
17 *823:12 0.000203178
18 *823:6 0.000360735
19 *2900:A1 *1134:27 0
20 *3016:A1 *3016:B1 0
21 *823:12 *1146:8 0.00012816
22 *823:33 *897:16 0
23 *823:33 *897:20 0
24 *823:46 *824:87 0.000306167
25 *823:46 *1148:27 0
26 *823:52 *2905:C 0
27 *823:52 *875:58 0.000498379
28 *823:52 *897:8 0
29 *823:52 *898:97 0
30 *823:52 *1148:27 0
31 *823:63 *3038:B1 0
32 *823:63 *897:16 0
33 *823:69 *3028:B1 1.54008e-05
34 *823:69 *897:8 0
35 *823:80 *3028:B1 0.000226446
36 *823:80 *3289:RESET_B 4.78028e-05
37 *823:80 *908:84 0
38 *823:80 *1147:8 0
39 *823:80 *1147:20 0
40 *2900:B1 *2900:A1 0
41 *2903:A *2900:A1 0
42 *2903:B *2900:A1 0
43 *2906:A1 *823:52 0
44 *3016:A2 *3016:A1 1.54556e-05
45 *3024:A2 *823:6 8.00842e-05
46 *3034:A1 *823:6 0
47 *3034:A2 *823:33 0
48 *3039:B *823:63 1.54008e-05
49 *3040:B1 *823:63 0
50 *3043:A *823:63 0
51 *3283:D *3016:A1 0
52 *319:10 *823:80 0.00018387
53 *322:8 *823:46 0
54 *373:32 *823:52 0
55 *378:14 *823:52 4.77425e-05
56 *496:104 *2900:A1 0.000338601
57 *511:8 *2900:A1 0.00034245
58 *596:21 *823:12 0
59 *596:30 *823:6 0.000161763
60 *596:30 *823:33 0.000533728
61 *596:30 *823:46 1.54008e-05
62 *596:37 *823:46 0.000306167
63 *596:37 *823:63 0
64 *596:75 *823:69 0.000144389
65 *596:75 *823:80 1.54008e-05
66 *599:10 *823:52 0.00023098
67 *602:16 *3016:A1 1.54556e-05
68 *602:16 *823:80 0.00018387
69 *603:8 *823:12 0
70 *616:10 *823:52 0
71 *619:10 *823:52 0
72 *697:234 *823:52 0
73 *718:26 *823:80 0
74 *719:30 *823:69 0.000209374
75 *719:30 *823:80 0
76 *778:29 *3040:A1 0.000229173
77 *778:29 *823:69 0.000176396
78 *795:28 *2900:A1 0
79 *797:33 *2900:A1 0
80 *797:33 *823:80 0
81 *813:49 *823:63 0
82 *813:49 *823:69 0
*RES
1 *3394:X *823:6 21.6171 
2 *823:6 *823:12 41.5862 
3 *823:12 *3020:A1 20 
4 *823:6 *3024:A1 20 
5 *3394:X *823:33 44.1612 
6 *823:33 *823:35 20 
7 *823:35 *3032:A1 20 
8 *823:35 *823:46 23.8831 
9 *823:46 *823:52 30.3103 
10 *823:52 *3012:A1 20 
11 *823:46 *823:63 42.4823 
12 *823:63 *823:69 26.1388 
13 *823:69 *3028:A1 20 
14 *823:69 *823:80 27.7765 
15 *823:80 *2900:A1 49.5687 
16 *823:80 *3016:A1 40.3193 
17 *823:63 *3040:A1 41.6274 
*END

*D_NET *824 0.0182776
*CONN
*I *3036:A1 I *D sg13g2_a21oi_1
*I *3394:A I *D sg13g2_buf_1
*I *3393:A I *D sg13g2_buf_1
*I *3106:A1 I *D sg13g2_a21oi_1
*I *3098:A1 I *D sg13g2_a21oi_1
*I *3395:X O *D sg13g2_buf_1
*CAP
1 *3036:A1 7.80721e-05
2 *3394:A 5.34179e-05
3 *3393:A 0.000435682
4 *3106:A1 0.000634153
5 *3098:A1 0
6 *3395:X 0.0010795
7 *824:87 0.00104971
8 *824:36 0.000208997
9 *824:30 0.00106995
10 *824:24 0.00104147
11 *824:18 0.00279976
12 *824:12 0.00379579
13 *824:8 0.00153631
14 *3106:A1 *3106:B1 0.000111917
15 *3106:A1 *3323:RESET_B 0
16 *3393:A *2879:A 0
17 *3393:A *883:104 0
18 *3393:A *1135:32 0
19 *824:8 *1146:8 0
20 *824:12 *2879:B 0
21 *824:12 *2881:B 0
22 *824:12 *2881:D 0
23 *824:12 *858:47 0
24 *824:12 *875:45 0.00108138
25 *824:12 *887:56 0.000338219
26 *824:12 *1145:27 0
27 *824:18 *1141:33 0
28 *824:87 *3032:B1 4.79124e-05
29 *824:87 *1136:25 0
30 *824:87 *1136:31 0
31 *824:87 *1148:27 0.000128717
32 *2879:C *3393:A 0.000112425
33 *2879:C *824:12 0
34 *2884:B1 *824:18 0
35 *2887:A *824:18 0
36 *2904:B1 *824:18 0.000338503
37 *3034:A1 *3394:A 0
38 *3035:A *824:87 1.54556e-05
39 *3039:B *3036:A1 0
40 *3041:A *824:12 0
41 *3109:A *3106:A1 0
42 *3109:B *3106:A1 0
43 *3109:B *824:30 0
44 *3295:D *824:87 0
45 *3323:D *824:30 0
46 *3327:D *3106:A1 0
47 *320:10 *824:87 0
48 *374:35 *824:12 0.000181608
49 *379:28 *824:12 0
50 *496:68 *824:18 0
51 *496:83 *824:18 0
52 *498:10 *824:12 0
53 *498:10 *824:18 0
54 *596:8 *824:12 0
55 *596:21 *824:8 0
56 *596:30 *3394:A 0
57 *596:30 *824:87 0.00043645
58 *596:37 *824:87 0
59 *596:46 *3036:A1 0.000111929
60 *596:46 *824:87 0
61 *596:101 *824:12 0
62 *613:8 *824:12 0
63 *614:8 *824:8 0
64 *646:84 *824:36 7.49633e-05
65 *646:94 *824:36 0.000442275
66 *646:120 *3106:A1 9.58196e-06
67 *670:8 *824:24 0.000394749
68 *697:188 *824:18 0
69 *710:68 *824:24 0
70 *718:14 *824:87 0.000181192
71 *719:10 *824:87 0.000181385
72 *726:10 *3106:A1 0
73 *744:41 *3106:A1 0
74 *744:41 *824:30 0
75 *795:28 *824:24 0
76 *797:29 *824:24 0
77 *797:29 *824:36 0
78 *797:33 *824:24 0
79 *814:12 *824:18 0
80 *822:16 *824:18 0
81 *822:95 *824:18 0
82 *823:46 *824:87 0.000306167
*RES
1 *3395:X *824:8 41.0918 
2 *824:8 *824:12 15.2543 
3 *824:12 *824:18 39.0859 
4 *824:18 *824:24 49.4966 
5 *824:24 *824:30 1.9735 
6 *824:30 *824:36 42.3278 
7 *824:36 *3098:A1 20 
8 *824:30 *3106:A1 26.2418 
9 *824:12 *3393:A 43.6977 
10 *824:8 *3394:A 40.5356 
11 *3395:X *824:87 49.8365 
12 *824:87 *3036:A1 40.7519 
*END

*D_NET *825 0.0115249
*CONN
*I *3073:A1 I *D sg13g2_a21oi_1
*I *3395:A I *D sg13g2_buf_1
*I *3065:A1 I *D sg13g2_a21oi_1
*I *3392:A I *D sg13g2_buf_1
*I *3396:X O *D sg13g2_buf_1
*CAP
1 *3073:A1 0
2 *3395:A 0.000375251
3 *3065:A1 0.000165001
4 *3392:A 4.87423e-05
5 *3396:X 0.00123402
6 *825:67 0.00115999
7 *825:61 0.00159744
8 *825:53 0.00135382
9 *825:38 0.0011671
10 *825:32 0.00104124
11 *825:10 0.000702489
12 *3392:A *1108:14 8.0216e-05
13 *3395:A *1136:25 0
14 *825:10 *3303:RESET_B 0.000370089
15 *825:10 *1064:10 0
16 *825:32 *2721:A 0
17 *825:32 *895:67 0
18 *825:32 *1139:14 0
19 *825:38 *895:38 0.000310259
20 *825:38 *1133:27 0
21 *825:53 *1123:24 0
22 *825:61 *3065:B1 0
23 *825:61 *3436:A 0
24 *825:61 *870:23 0
25 *825:67 *1145:14 0
26 *2873:B *3392:A 0
27 *3023:A *3395:A 0
28 *3024:A2 *3395:A 0
29 *3060:A *825:10 0
30 *3060:B *825:10 0
31 *3065:A2 *3065:A1 4.78192e-05
32 *3073:A2 *825:53 0.000306925
33 *3076:A *825:53 0
34 *3396:A *825:10 0
35 *3491:A *825:10 0
36 *3492:A *825:32 0
37 *318:8 *825:67 0.000287845
38 *372:8 *825:32 0
39 *373:24 *825:32 0
40 *374:18 *3065:A1 0
41 *374:18 *825:32 0
42 *374:18 *825:53 0
43 *374:18 *825:61 0.000436418
44 *377:6 *3065:A1 0.000274414
45 *377:6 *825:61 0
46 *596:8 *825:67 0
47 *596:30 *3395:A 0
48 *604:10 *825:67 0
49 *608:8 *825:67 0
50 *621:100 *825:38 0
51 *697:204 *825:53 0
52 *764:31 *825:10 0
53 *811:92 *825:53 0.000124547
54 *812:14 *825:67 0
55 *813:16 *825:67 0.000441305
56 *814:10 *825:67 0
57 *814:12 *825:67 0
58 *821:115 *825:38 0
*RES
1 *3396:X *825:10 45.8607 
2 *825:10 *3392:A 40.5356 
3 *3396:X *825:32 45.3457 
4 *825:32 *825:38 44.8616 
5 *825:38 *3065:A1 41.8334 
6 *825:38 *825:53 25.15 
7 *825:53 *825:61 47.9001 
8 *825:61 *825:67 48.0134 
9 *825:67 *3395:A 23.1312 
10 *825:53 *3073:A1 20 
*END

*D_NET *826 0.00659504
*CONN
*I *2783:B2 I *D sg13g2_a22oi_1
*I *3542:X O *D sg13g2_buf_1
*CAP
1 *2783:B2 0
2 *3542:X 5.59582e-05
3 *826:14 0.00134126
4 *826:8 0.00139721
5 *826:8 *2755:B2 0
6 *826:14 *2783:A2 4.77425e-05
7 *826:14 *830:51 0
8 *826:14 *845:61 0
9 *826:14 *845:91 0.000126552
10 *826:14 *849:14 0
11 *826:14 *871:16 0.000924981
12 *826:14 *1094:12 0
13 *826:14 *1105:10 0.000449137
14 *826:14 *1127:10 0
15 *826:14 *1127:16 0.0017787
16 *3649:A *826:14 0
17 *413:10 *826:14 0
18 *415:16 *826:14 0.000393947
19 *729:48 *826:14 0
20 *755:54 *826:8 7.95529e-05
21 *755:54 *826:14 0
*RES
1 *3542:X *826:8 40.5356 
2 *826:8 *826:14 36.6139 
3 *826:14 *2783:B2 20 
*END

*D_NET *827 0.00982927
*CONN
*I *2851:B2 I *D sg13g2_a22oi_1
*I *3543:X O *D sg13g2_buf_1
*CAP
1 *2851:B2 0
2 *3543:X 0.00027523
3 *827:30 0.000259955
4 *827:22 0.00134822
5 *827:16 0.00115157
6 *827:10 0.000338526
7 *827:10 *1127:16 0
8 *827:22 *871:16 0
9 *827:22 *1127:16 0.0018811
10 *827:30 *2843:B1 2.16263e-05
11 *827:30 *2851:B1 0
12 *827:30 *2851:A2 0.000239953
13 *827:30 *848:90 0.000180331
14 *827:30 *853:33 7.99246e-05
15 *3541:A *827:10 0.000207854
16 *3636:A *827:22 2.14736e-05
17 *755:54 *827:10 0.000394151
18 *804:8 *827:10 0
19 *815:14 *827:10 0.000181279
20 *815:14 *827:22 0.00324807
*RES
1 *3543:X *827:10 43.4505 
2 *827:10 *827:16 40.5356 
3 *827:16 *827:22 37.0156 
4 *827:22 *827:30 42.7089 
5 *827:30 *2851:B2 20 
*END

*D_NET *828 0.0134794
*CONN
*I *2798:B1 I *D sg13g2_a21oi_1
*I *2790:B1 I *D sg13g2_a21oi_1
*I *2762:B1 I *D sg13g2_a21oi_1
*I *2786:B1 I *D sg13g2_a21oi_1
*I *2750:B1 I *D sg13g2_a21oi_1
*I *2742:B1 I *D sg13g2_a21oi_1
*I *2746:B1 I *D sg13g2_a21oi_1
*I *2758:B1 I *D sg13g2_a21oi_1
*I *3397:X O *D sg13g2_buf_1
*CAP
1 *2798:B1 0
2 *2790:B1 0.000601012
3 *2762:B1 0.000134503
4 *2786:B1 0
5 *2750:B1 5.2284e-05
6 *2742:B1 0
7 *2746:B1 0
8 *2758:B1 0
9 *3397:X 0.000219339
10 *828:57 0.000214455
11 *828:51 0.00076187
12 *828:47 0.00137159
13 *828:40 0.000805307
14 *828:36 0.000551823
15 *828:28 0.00100736
16 *828:24 0.00120191
17 *828:20 0.00131176
18 *828:14 0.000232533
19 *828:10 0.00031958
20 *2750:B1 *839:78 0
21 *2762:B1 *833:25 0.000209966
22 *2762:B1 *899:14 0
23 *2790:B1 *1129:33 0.000822565
24 *828:10 *1128:49 0
25 *828:14 *2798:A2 0
26 *828:20 *1131:23 0.00012816
27 *828:24 *1128:49 0
28 *828:28 *1128:32 0
29 *828:28 *1128:49 0
30 *828:36 *839:44 0.00022762
31 *828:36 *903:14 2.14736e-05
32 *828:40 *909:38 0
33 *828:47 *839:67 0
34 *828:47 *909:38 0
35 *828:51 *839:78 0
36 *828:57 *2751:A2 0.000178206
37 *828:57 *844:55 0
38 *828:57 *850:36 0.000180837
39 *828:57 *860:12 0.000335189
40 *2753:A1 *828:51 0
41 *2753:A2 *828:51 0.000339004
42 *3149:CLK *828:51 0
43 *250:10 *828:47 0
44 *250:10 *828:51 0
45 *394:10 *828:51 0.000468727
46 *399:8 *828:57 0
47 *400:10 *828:51 0
48 *401:10 *828:57 0
49 *409:8 *828:28 0
50 *429:8 *828:28 0.000287624
51 *436:8 *828:20 7.56308e-05
52 *437:14 *2790:B1 0
53 *437:26 *828:20 0.000159096
54 *437:26 *828:24 0.00012816
55 *699:89 *2790:B1 3.75762e-05
56 *721:71 *828:10 0
57 *721:71 *828:36 0
58 *722:58 *828:24 0
59 *724:43 *828:10 0.000111878
60 *724:43 *828:14 0
61 *728:31 *828:51 4.78521e-05
62 *730:14 *828:36 0
63 *752:61 *828:57 0.000128112
64 *756:32 *828:36 0
65 *768:32 *2762:B1 0
66 *768:32 *828:28 0
67 *769:27 *828:10 0
68 *790:12 *828:47 8.00376e-05
69 *794:37 *2790:B1 0.000726321
*RES
1 *3397:X *828:10 41.8437 
2 *828:10 *828:14 20.9682 
3 *828:14 *828:20 21.6583 
4 *828:20 *828:24 5.3663 
5 *828:24 *828:28 5.0882 
6 *828:28 *828:36 44.6247 
7 *828:36 *828:40 20.3193 
8 *828:40 *2758:B1 20 
9 *828:40 *828:47 8.1061 
10 *828:47 *828:51 5.8607 
11 *828:51 *828:57 42.8222 
12 *828:57 *2746:B1 20 
13 *828:51 *2742:B1 20 
14 *828:47 *2750:B1 20.6695 
15 *828:28 *2786:B1 40 
16 *828:24 *2762:B1 41.4008 
17 *828:20 *2790:B1 46.7259 
18 *828:14 *2798:B1 20 
*END

*D_NET *829 0.00400325
*CONN
*I *2830:B1 I *D sg13g2_a21oi_1
*I *2794:B1 I *D sg13g2_a21oi_1
*I *2770:B1 I *D sg13g2_a21oi_1
*I *2754:B1 I *D sg13g2_a21oi_1
*I *3398:X O *D sg13g2_buf_1
*CAP
1 *2830:B1 0
2 *2794:B1 3.42678e-05
3 *2770:B1 2.66244e-05
4 *2754:B1 0
5 *3398:X 0.000114199
6 *829:37 0.000634547
7 *829:28 0.000133472
8 *829:20 0.00125675
9 *829:12 0.000736458
10 *829:8 0.000301034
11 *2770:B1 *2787:B1 0.000126769
12 *2770:B1 *946:20 0.000128293
13 *2794:B1 *2787:B1 2.14736e-05
14 *2794:B1 *845:61 0.000158332
15 *2794:B1 *946:20 0.000159741
16 *829:12 *2771:B1 0
17 *829:12 *840:47 0
18 *829:20 *2830:A2 0
19 *829:20 *3412:A 0
20 *829:20 *840:40 0
21 *829:20 *840:47 0
22 *829:20 *1125:42 0
23 *829:28 *2791:B1 4.77866e-05
24 *829:28 *1045:20 4.77866e-05
25 *460:10 *829:20 7.57164e-05
26 *699:89 *829:12 0
27 *728:42 *829:8 0
28 *798:39 *829:8 0
*RES
1 *3398:X *829:8 40.8446 
2 *829:8 *829:12 21.6171 
3 *829:12 *829:20 45.1191 
4 *829:20 *829:28 41.7201 
5 *829:28 *2754:B1 20 
6 *829:20 *829:37 26.3757 
7 *829:37 *2770:B1 40.5974 
8 *829:37 *2794:B1 40.8446 
9 *829:12 *2830:B1 20 
*END

*D_NET *830 0.012726
*CONN
*I *2778:B1 I *D sg13g2_a21oi_1
*I *2774:B1 I *D sg13g2_a21oi_1
*I *2858:B1 I *D sg13g2_a21oi_1
*I *2854:B1 I *D sg13g2_a21oi_1
*I *3398:A I *D sg13g2_buf_1
*I *2766:B1 I *D sg13g2_a21oi_1
*I *3397:A I *D sg13g2_buf_1
*I *3399:X O *D sg13g2_buf_1
*CAP
1 *2778:B1 0.000227712
2 *2774:B1 0.000246844
3 *2858:B1 0.000400121
4 *2854:B1 0
5 *3398:A 0
6 *2766:B1 0
7 *3397:A 0.000247659
8 *3399:X 0
9 *830:51 0.000952865
10 *830:40 0.00073754
11 *830:33 0.00108595
12 *830:14 0.00181233
13 *830:10 0.00156083
14 *830:4 0.000878183
15 *2774:B1 *902:40 0
16 *2778:B1 *2778:A2 0
17 *2778:B1 *840:8 4.76068e-05
18 *2858:B1 *2775:A2 0
19 *2858:B1 *2858:A1 0
20 *2858:B1 *848:31 0.000229431
21 *2858:B1 *849:14 0.000547435
22 *2858:B1 *851:73 0.000337982
23 *2858:B1 *946:20 0.00026335
24 *3397:A *3407:A 0
25 *830:14 *834:32 0
26 *830:14 *1129:56 0
27 *830:33 *3159:RESET_B 0
28 *830:33 *3407:A 0
29 *830:33 *840:47 0
30 *830:51 *2771:B1 0
31 *830:51 *2771:A2 8.00842e-05
32 *830:51 *849:14 0.000182475
33 *830:51 *946:20 0.00049999
34 *2766:A1 *830:40 0.000306029
35 *2774:A1 *830:10 0
36 *2781:B1 *2778:B1 4.76665e-05
37 *3159:D *830:33 0
38 *3640:A *2858:B1 0.000144768
39 *392:26 *830:33 0
40 *392:26 *830:40 0
41 *412:12 *830:33 0.000159937
42 *413:10 *830:51 0
43 *418:10 *2774:B1 0.000209637
44 *418:10 *830:14 0
45 *455:14 *2778:B1 0
46 *455:14 *830:10 0
47 *481:8 *2858:B1 0.000144179
48 *699:89 *830:51 0
49 *700:20 *830:14 0.000553246
50 *700:63 *2774:B1 0
51 *700:69 *830:10 0
52 *700:69 *830:14 0
53 *724:43 *3397:A 0
54 *724:43 *830:33 0
55 *724:74 *830:51 0
56 *725:46 *830:10 0
57 *736:32 *2778:B1 0
58 *736:32 *830:10 0.000112558
59 *761:54 *2858:B1 0
60 *762:35 *2774:B1 0
61 *769:8 *3397:A 0
62 *769:27 *3397:A 0
63 *793:8 *830:40 8.01938e-05
64 *793:8 *830:51 0.000629359
65 *798:22 *830:33 0
66 *826:14 *830:51 0
*RES
1 *3399:X *830:4 20 
2 *830:4 *830:10 26.0461 
3 *830:10 *830:14 27.2718 
4 *830:14 *3397:A 22.266 
5 *830:14 *830:33 8.8333 
6 *830:33 *2766:B1 20 
7 *830:33 *830:40 2.0497 
8 *830:40 *3398:A 20 
9 *830:40 *830:51 26.5405 
10 *830:51 *2854:B1 40 
11 *830:51 *2858:B1 45.3354 
12 *830:10 *2774:B1 42.3999 
13 *830:4 *2778:B1 22.2454 
*END

*D_NET *831 0.0163273
*CONN
*I *2822:B1 I *D sg13g2_a21oi_1
*I *2834:B1 I *D sg13g2_a21oi_1
*I *2846:B1 I *D sg13g2_a21oi_1
*I *2810:B1 I *D sg13g2_a21oi_1
*I *2806:B1 I *D sg13g2_a21oi_1
*I *2838:B1 I *D sg13g2_a21oi_1
*I *2826:B1 I *D sg13g2_a21oi_1
*I *2818:B1 I *D sg13g2_a21oi_1
*I *3400:X O *D sg13g2_buf_1
*CAP
1 *2822:B1 3.34393e-05
2 *2834:B1 0
3 *2846:B1 0
4 *2810:B1 0
5 *2806:B1 0.000156808
6 *2838:B1 0.000297383
7 *2826:B1 0.000240327
8 *2818:B1 0.000367118
9 *3400:X 0
10 *831:103 0.000472576
11 *831:92 0.00045788
12 *831:75 0.000660922
13 *831:71 0.000748501
14 *831:52 0.00129938
15 *831:50 0.000970104
16 *831:33 0.000622678
17 *831:27 0.000773048
18 *831:25 0.00083269
19 *831:6 0.000577875
20 *2806:B1 *2806:A2 0
21 *2818:B1 *3400:A 8.00842e-05
22 *2818:B1 *832:8 1.54556e-05
23 *2818:B1 *843:20 0.000180885
24 *2818:B1 *1140:37 0
25 *2826:B1 *2848:B1 0.000144805
26 *2826:B1 *832:23 8.03089e-05
27 *2826:B1 *1140:56 0.000144712
28 *2838:B1 *2838:A1 0.000287672
29 *2838:B1 *1133:45 0
30 *831:25 *841:12 0.000177295
31 *831:25 *843:10 0.00012816
32 *831:25 *843:20 0.000106064
33 *831:25 *1146:41 0.000241979
34 *831:27 *3189:RESET_B 0
35 *831:27 *1139:54 0
36 *831:27 *1142:39 0
37 *831:27 *1146:41 0.000726265
38 *831:33 *841:48 0.000499799
39 *831:50 *2848:B1 6.47217e-05
40 *831:50 *841:48 0.000499799
41 *831:50 *1140:56 8.00842e-05
42 *831:52 *2838:A1 0.000372054
43 *831:52 *1143:75 0.000181192
44 *831:71 *3195:RESET_B 8.01773e-05
45 *831:71 *3467:A 0.000240614
46 *831:71 *841:68 0
47 *831:71 *843:20 0
48 *831:71 *1135:75 0.000175513
49 *831:71 *1135:85 0.000661768
50 *831:92 *843:20 0
51 *831:92 *1128:69 0
52 *831:92 *1134:27 1.54008e-05
53 *2821:A1 *2818:B1 0
54 *2829:B1 *2826:B1 1.54556e-05
55 *2840:A1 *831:50 7.33256e-05
56 *2840:A1 *831:52 0.000551527
57 *3195:D *2838:B1 0.000177399
58 *3195:CLK *831:52 0
59 *265:8 *831:92 0.000341119
60 *389:20 *2818:B1 0
61 *389:31 *2818:B1 0
62 *392:12 *2838:B1 0
63 *392:12 *831:52 0
64 *455:26 *2818:B1 0
65 *455:26 *831:71 0.000340704
66 *455:26 *831:92 0
67 *697:283 *831:71 0
68 *697:287 *2838:B1 0
69 *697:301 *831:33 0
70 *719:30 *2818:B1 0
71 *719:30 *2826:B1 0
72 *751:29 *2806:B1 0.000241716
73 *751:29 *2838:B1 0.000241979
74 *751:29 *831:75 6.48152e-05
75 *784:25 *831:50 0.000583766
*RES
1 *3400:X *831:6 40 
2 *831:6 *2818:B1 43.6771 
3 *831:6 *831:25 22.7089 
4 *831:25 *831:27 5.7268 
5 *831:27 *831:33 42.3278 
6 *831:33 *2826:B1 22.5338 
7 *831:33 *831:50 23.605 
8 *831:50 *831:52 4.3054 
9 *831:52 *2838:B1 43.6668 
10 *831:52 *831:71 47.9619 
11 *831:71 *831:75 20.5356 
12 *831:75 *2806:B1 21.6171 
13 *831:75 *831:92 44.9131 
14 *831:92 *2810:B1 20 
15 *831:50 *831:103 45.7268 
16 *831:103 *2846:B1 40 
17 *831:27 *2834:B1 20 
18 *831:25 *2822:B1 20.3502 
*END

*D_NET *832 0.026651
*CONN
*I *2850:B1 I *D sg13g2_a21oi_1
*I *2866:B1 I *D sg13g2_a21oi_1
*I *2862:B1 I *D sg13g2_a21oi_1
*I *2814:B1 I *D sg13g2_a21oi_1
*I *2782:B1 I *D sg13g2_a21oi_1
*I *2802:B1 I *D sg13g2_a21oi_1
*I *2842:B1 I *D sg13g2_a21oi_1
*I *3400:A I *D sg13g2_buf_1
*I *3401:X O *D sg13g2_buf_1
*CAP
1 *2850:B1 6.68694e-05
2 *2866:B1 0.000485563
3 *2862:B1 0
4 *2814:B1 0.000127069
5 *2782:B1 0.000769865
6 *2802:B1 0.00062131
7 *2842:B1 0.000479006
8 *3400:A 7.41501e-05
9 *3401:X 0.000124559
10 *832:110 0.00109803
11 *832:56 0.00160874
12 *832:54 0.00034463
13 *832:52 0.0010471
14 *832:37 0.0022996
15 *832:33 0.00165255
16 *832:27 0.00181585
17 *832:23 0.000994633
18 *832:8 0.000802149
19 *2802:B1 *909:63 0.000392895
20 *2802:B1 *1132:31 0
21 *2814:B1 *2814:A1 0
22 *2866:B1 *842:16 0
23 *3400:A *1140:37 0.000144706
24 *832:23 *905:50 7.51285e-05
25 *832:23 *905:65 0.000212127
26 *832:23 *1140:37 0.000758777
27 *832:23 *1140:56 6.48533e-05
28 *832:27 *2848:B1 0.000629358
29 *832:33 *1133:45 0.000436401
30 *832:33 *1135:85 0
31 *832:37 *2859:B1 0.00012651
32 *832:37 *1144:36 0
33 *832:56 *909:63 0.000554272
34 *832:110 *1136:50 0.00012816
35 *832:110 *1139:62 0
36 *832:110 *1146:41 0
37 *2804:A1 *2802:B1 0.000445754
38 *2804:A1 *832:56 5.30319e-05
39 *2818:B1 *3400:A 8.00842e-05
40 *2818:B1 *832:8 1.54556e-05
41 *2826:B1 *832:23 8.03089e-05
42 *2829:B1 *832:23 0
43 *2837:A2 *832:110 0
44 *2853:A1 *2866:B1 0
45 *2866:A1 *2866:B1 8.00842e-05
46 *2869:A1 *2866:B1 0
47 *3167:D *2782:B1 8.00842e-05
48 *3177:CLK *2802:B1 0.000128537
49 *3529:A *2802:B1 8.00842e-05
50 *389:31 *832:8 0
51 *389:31 *832:23 0
52 *389:41 *2802:B1 0
53 *389:41 *832:56 0
54 *441:12 *2802:B1 0
55 *448:10 *2814:B1 0.000258514
56 *448:10 *832:56 0.000339602
57 *457:10 *832:23 0
58 *464:12 *832:33 0
59 *464:12 *832:110 0
60 *476:18 *2866:B1 0
61 *484:8 *832:37 0
62 *703:44 *2842:B1 0
63 *703:44 *832:37 0
64 *717:46 *2842:B1 0.000200331
65 *718:44 *832:33 0
66 *719:36 *832:27 0.000693392
67 *722:76 *832:52 0
68 *723:102 *2842:B1 0.00039384
69 *726:44 *2814:B1 0.000143978
70 *726:52 *832:37 0.00012816
71 *748:31 *2782:B1 0
72 *753:18 *2782:B1 0.000597308
73 *754:31 *2842:B1 0.000274491
74 *773:8 *2782:B1 4.68099e-05
75 *773:23 *2814:B1 0.000159096
76 *773:23 *832:56 0.000980384
77 *781:10 *832:33 0.00194648
78 *781:10 *832:110 0.000693323
79 *785:23 *832:37 0.000816987
*RES
1 *3401:X *832:8 21.133 
2 *832:8 *3400:A 20.9682 
3 *832:8 *832:23 46.8495 
4 *832:23 *832:27 24.6453 
5 *832:27 *832:33 31.9171 
6 *832:33 *832:37 28.0134 
7 *832:37 *2842:B1 44.9028 
8 *832:37 *832:52 30.918 
9 *832:52 *832:54 20 
10 *832:54 *832:56 4.7998 
11 *832:56 *2802:B1 47.004 
12 *832:56 *2782:B1 47.828 
13 *832:54 *2814:B1 41.8128 
14 *832:33 *2862:B1 20 
15 *832:27 *832:110 26.2315 
16 *832:110 *2866:B1 24.3466 
17 *832:110 *2850:B1 20.8446 
*END

*D_NET *833 0.0170185
*CONN
*I *2788:A2 I *D sg13g2_o21ai_1
*I *2772:A2 I *D sg13g2_o21ai_1
*I *2756:A2 I *D sg13g2_o21ai_1
*I *2744:A2 I *D sg13g2_o21ai_1
*I *2748:A2 I *D sg13g2_o21ai_1
*I *2752:A2 I *D sg13g2_o21ai_1
*I *2760:A2 I *D sg13g2_o21ai_1
*I *2764:A2 I *D sg13g2_o21ai_1
*I *3402:X O *D sg13g2_buf_1
*CAP
1 *2788:A2 0.000112707
2 *2772:A2 0
3 *2756:A2 0.000117216
4 *2744:A2 7.10279e-05
5 *2748:A2 2.88223e-05
6 *2752:A2 0
7 *2760:A2 0
8 *2764:A2 0
9 *3402:X 0
10 *833:130 0.000903304
11 *833:111 0.00166601
12 *833:94 0.000820413
13 *833:83 0.000331384
14 *833:75 0.000702378
15 *833:58 0.000938595
16 *833:37 9.76383e-05
17 *833:29 0.00109561
18 *833:25 0.00129583
19 *833:14 0.000199242
20 *833:4 0.00102707
21 *2744:A2 *901:42 7.31538e-06
22 *2744:A2 *901:49 3.96571e-05
23 *2744:A2 *901:121 7.9947e-05
24 *2748:A2 *2743:A2 0
25 *2748:A2 *901:121 4.77534e-05
26 *2756:A2 *901:57 4.77425e-05
27 *2756:A2 *901:65 1.54008e-05
28 *2756:A2 *1045:20 0
29 *2756:A2 *1116:8 0
30 *2788:A2 *899:119 5.45687e-05
31 *833:14 *899:14 1.54556e-05
32 *833:14 *899:22 8.03692e-05
33 *833:25 *2762:A2 0
34 *833:25 *839:29 0
35 *833:25 *899:14 0
36 *833:25 *899:119 0.000287363
37 *833:25 *1128:49 0
38 *833:29 *839:29 0
39 *833:29 *899:119 7.34121e-05
40 *833:29 *1128:49 0
41 *833:37 *1128:32 7.31628e-05
42 *833:58 *2752:B1 3.23361e-05
43 *833:58 *2760:B1 0.00080095
44 *833:75 *839:67 0.000274507
45 *833:75 *839:78 0.000112546
46 *833:75 *901:14 0
47 *833:75 *901:42 0
48 *833:75 *901:49 0
49 *833:75 *901:121 0
50 *833:94 *901:57 0
51 *833:94 *909:10 0
52 *833:111 *901:57 0
53 *833:111 *909:10 0
54 *833:111 *1125:42 0
55 *833:130 *2771:B1 0
56 *833:130 *845:8 0
57 *833:130 *850:30 0
58 *833:130 *901:101 0.0004397
59 *833:130 *1045:20 0
60 *833:130 *1116:8 0
61 *2744:A1 *2744:A2 7.31538e-06
62 *2748:A1 *2748:A2 1.54008e-05
63 *2752:A1 *833:75 3.98456e-05
64 *2762:B1 *833:25 0.000209966
65 *2788:A1 *2788:A2 2.44659e-05
66 *3157:CLK *833:14 0.000144927
67 *3157:CLK *833:25 0.0001944
68 *396:10 *833:75 4.76327e-05
69 *396:10 *833:83 7.30101e-05
70 *396:10 *833:94 7.30101e-05
71 *407:14 *833:111 0.00023464
72 *407:28 *833:29 0.000544124
73 *417:8 *833:130 0
74 *427:8 *833:29 0.000232837
75 *646:35 *833:14 0
76 *699:89 *833:130 0
77 *717:32 *833:111 0
78 *722:47 *833:14 0.000144927
79 *722:47 *833:25 0.000534083
80 *722:56 *833:25 3.24568e-05
81 *728:23 *833:37 0.000113259
82 *728:23 *833:58 0.000294622
83 *728:23 *833:83 0.000146506
84 *728:42 *833:83 0.00021124
85 *728:42 *833:130 0
86 *730:28 *833:111 0
87 *740:23 *833:83 0
88 *752:34 *833:58 0
89 *752:44 *2744:A2 4.76053e-05
90 *768:10 *833:25 0
91 *768:12 *833:14 0.000181192
92 *778:25 *833:37 0.000113616
93 *778:25 *833:58 0.000310561
94 *778:25 *833:83 0.000472609
95 *790:26 *833:58 0.000663338
96 *795:10 *833:29 2.14736e-05
*RES
1 *3402:X *833:4 20 
2 *833:4 *833:14 42.3484 
3 *833:14 *2764:A2 20 
4 *833:4 *833:25 28.5181 
5 *833:25 *833:29 23.811 
6 *833:29 *833:37 41.1021 
7 *833:37 *2760:A2 20 
8 *833:29 *833:58 48.0546 
9 *833:58 *2752:A2 20 
10 *833:58 *833:75 23.3836 
11 *833:75 *833:83 43.4814 
12 *833:83 *2748:A2 40.3193 
13 *833:75 *833:94 0.8446 
14 *833:94 *2744:A2 40.6978 
15 *833:94 *833:111 26.2109 
16 *833:111 *2756:A2 20.9682 
17 *833:111 *833:130 48.6314 
18 *833:130 *2772:A2 20 
19 *833:25 *2788:A2 41.1613 
*END

*D_NET *834 0.0162376
*CONN
*I *2776:A2 I *D sg13g2_o21ai_1
*I *2768:A2 I *D sg13g2_o21ai_1
*I *2796:A2 I *D sg13g2_o21ai_1
*I *2792:A2 I *D sg13g2_o21ai_1
*I *3402:A I *D sg13g2_buf_1
*I *2800:A2 I *D sg13g2_o21ai_1
*I *2780:A2 I *D sg13g2_o21ai_1
*I *3403:X O *D sg13g2_buf_1
*CAP
1 *2776:A2 0.000103055
2 *2768:A2 0
3 *2796:A2 0
4 *2792:A2 0
5 *3402:A 0
6 *2800:A2 0.000442831
7 *2780:A2 0.000409661
8 *3403:X 0.00118327
9 *834:81 0.000543767
10 *834:73 0.00125778
11 *834:57 0.00131483
12 *834:49 0.00198404
13 *834:38 0.00134722
14 *834:32 0.0012996
15 *834:30 0.00122707
16 *2776:A2 *2776:B1 1.54556e-05
17 *2776:A2 *902:40 0
18 *2800:A2 *3465:A 4.77425e-05
19 *834:30 *2778:A2 0.000103353
20 *834:30 *840:14 0.00113384
21 *834:32 *903:48 0
22 *834:49 *839:8 0
23 *834:49 *903:25 0
24 *834:57 *2762:A2 0.000435767
25 *834:57 *903:25 0
26 *834:73 *3163:RESET_B 0
27 *834:73 *901:86 8.01447e-05
28 *834:81 *902:40 0.000273962
29 *2768:A1 *834:73 1.54008e-05
30 *2768:A1 *834:81 0
31 *2777:A1 *2776:A2 0
32 *2792:A1 *834:49 0
33 *2800:A1 *2800:A2 1.54008e-05
34 *3082:B1 *2780:A2 0
35 *3163:D *834:73 0.00011201
36 *3165:CLK *2780:A2 0.000143713
37 *3165:CLK *834:30 7.91187e-05
38 *3175:CLK *2800:A2 0
39 *256:8 *834:32 0
40 *392:26 *834:81 0.00103003
41 *418:10 *834:30 0.000182742
42 *418:10 *834:32 0.000392191
43 *419:14 *834:73 0
44 *421:8 *834:30 0
45 *423:10 *2780:A2 0.00017695
46 *432:10 *834:57 0
47 *438:12 *2800:A2 0
48 *455:22 *834:30 0
49 *460:16 *834:81 0
50 *700:20 *834:38 0
51 *700:36 *834:73 0
52 *700:69 *834:30 0
53 *721:71 *834:30 0
54 *722:47 *834:57 0
55 *723:63 *834:32 0
56 *723:67 *2776:A2 0
57 *729:35 *834:81 0
58 *731:23 *834:57 0
59 *733:37 *2800:A2 0
60 *733:37 *834:38 0.000112265
61 *744:41 *2780:A2 0
62 *759:54 *834:73 0.000532323
63 *762:35 *2776:A2 0
64 *766:37 *834:57 0
65 *798:22 *2800:A2 0.000112426
66 *798:22 *834:38 0.000129573
67 *799:31 *834:30 0
68 *830:14 *834:32 0
*RES
1 *3403:X *2780:A2 44.2539 
2 *3403:X *834:30 49.0434 
3 *834:30 *834:32 3.5638 
4 *834:32 *834:38 22.5544 
5 *834:38 *2800:A2 23.9964 
6 *834:38 *834:49 25.5414 
7 *834:49 *834:57 31.5257 
8 *834:57 *3402:A 20 
9 *834:49 *2792:A2 40 
10 *834:32 *834:73 27.0246 
11 *834:73 *834:81 46.6332 
12 *834:81 *2796:A2 20 
13 *834:73 *2768:A2 20 
14 *834:30 *2776:A2 40.9682 
*END

*D_NET *835 0.0184111
*CONN
*I *2836:A2 I *D sg13g2_o21ai_1
*I *2828:A2 I *D sg13g2_o21ai_1
*I *2808:A2 I *D sg13g2_o21ai_1
*I *2840:A2 I *D sg13g2_o21ai_1
*I *2812:A2 I *D sg13g2_o21ai_1
*I *2824:A2 I *D sg13g2_o21ai_1
*I *2820:A2 I *D sg13g2_o21ai_1
*I *2737:B I *D sg13g2_nand2_1
*I *3404:X O *D sg13g2_buf_1
*CAP
1 *2836:A2 0.000645053
2 *2828:A2 5.20024e-05
3 *2808:A2 0.0005829
4 *2840:A2 0
5 *2812:A2 0.000348902
6 *2824:A2 0
7 *2820:A2 0.00013658
8 *2737:B 0.000153675
9 *3404:X 0.000451919
10 *835:89 0.000561127
11 *835:64 0.00115259
12 *835:56 0.00157919
13 *835:54 0.000916738
14 *835:52 0.00117905
15 *835:41 0.000879758
16 *835:26 0.000880172
17 *835:8 0.000318767
18 *2737:B *3211:RESET_B 0
19 *2737:B *1139:29 0
20 *2808:A2 *2808:B1 3.08564e-05
21 *2808:A2 *979:33 0
22 *2808:A2 *1143:52 0
23 *2812:A2 *2812:B1 1.54556e-05
24 *2812:A2 *3467:A 0
25 *2812:A2 *841:68 0.000101046
26 *2828:A2 *905:81 8.00842e-05
27 *2836:A2 *2836:B1 0.000558158
28 *2836:A2 *3187:RESET_B 0.000144993
29 *2836:A2 *3193:RESET_B 0
30 *2836:A2 *837:119 0
31 *2836:A2 *905:73 0.000436369
32 *835:26 *3211:RESET_B 0.000176707
33 *835:26 *3404:A 0
34 *835:26 *837:21 0.000468297
35 *835:41 *837:21 0
36 *835:52 *3187:RESET_B 0
37 *835:54 *905:73 0
38 *835:56 *2739:B 0
39 *835:56 *990:31 0
40 *835:64 *2739:B 0
41 *835:64 *1143:52 0.000240885
42 *835:64 *1144:28 0.000241016
43 *835:89 *905:125 0.000181192
44 *835:89 *1143:75 0.000306531
45 *2808:A1 *2808:A2 0.000177569
46 *2812:A1 *2812:A2 4.79124e-05
47 *2812:A1 *835:64 0
48 *2824:A1 *835:41 1.54556e-05
49 *2824:A1 *835:52 0.000242313
50 *2836:A1 *2836:A2 0.000112826
51 *3187:CLK *835:41 0
52 *3187:CLK *835:52 0
53 *3211:D *2737:B 0
54 *389:12 *835:26 0
55 *389:12 *835:41 0.000532388
56 *389:31 *2812:A2 0.000604573
57 *389:31 *835:89 0.00015929
58 *391:10 *835:89 0.000759246
59 *392:8 *835:89 0
60 *444:10 *2808:A2 0
61 *456:12 *835:52 0
62 *701:89 *2820:A2 0
63 *751:29 *2812:A2 0.000112506
64 *768:12 *835:41 0
65 *769:39 *835:41 0
66 *773:31 *835:52 0
67 *775:8 *2808:A2 0.000143341
68 *775:23 *835:56 0
69 *776:27 *835:52 0.000159096
70 *776:27 *835:54 0.000267751
71 *776:27 *835:56 0.00196867
72 *776:27 *835:64 0.000288184
73 *800:22 *835:8 0
*RES
1 *3404:X *835:8 41.8334 
2 *835:8 *2737:B 41.4008 
3 *3404:X *835:26 43.3475 
4 *835:26 *2820:A2 41.0918 
5 *835:26 *835:41 24.841 
6 *835:41 *2824:A2 20 
7 *835:41 *835:52 24.4084 
8 *835:52 *835:54 1.339 
9 *835:54 *835:56 9.2494 
10 *835:56 *835:64 42.9561 
11 *835:64 *2812:A2 44.4599 
12 *835:64 *835:89 46.7671 
13 *835:89 *2840:A2 40 
14 *835:56 *2808:A2 45.7474 
15 *835:54 *2828:A2 40.5356 
16 *835:52 *2836:A2 47.2924 
*END

*D_NET *836 0.0093644
*CONN
*I *2868:A2 I *D sg13g2_o21ai_1
*I *2852:A2 I *D sg13g2_o21ai_1
*I *2848:A2 I *D sg13g2_o21ai_1
*I *2860:A2 I *D sg13g2_o21ai_1
*I *2864:A2 I *D sg13g2_o21ai_1
*I *3405:X O *D sg13g2_buf_1
*CAP
1 *2868:A2 0.000487712
2 *2852:A2 0
3 *2848:A2 7.02262e-05
4 *2860:A2 7.87877e-05
5 *2864:A2 0.000148798
6 *3405:X 8.46272e-05
7 *836:45 0.000563694
8 *836:12 0.000613522
9 *836:10 0.000836259
10 *836:8 0.000540706
11 *2848:A2 *2848:B1 0.000112426
12 *2860:A2 *2860:B1 8.00842e-05
13 *2864:A2 *2864:B1 0.000208688
14 *2864:A2 *906:8 0
15 *2864:A2 *906:21 0.000212958
16 *2864:A2 *906:36 5.30319e-05
17 *2868:A2 *2868:B1 0.000841556
18 *836:10 *906:36 0.00135163
19 *836:10 *1146:49 0.000450066
20 *836:12 *906:36 0.00129469
21 *836:12 *1147:26 0
22 *836:45 *2868:B1 1.54285e-05
23 *836:45 *906:36 8.01118e-05
24 *2848:A1 *2848:A2 1.54008e-05
25 *2852:A1 *2868:A2 0.000209186
26 *2852:A1 *836:45 1.54285e-05
27 *2860:A1 *2860:A2 1.54008e-05
28 *3209:CLK *2868:A2 0
29 *464:12 *836:10 0
30 *464:12 *836:12 0
31 *704:58 *2868:A2 0
32 *718:44 *2864:A2 0.00039835
33 *718:44 *836:12 0.000585631
34 *781:10 *836:10 0
35 *785:23 *836:8 0
36 *792:12 *2868:A2 0
*RES
1 *3405:X *836:8 40.8446 
2 *836:8 *836:10 6.5302 
3 *836:10 *836:12 6.0358 
4 *836:12 *2864:A2 42.5853 
5 *836:12 *2860:A2 40.7519 
6 *836:10 *2848:A2 40.7519 
7 *836:8 *836:45 20.7519 
8 *836:45 *2852:A2 20 
9 *836:45 *2868:A2 25.7268 
*END

*D_NET *837 0.0332623
*CONN
*I *3405:A I *D sg13g2_buf_1
*I *2784:A2 I *D sg13g2_o21ai_1
*I *2804:A2 I *D sg13g2_o21ai_1
*I *2856:A2 I *D sg13g2_o21ai_1
*I *2832:A2 I *D sg13g2_o21ai_1
*I *2844:A2 I *D sg13g2_o21ai_1
*I *2816:A2 I *D sg13g2_o21ai_1
*I *3404:A I *D sg13g2_buf_1
*I *3406:X O *D sg13g2_buf_1
*CAP
1 *3405:A 0
2 *2784:A2 0.000551879
3 *2804:A2 0.000536981
4 *2856:A2 0.000781285
5 *2832:A2 3.84491e-05
6 *2844:A2 0.000458455
7 *2816:A2 0
8 *3404:A 6.79535e-05
9 *3406:X 0.000114971
10 *837:119 0.00116969
11 *837:93 0.00177068
12 *837:44 0.00057865
13 *837:40 0.00161514
14 *837:29 0.00109806
15 *837:23 0.00187605
16 *837:21 0.00296159
17 *837:8 0.00112655
18 *2784:A2 *2784:B1 1.54008e-05
19 *2784:A2 *3470:A 0.00014444
20 *2784:A2 *908:10 0
21 *2804:A2 *1128:49 0
22 *2832:A2 *2832:B1 1.54008e-05
23 *2844:A2 *1132:46 0
24 *2856:A2 *907:76 0.000468541
25 *2856:A2 *907:86 0.000144731
26 *2856:A2 *907:99 1.54008e-05
27 *837:8 *1139:29 0
28 *837:21 *2820:B1 0
29 *837:21 *3187:RESET_B 0
30 *837:21 *843:125 0.000370687
31 *837:21 *905:81 0
32 *837:21 *1139:29 0
33 *837:29 *2816:B1 8.00842e-05
34 *837:40 *907:76 0.000112519
35 *837:44 *1132:46 0
36 *837:93 *843:20 0
37 *837:93 *843:24 0
38 *837:93 *1128:49 0
39 *837:119 *3187:RESET_B 0
40 *837:119 *3193:RESET_B 0
41 *837:119 *843:125 0
42 *2784:A1 *2784:A2 0.000209385
43 *2804:A1 *2804:A2 1.54008e-05
44 *2816:A1 *837:23 0.000713562
45 *2816:A1 *837:29 0.000510603
46 *2816:A1 *837:40 1.54008e-05
47 *2836:A1 *837:119 0
48 *2836:A2 *837:119 0
49 *2844:A1 *2844:A2 3.11364e-05
50 *3183:CLK *837:40 0
51 *388:18 *837:93 0
52 *426:10 *2784:A2 0
53 *450:10 *837:29 0
54 *456:12 *837:21 0.000339398
55 *464:12 *2844:A2 0.000969994
56 *464:12 *837:44 0.000393012
57 *480:10 *2856:A2 0.000370417
58 *701:89 *837:21 0.000402825
59 *703:36 *837:40 0
60 *703:51 *2856:A2 0.000370324
61 *704:58 *837:119 0
62 *726:10 *2804:A2 0
63 *726:44 *2804:A2 0.0011379
64 *726:44 *837:93 0.000662388
65 *726:52 *2856:A2 0.000209413
66 *743:21 *2784:A2 0
67 *746:23 *2856:A2 0
68 *746:23 *837:29 0
69 *746:23 *837:40 0
70 *746:23 *837:93 0
71 *750:20 *837:93 0.000305141
72 *750:31 *2856:A2 0.000144783
73 *753:28 *2844:A2 0
74 *754:31 *2784:A2 0
75 *773:23 *837:23 0.00436307
76 *773:23 *837:29 0.000129281
77 *773:23 *837:119 0.000427235
78 *776:27 *837:23 0.0036716
79 *776:27 *837:119 0.000448209
80 *780:6 *837:119 0.000111032
81 *780:29 *837:119 0.000388627
82 *781:27 *837:44 0.000340288
83 *801:25 *837:119 0
84 *835:26 *3404:A 0
85 *835:26 *837:21 0.000468297
86 *835:41 *837:21 0
*RES
1 *3406:X *837:8 21.4111 
2 *837:8 *3404:A 20.7519 
3 *837:8 *837:21 29.0126 
4 *837:21 *837:23 20.3734 
5 *837:23 *837:29 23.7286 
6 *837:29 *2816:A2 20 
7 *837:29 *837:40 6.3963 
8 *837:40 *837:44 21.8334 
9 *837:44 *2844:A2 45.0779 
10 *837:44 *2832:A2 40.3193 
11 *837:40 *2856:A2 28.5799 
12 *837:23 *837:93 47.3439 
13 *837:93 *2804:A2 46.4787 
14 *837:93 *2784:A2 45.0779 
15 *837:21 *837:119 32.3247 
16 *837:119 *3405:A 20 
*END

*D_NET *838 0.000497394
*CONN
*I *2854:A1 I *D sg13g2_a21oi_1
*I *3544:X O *D sg13g2_buf_1
*CAP
1 *2854:A1 0.000192899
2 *3544:X 0.000192899
3 *2854:A1 *2775:A2 0
4 *2854:A1 *849:14 0
5 *2854:A1 *871:10 0.000111596
6 *3547:A *2854:A1 0
7 *3640:A *2854:A1 0
8 *793:8 *2854:A1 0
*RES
1 *3544:X *2854:A1 41.9982 
*END

*D_NET *839 0.015382
*CONN
*I *2790:A2 I *D sg13g2_a21oi_1
*I *2762:A2 I *D sg13g2_a21oi_1
*I *2746:A2 I *D sg13g2_a21oi_1
*I *2743:B1 I *D sg13g2_a22oi_1
*I *2750:A2 I *D sg13g2_a21oi_1
*I *2758:A2 I *D sg13g2_a21oi_1
*I *2786:A2 I *D sg13g2_a21oi_1
*I *2798:A2 I *D sg13g2_a21oi_1
*I *3407:X O *D sg13g2_buf_1
*CAP
1 *2790:A2 0.00036291
2 *2762:A2 0.000302307
3 *2746:A2 0
4 *2743:B1 0
5 *2750:A2 0
6 *2758:A2 0
7 *2786:A2 0.000125745
8 *2798:A2 0.000110372
9 *3407:X 0.000307395
10 *839:93 0.000688215
11 *839:78 0.00101398
12 *839:67 0.00116157
13 *839:44 0.0010814
14 *839:29 0.000751494
15 *839:25 0.00101893
16 *839:14 0.00068324
17 *839:10 0.000599299
18 *839:8 0.000307395
19 *2786:A2 *2786:A1 1.54285e-05
20 *2786:A2 *3169:RESET_B 0.000176553
21 *2790:A2 *2790:A1 0.000144805
22 *2798:A2 *1131:14 1.54008e-05
23 *839:25 *1128:49 0
24 *839:29 *899:119 0.000339413
25 *839:44 *3169:RESET_B 9.7141e-05
26 *839:67 *2760:B1 0.000728285
27 *839:78 *901:121 0
28 *839:93 *2743:A2 0
29 *839:93 *901:121 0.000229017
30 *839:93 *1137:50 0.00037191
31 *2750:B1 *839:78 0
32 *2758:A1 *839:67 1.54008e-05
33 *2792:A1 *839:8 0
34 *394:10 *839:93 0.000144767
35 *395:10 *839:93 6.39133e-05
36 *400:10 *839:78 0
37 *401:10 *839:93 0
38 *407:28 *839:29 0.00038946
39 *721:71 *839:25 0.00103379
40 *721:71 *839:29 0.00129774
41 *722:47 *2762:A2 1.54282e-05
42 *722:56 *2762:A2 4.77699e-05
43 *724:43 *2790:A2 0
44 *724:43 *2798:A2 0
45 *724:43 *839:14 0
46 *728:31 *839:78 4.77425e-05
47 *728:42 *839:93 0
48 *730:28 *839:93 0.00037191
49 *752:34 *2786:A2 0
50 *752:34 *839:44 0
51 *752:44 *839:93 0
52 *769:27 *839:8 0
53 *790:12 *839:67 7.92789e-05
54 *790:26 *839:44 1.54008e-05
55 *794:37 *2790:A2 0
56 *794:37 *2798:A2 0.000176781
57 *794:37 *839:14 0
58 *828:14 *2798:A2 0
59 *828:36 *839:44 0.00022762
60 *828:47 *839:67 0
61 *828:51 *839:78 0
62 *833:25 *2762:A2 0
63 *833:25 *839:29 0
64 *833:29 *839:29 0
65 *833:75 *839:67 0.000274507
66 *833:75 *839:78 0.000112546
67 *834:49 *839:8 0
68 *834:57 *2762:A2 0.000435767
*RES
1 *3407:X *839:8 42.3278 
2 *839:8 *839:10 20 
3 *839:10 *839:14 2.2145 
4 *839:14 *2798:A2 21.1845 
5 *839:14 *839:25 24.7998 
6 *839:25 *839:29 26.0358 
7 *839:29 *2786:A2 21.1845 
8 *839:29 *839:44 42.2763 
9 *839:44 *2758:A2 20 
10 *839:44 *839:67 9.46055 
11 *839:67 *2750:A2 20 
12 *839:67 *839:78 2.9973 
13 *839:78 *2743:B1 20 
14 *839:78 *839:93 46.9525 
15 *839:93 *2746:A2 20 
16 *839:25 *2762:A2 42.9149 
17 *839:10 *2790:A2 23.5638 
*END

*D_NET *840 0.014439
*CONN
*I *2778:A2 I *D sg13g2_a21oi_1
*I *2774:A2 I *D sg13g2_a21oi_1
*I *2795:B1 I *D sg13g2_a22oi_1
*I *3407:A I *D sg13g2_buf_1
*I *2771:B1 I *D sg13g2_a22oi_1
*I *2766:A2 I *D sg13g2_a21oi_1
*I *2754:A2 I *D sg13g2_a21oi_1
*I *3408:X O *D sg13g2_buf_1
*CAP
1 *2778:A2 0.000151004
2 *2774:A2 0
3 *2795:B1 0.00049702
4 *3407:A 0.000599122
5 *2771:B1 0.000529917
6 *2766:A2 0
7 *2754:A2 0
8 *3408:X 2.63058e-05
9 *840:47 0.000684147
10 *840:40 0.000449796
11 *840:32 0.00114299
12 *840:26 0.00202102
13 *840:22 0.00157318
14 *840:14 0.00069652
15 *840:8 0.000680602
16 *2795:B1 *2795:A2 0
17 *840:14 *902:40 0
18 *840:22 *1129:56 0
19 *840:26 *1116:12 0
20 *840:26 *1129:56 0
21 *840:40 *2791:B1 0
22 *840:40 *901:86 0
23 *2766:A1 *2771:B1 0
24 *2766:A1 *840:47 0
25 *2774:A1 *840:14 0.000208947
26 *2778:A1 *2778:A2 1.53311e-05
27 *2778:B1 *2778:A2 0
28 *2778:B1 *840:8 4.76068e-05
29 *3165:CLK *2778:A2 0
30 *3397:A *3407:A 0
31 *3622:A *2795:B1 4.77866e-05
32 *455:14 *2778:A2 0.000110994
33 *455:14 *840:8 4.76068e-05
34 *460:10 *840:40 0
35 *460:16 *840:40 0
36 *697:144 *840:26 0
37 *697:144 *840:32 0
38 *699:89 *2771:B1 0
39 *699:89 *840:32 0
40 *699:89 *840:47 0
41 *700:8 *840:26 0
42 *700:69 *2778:A2 0.000124826
43 *700:69 *840:14 0.00113457
44 *716:12 *840:40 0.000181192
45 *720:68 *840:40 1.54008e-05
46 *724:43 *840:32 0.000466535
47 *724:43 *840:47 0.000176575
48 *724:74 *2771:B1 1.54008e-05
49 *729:35 *840:14 0.000435475
50 *731:34 *840:26 0
51 *731:34 *840:32 0
52 *732:37 *2795:B1 0.000677873
53 *732:37 *840:22 0.000176537
54 *734:27 *2795:B1 0
55 *734:27 *840:22 0
56 *734:44 *2795:B1 0
57 *769:27 *3407:A 0.000177003
58 *794:16 *840:40 9.05293e-05
59 *794:37 *840:32 0
60 *798:22 *3407:A 0
61 *829:12 *2771:B1 0
62 *829:12 *840:47 0
63 *829:20 *840:40 0
64 *829:20 *840:47 0
65 *830:33 *3407:A 0
66 *830:33 *840:47 0
67 *830:51 *2771:B1 0
68 *833:130 *2771:B1 0
69 *834:30 *2778:A2 0.000103353
70 *834:30 *840:14 0.00113384
*RES
1 *3408:X *840:8 40.3193 
2 *840:8 *840:14 28.2091 
3 *840:14 *840:22 42.0291 
4 *840:22 *840:26 28.0134 
5 *840:26 *840:32 25.2118 
6 *840:32 *840:40 44.8719 
7 *840:40 *2754:A2 20 
8 *840:32 *840:47 1.6171 
9 *840:47 *2766:A2 20 
10 *840:47 *2771:B1 24.9234 
11 *840:26 *3407:A 45.2942 
12 *840:22 *2795:B1 24.8616 
13 *840:14 *2774:A2 20 
14 *840:8 *2778:A2 41.7819 
*END

*D_NET *841 0.0177269
*CONN
*I *2818:A2 I *D sg13g2_a21oi_1
*I *2822:A2 I *D sg13g2_a21oi_1
*I *2846:A2 I *D sg13g2_a21oi_1
*I *2838:A2 I *D sg13g2_a21oi_1
*I *2810:A2 I *D sg13g2_a21oi_1
*I *2806:A2 I *D sg13g2_a21oi_1
*I *2834:A2 I *D sg13g2_a21oi_1
*I *2826:A2 I *D sg13g2_a21oi_1
*I *3409:X O *D sg13g2_buf_1
*CAP
1 *2818:A2 0
2 *2822:A2 8.78571e-05
3 *2846:A2 0.000359927
4 *2838:A2 0
5 *2810:A2 0
6 *2806:A2 0.000243158
7 *2834:A2 0
8 *2826:A2 0
9 *3409:X 2.77263e-05
10 *841:121 0.000276678
11 *841:83 0.000188599
12 *841:68 0.00131247
13 *841:58 0.00141062
14 *841:48 0.0015357
15 *841:33 0.000929966
16 *841:18 0.000728852
17 *841:12 0.000784369
18 *841:6 0.000556156
19 *2806:A2 *2806:A1 1.54008e-05
20 *2822:A2 *843:10 0
21 *2822:A2 *1139:37 4.77425e-05
22 *2822:A2 *1139:54 1.54008e-05
23 *2822:A2 *1142:39 4.77425e-05
24 *2846:A2 *1145:37 0.000483511
25 *2846:A2 *1145:54 1.54008e-05
26 *2846:A2 *1148:37 0
27 *841:12 *1139:37 0
28 *841:12 *1142:39 0
29 *841:12 *1146:41 0
30 *841:18 *1136:50 0.000629218
31 *841:18 *1140:37 0.000628999
32 *841:18 *1140:56 1.54008e-05
33 *841:33 *905:65 0.000393407
34 *841:33 *1136:50 0.00014395
35 *841:33 *1139:62 0
36 *841:33 *1140:56 0.000128693
37 *841:33 *1142:39 0.000144253
38 *841:33 *1142:52 1.54556e-05
39 *841:48 *1142:52 0.00026702
40 *841:48 *1145:37 0.000404054
41 *841:48 *1148:37 0
42 *841:58 *3195:RESET_B 0
43 *841:58 *905:125 0
44 *841:58 *1133:45 0
45 *841:58 *1135:85 0
46 *841:68 *2812:B1 0
47 *841:68 *2838:A1 0.000301404
48 *841:68 *3195:RESET_B 0
49 *841:68 *3467:A 8.01612e-05
50 *841:68 *1135:75 4.77537e-05
51 *841:68 *1135:85 0
52 *841:83 *3695:A 4.78524e-05
53 *841:83 *1134:27 1.54008e-05
54 *841:83 *1135:75 0.000763634
55 *841:121 *1136:31 0.00023464
56 *841:121 *1142:39 0
57 *841:121 *1146:41 0
58 *2806:B1 *2806:A2 0
59 *2812:A1 *841:68 4.78028e-05
60 *2812:A2 *841:68 0.000101046
61 *2840:A1 *841:58 0
62 *3181:CLK *2806:A2 0.000339004
63 *3195:CLK *841:48 7.55443e-05
64 *271:10 *841:33 0
65 *271:10 *841:48 0
66 *392:12 *841:58 0
67 *455:26 *2822:A2 0.000181608
68 *455:26 *841:18 0.000287343
69 *455:26 *841:83 0.000763218
70 *468:8 *841:58 0
71 *704:8 *841:48 0.000181695
72 *751:29 *841:68 0
73 *772:27 *841:121 0
74 *774:25 *841:121 0
75 *781:10 *841:58 0.00124415
76 *784:25 *841:48 0
77 *784:25 *841:58 0
78 *831:25 *841:12 0.000177295
79 *831:33 *841:48 0.000499799
80 *831:50 *841:48 0.000499799
81 *831:71 *841:68 0
*RES
1 *3409:X *841:6 20.3502 
2 *841:6 *841:12 22.5853 
3 *841:12 *841:18 25.5517 
4 *841:18 *2826:A2 20 
5 *841:18 *841:33 43.7698 
6 *841:33 *2834:A2 20 
7 *841:33 *841:48 48.3121 
8 *841:48 *841:58 46.8907 
9 *841:58 *841:68 8.8271 
10 *841:68 *2806:A2 22.4823 
11 *841:68 *841:83 43.8831 
12 *841:83 *2810:A2 20 
13 *841:58 *2838:A2 20 
14 *841:48 *2846:A2 23.3475 
15 *841:12 *2822:A2 41.1639 
16 *841:6 *841:121 43.09 
17 *841:121 *2818:A2 20 
*END

*D_NET *842 0.00792734
*CONN
*I *2866:A2 I *D sg13g2_a21oi_1
*I *2850:A2 I *D sg13g2_a21oi_1
*I *2862:A2 I *D sg13g2_a21oi_1
*I *2859:B1 I *D sg13g2_a22oi_1
*I *3410:X O *D sg13g2_buf_1
*CAP
1 *2866:A2 0
2 *2850:A2 0.00017357
3 *2862:A2 5.43548e-05
4 *2859:B1 0.00032382
5 *3410:X 0.000254804
6 *842:24 0.00164226
7 *842:16 0.00184456
8 *842:12 0.000540323
9 *842:8 0.000388221
10 *2859:B1 *1133:45 0.000176652
11 *842:8 *1139:62 0
12 *842:12 *1146:60 0.000194264
13 *842:16 *1146:60 0.000597149
14 *2848:A1 *2850:A2 0
15 *2848:A1 *842:24 0.000446352
16 *2866:A1 *842:12 1.54008e-05
17 *2866:A1 *842:16 8.00842e-05
18 *2866:B1 *842:16 0
19 *2869:A1 *842:12 0
20 *391:20 *842:24 0.000340466
21 *484:8 *2859:B1 0.000179892
22 *486:12 *2862:A2 1.54008e-05
23 *488:20 *842:12 0
24 *489:8 *842:8 0
25 *718:44 *2862:A2 1.54008e-05
26 *751:39 *2859:B1 0
27 *751:54 *2859:B1 4.77425e-05
28 *785:23 *2850:A2 0.000448013
29 *785:23 *2859:B1 0
30 *785:23 *842:24 0
31 *788:37 *2859:B1 0
32 *788:37 *842:24 0
33 *791:12 *842:24 2.20966e-05
34 *791:21 *842:8 0
35 *832:37 *2859:B1 0.00012651
*RES
1 *3410:X *842:8 42.575 
2 *842:8 *842:12 21.4008 
3 *842:12 *842:16 23.9964 
4 *842:16 *842:24 11.7214 
5 *842:24 *2859:B1 43.4917 
6 *842:24 *2862:A2 40.5356 
7 *842:16 *2850:A2 42.0806 
8 *842:12 *2866:A2 20 
*END

*D_NET *843 0.0268153
*CONN
*I *3410:A I *D sg13g2_buf_1
*I *3409:A I *D sg13g2_buf_1
*I *2814:A2 I *D sg13g2_a21oi_1
*I *2831:B1 I *D sg13g2_a22oi_1
*I *2855:B1 I *D sg13g2_a22oi_1
*I *2842:A2 I *D sg13g2_a21oi_1
*I *2802:A2 I *D sg13g2_a21oi_1
*I *2782:A2 I *D sg13g2_a21oi_1
*I *3411:X O *D sg13g2_buf_1
*CAP
1 *3410:A 0
2 *3409:A 2.60565e-05
3 *2814:A2 5.05037e-05
4 *2831:B1 0
5 *2855:B1 0.000375672
6 *2842:A2 6.16215e-05
7 *2802:A2 0.000322108
8 *2782:A2 0.00063654
9 *3411:X 0
10 *843:125 0.00208176
11 *843:70 0.000437294
12 *843:68 0.000803783
13 *843:62 0.00122587
14 *843:45 0.00110816
15 *843:24 0.00131077
16 *843:20 0.00208218
17 *843:10 0.00186864
18 *843:6 0.00220293
19 *2782:A2 *3167:RESET_B 0.000339174
20 *2782:A2 *1126:37 1.54008e-05
21 *2782:A2 *1126:52 0.000274189
22 *2802:A2 *2802:A1 1.54008e-05
23 *2802:A2 *1132:31 0.000176085
24 *2814:A2 *2814:A1 1.54008e-05
25 *2855:B1 *1144:36 0.000281366
26 *3409:A *1136:50 4.77425e-05
27 *3409:A *1146:41 4.77425e-05
28 *843:10 *1139:37 0
29 *843:20 *1128:49 0.000500716
30 *843:20 *1131:23 0
31 *843:20 *1133:45 0
32 *843:20 *1135:46 0
33 *843:20 *1141:33 0
34 *843:45 *3470:A 0.000240405
35 *843:62 *2831:A2 0
36 *843:62 *907:46 0
37 *843:62 *1085:8 4.74248e-05
38 *843:125 *2836:B1 0.000225508
39 *843:125 *2868:B1 0
40 *843:125 *3201:RESET_B 0.000338493
41 *843:125 *3209:RESET_B 0
42 *843:125 *905:73 0.000436369
43 *843:125 *905:81 0
44 *843:125 *905:94 0
45 *843:125 *1139:37 0
46 *843:125 *1139:62 0
47 *2808:A1 *843:20 0
48 *2818:B1 *843:20 0.000180885
49 *2822:A2 *843:10 0
50 *2869:A1 *843:125 0
51 *3187:D *843:125 8.02431e-05
52 *3201:D *843:125 0.000241847
53 *3209:D *843:125 0
54 *264:8 *843:20 0.000446854
55 *270:16 *843:68 0
56 *388:18 *2782:A2 0.00023464
57 *388:18 *843:24 0.000872269
58 *389:20 *843:10 0
59 *389:20 *843:125 0
60 *391:63 *2842:A2 0.00028545
61 *391:63 *2855:B1 0.000209001
62 *393:14 *843:10 0.000212215
63 *393:14 *843:20 0.000546444
64 *446:14 *2802:A2 0.000976963
65 *446:14 *843:62 0.000340288
66 *455:26 *843:20 0
67 *456:12 *843:125 0
68 *476:12 *2842:A2 0.00028545
69 *476:12 *2855:B1 0.000177442
70 *478:26 *2855:B1 7.52149e-05
71 *479:10 *2855:B1 0.000488534
72 *480:10 *2855:B1 2.20966e-05
73 *488:20 *843:125 0
74 *721:71 *2782:A2 0.000235055
75 *721:71 *843:24 0.000106064
76 *721:77 *843:45 0
77 *722:72 *843:62 0
78 *722:76 *843:68 0
79 *725:46 *2802:A2 0.000924101
80 *725:46 *843:45 4.68099e-05
81 *726:44 *843:24 0
82 *743:21 *843:62 0.000434769
83 *743:29 *843:62 0
84 *746:23 *843:20 0
85 *750:20 *2855:B1 4.77425e-05
86 *750:31 *2855:B1 4.77425e-05
87 *754:31 *2782:A2 0.000597203
88 *754:31 *843:45 0
89 *780:16 *843:125 0.000499773
90 *831:25 *843:10 0.00012816
91 *831:25 *843:20 0.000106064
92 *831:71 *843:20 0
93 *831:92 *843:20 0
94 *837:21 *843:125 0.000370687
95 *837:93 *843:20 0
96 *837:93 *843:24 0
97 *837:119 *843:125 0
*RES
1 *3411:X *843:6 40 
2 *843:6 *843:10 1.9055 
3 *843:10 *843:20 39.261 
4 *843:20 *843:24 24.0582 
5 *843:24 *2782:A2 47.519 
6 *843:24 *843:45 43.3475 
7 *843:45 *2802:A2 45.7371 
8 *843:45 *843:62 24.7174 
9 *843:62 *843:68 47.6735 
10 *843:68 *843:70 20 
11 *843:70 *2842:A2 41.339 
12 *843:70 *2855:B1 45.0161 
13 *843:62 *2831:B1 20 
14 *843:20 *2814:A2 20.5356 
15 *843:10 *3409:A 40.3193 
16 *843:6 *843:125 41.9184 
17 *843:125 *3410:A 20 
*END

*D_NET *844 0.00754534
*CONN
*I *2770:A2 I *D sg13g2_a21oi_1
*I *2755:B1 I *D sg13g2_a22oi_1
*I *2763:B1 I *D sg13g2_a22oi_1
*I *2747:B1 I *D sg13g2_a22oi_1
*I *2759:B1 I *D sg13g2_a22oi_1
*I *2742:A2 I *D sg13g2_a21oi_1
*I *2751:B1 I *D sg13g2_a22oi_1
*I *2791:B1 I *D sg13g2_a22oi_1
*I *3412:X O *D sg13g2_buf_1
*CAP
1 *2770:A2 9.90288e-05
2 *2755:B1 8.26876e-05
3 *2763:B1 0.000132277
4 *2747:B1 0.000272237
5 *2759:B1 0
6 *2742:A2 0
7 *2751:B1 3.10612e-05
8 *2791:B1 0.000699986
9 *3412:X 0.00128747
10 *844:62 0.000330367
11 *844:55 0.000187365
12 *844:40 0.000349656
13 *844:36 0.000533232
14 *844:32 0.000598157
15 *844:30 0.000354243
16 *844:28 0.000836063
17 *2747:B1 *2747:A2 0
18 *2747:B1 *2759:B2 0
19 *2747:B1 *912:16 1.54556e-05
20 *2763:B1 *2755:A2 4.76924e-05
21 *2763:B1 *2763:B2 0
22 *2770:A2 *2770:A1 1.54008e-05
23 *2770:A2 *1116:8 0.000144768
24 *2791:B1 *3171:RESET_B 0
25 *2791:B1 *3417:A 0
26 *2791:B1 *850:30 0
27 *2791:B1 *1045:20 0
28 *844:28 *850:30 0
29 *844:28 *1045:20 0.000315512
30 *844:36 *2747:A2 0
31 *844:36 *2787:A2 0
32 *844:55 *2747:A2 0
33 *844:55 *860:12 0.000179494
34 *844:62 *2759:B2 0
35 *2742:A1 *2747:B1 0
36 *2742:A1 *844:55 7.46939e-05
37 *2742:A1 *844:62 0
38 *2747:A1 *2747:B1 4.77425e-05
39 *2757:A2 *2755:B1 8.00842e-05
40 *397:16 *844:62 0
41 *401:10 *2751:B1 4.77425e-05
42 *407:14 *844:40 0
43 *407:14 *844:62 8.02434e-05
44 *410:14 *2763:B1 4.77425e-05
45 *415:8 *844:28 0.000126769
46 *431:10 *2791:B1 4.78192e-05
47 *433:8 *844:28 0
48 *720:68 *2791:B1 4.77425e-05
49 *730:32 *844:36 0
50 *730:65 *844:32 0
51 *730:65 *844:36 0
52 *731:23 *2791:B1 4.79124e-05
53 *731:34 *2791:B1 0.000225967
54 *752:61 *2751:B1 1.54008e-05
55 *752:61 *844:28 0
56 *752:61 *844:30 0
57 *752:61 *844:32 0
58 *752:61 *844:36 0
59 *756:40 *2747:B1 1.54556e-05
60 *756:40 *844:40 0
61 *778:12 *844:40 0
62 *778:12 *844:55 8.00842e-05
63 *778:12 *844:62 0
64 *828:57 *844:55 0
65 *829:28 *2791:B1 4.77866e-05
66 *840:40 *2791:B1 0
*RES
1 *3412:X *2791:B1 46.5611 
2 *3412:X *844:28 45.9843 
3 *844:28 *844:30 1.339 
4 *844:30 *844:32 1.0918 
5 *844:32 *844:36 23.0694 
6 *844:36 *844:40 1.3184 
7 *844:40 *2751:B1 20.3193 
8 *844:40 *844:55 41.8746 
9 *844:55 *2742:A2 20 
10 *844:36 *844:62 0.7519 
11 *844:62 *2759:B1 20 
12 *844:62 *2747:B1 22.7192 
13 *844:32 *2763:B1 41.2875 
14 *844:30 *2755:B1 40.7519 
15 *844:28 *2770:A2 40.9682 
*END

*D_NET *845 0.00944706
*CONN
*I *2767:B1 I *D sg13g2_a22oi_1
*I *2794:A2 I *D sg13g2_a21oi_1
*I *2787:B1 I *D sg13g2_a22oi_1
*I *2799:B1 I *D sg13g2_a22oi_1
*I *2830:A2 I *D sg13g2_a21oi_1
*I *3412:A I *D sg13g2_buf_1
*I *3413:X O *D sg13g2_buf_1
*CAP
1 *2767:B1 0
2 *2794:A2 3.04198e-05
3 *2787:B1 0.000323176
4 *2799:B1 0
5 *2830:A2 9.86984e-05
6 *3412:A 0.000244604
7 *3413:X 0.000351854
8 *845:91 0.000234468
9 *845:61 0.000732155
10 *845:53 0.000840066
11 *845:42 0.000373005
12 *845:16 0.00064101
13 *845:8 0.000795529
14 *2787:B1 *2787:B2 0
15 *2787:B1 *893:18 0
16 *2787:B1 *912:16 0.00012816
17 *2787:B1 *946:14 0.000388228
18 *2787:B1 *1094:12 0.000659397
19 *2794:A2 *2794:A1 4.77425e-05
20 *2830:A2 *1125:42 0.000180882
21 *3412:A *1125:42 0.00060678
22 *845:8 *851:31 0
23 *845:16 *851:31 0
24 *845:16 *901:101 0
25 *845:53 *2767:A2 0
26 *845:61 *946:20 0.000654933
27 *845:61 *1094:12 7.51285e-05
28 *845:61 *1105:10 0
29 *845:91 *2767:A2 0
30 *845:91 *1127:10 0.000126358
31 *2767:A1 *845:91 3.15716e-05
32 *2770:B1 *2787:B1 0.000126769
33 *2787:A1 *2787:B1 4.77425e-05
34 *2794:B1 *2787:B1 2.14736e-05
35 *2794:B1 *845:61 0.000158332
36 *413:10 *845:91 0.000256133
37 *417:8 *845:16 0.000181144
38 *437:14 *845:16 0.000370664
39 *437:14 *845:42 0.000112426
40 *437:14 *845:53 3.8502e-06
41 *699:89 *2830:A2 4.77425e-05
42 *699:89 *845:53 0.00030213
43 *699:89 *845:91 1.54008e-05
44 *733:45 *845:8 0
45 *733:45 *845:42 0.000112535
46 *758:67 *845:16 0
47 *798:39 *845:8 0
48 *804:8 *845:91 0
49 *826:14 *845:61 0
50 *826:14 *845:91 0.000126552
51 *829:20 *2830:A2 0
52 *829:20 *3412:A 0
53 *833:130 *845:8 0
*RES
1 *3413:X *845:8 42.575 
2 *845:8 *845:16 43.3269 
3 *845:16 *3412:A 42.8222 
4 *845:16 *2830:A2 41.1639 
5 *845:8 *845:42 21.7201 
6 *845:42 *2799:B1 20 
7 *845:42 *845:53 2.5029 
8 *845:53 *845:61 24.7277 
9 *845:61 *2787:B1 44.5938 
10 *845:61 *2794:A2 40.3193 
11 *845:53 *845:91 42.7501 
12 *845:91 *2767:B1 20 
*END

*D_NET *846 0.00936246
*CONN
*I *2823:B1 I *D sg13g2_a22oi_1
*I *2843:B1 I *D sg13g2_a22oi_1
*I *2819:B1 I *D sg13g2_a22oi_1
*I *2827:B1 I *D sg13g2_a22oi_1
*I *2835:B1 I *D sg13g2_a22oi_1
*I *2839:B1 I *D sg13g2_a22oi_1
*I *2815:B1 I *D sg13g2_a22oi_1
*I *2811:B1 I *D sg13g2_a22oi_1
*I *3414:X O *D sg13g2_buf_1
*CAP
1 *2823:B1 0
2 *2843:B1 0.000176411
3 *2819:B1 0
4 *2827:B1 8.91048e-05
5 *2835:B1 0
6 *2839:B1 0
7 *2815:B1 0
8 *2811:B1 0.00018116
9 *3414:X 5.42314e-05
10 *846:77 0.000283262
11 *846:66 0.000195955
12 *846:64 0.000617404
13 *846:44 0.000191792
14 *846:38 0.000992779
15 *846:29 0.000263902
16 *846:14 0.000863976
17 *846:8 0.000656728
18 *2811:B1 *852:94 0
19 *2827:B1 *2819:A2 0.000157003
20 *2827:B1 *852:24 0.000178292
21 *846:14 *852:94 0
22 *846:29 *852:94 0.000283604
23 *846:38 *852:10 0
24 *846:44 *2839:A2 0
25 *846:77 *2819:A2 0.000179009
26 *2827:A1 *2827:B1 0.000283361
27 *2827:A1 *846:77 0.000104676
28 *392:14 *846:14 0
29 *422:16 *2811:B1 0
30 *422:16 *846:14 0
31 *440:10 *846:29 0
32 *449:8 *846:29 0.000112162
33 *452:10 *846:29 0
34 *452:10 *846:38 0
35 *452:10 *846:64 0
36 *455:14 *2811:B1 1.54008e-05
37 *455:14 *846:14 0.000466851
38 *455:14 *846:64 0.000456667
39 *460:16 *846:14 0
40 *464:10 *846:38 3.14953e-05
41 *464:12 *846:44 0.000654738
42 *736:32 *2811:B1 4.77425e-05
43 *736:45 *2811:B1 3.23417e-05
44 *737:39 *846:14 0.000402327
45 *739:37 *2843:B1 0.000286639
46 *742:27 *2843:B1 0.000159774
47 *742:27 *846:77 0.000234239
48 *744:47 *846:44 0.000393081
49 *745:18 *846:44 2.14736e-05
50 *782:22 *846:64 0.000273254
51 *804:18 *2827:B1 0
52 *804:18 *2843:B1 0
53 *827:30 *2843:B1 2.16263e-05
*RES
1 *3414:X *846:8 40.5974 
2 *846:8 *846:14 24.4702 
3 *846:14 *2811:B1 21.6171 
4 *846:14 *846:29 42.5853 
5 *846:29 *2815:B1 20 
6 *846:8 *846:38 21.5203 
7 *846:38 *846:44 43.0694 
8 *846:44 *2839:B1 20 
9 *846:38 *2835:B1 20 
10 *846:38 *846:64 6.6332 
11 *846:64 *846:66 20 
12 *846:66 *2827:B1 41.5862 
13 *846:66 *846:77 1.5862 
14 *846:77 *2819:B1 40 
15 *846:77 *2843:B1 42.0806 
16 *846:64 *2823:B1 20 
*END

*D_NET *847 0.00358514
*CONN
*I *2867:B1 I *D sg13g2_a22oi_1
*I *2863:B1 I *D sg13g2_a22oi_1
*I *2847:B1 I *D sg13g2_a22oi_1
*I *2851:B1 I *D sg13g2_a22oi_1
*I *3415:X O *D sg13g2_buf_1
*CAP
1 *2867:B1 8.24666e-05
2 *2863:B1 0
3 *2847:B1 3.54364e-05
4 *2851:B1 0.000195965
5 *3415:X 0.000118473
6 *847:22 0.000386093
7 *847:14 0.000202619
8 *847:8 0.000248868
9 *2851:B1 *853:33 1.54008e-05
10 *847:8 *853:8 0.000193973
11 *847:8 *853:14 1.54008e-05
12 *847:22 *2863:A2 0.000180676
13 *847:22 *848:90 0
14 *847:22 *853:33 0.000338191
15 *3637:A *2847:B1 9.63331e-05
16 *3637:A *2851:B1 0.000248665
17 *473:8 *2847:B1 4.77083e-05
18 *473:14 *2867:B1 0.000232418
19 *473:14 *847:14 0.000127853
20 *485:8 *847:14 3.23417e-05
21 *485:8 *847:22 4.77425e-05
22 *485:22 *2867:B1 0.000210322
23 *485:22 *847:14 0.000127853
24 *753:28 *847:8 1.54008e-05
25 *753:28 *847:14 4.77425e-05
26 *753:28 *847:22 8.00842e-05
27 *753:43 *847:8 0.000209374
28 *754:31 *2867:B1 4.77425e-05
29 *827:30 *2851:B1 0
*RES
1 *3415:X *847:8 41.4008 
2 *847:8 *847:14 20.9167 
3 *847:14 *847:22 42.1218 
4 *847:22 *2851:B1 22.2042 
5 *847:22 *2847:B1 20.5356 
6 *847:14 *2863:B1 20 
7 *847:8 *2867:B1 41.4111 
*END

*D_NET *848 0.0126981
*CONN
*I *2807:B1 I *D sg13g2_a22oi_1
*I *3415:A I *D sg13g2_buf_1
*I *2783:B1 I *D sg13g2_a22oi_1
*I *2779:B1 I *D sg13g2_a22oi_1
*I *2775:B1 I *D sg13g2_a22oi_1
*I *2858:A2 I *D sg13g2_a21oi_1
*I *2854:A2 I *D sg13g2_a21oi_1
*I *2803:B1 I *D sg13g2_a22oi_1
*I *3416:X O *D sg13g2_buf_1
*CAP
1 *2807:B1 0
2 *3415:A 0
3 *2783:B1 0
4 *2779:B1 0
5 *2775:B1 0
6 *2858:A2 0.000135244
7 *2854:A2 0
8 *2803:B1 0.000273417
9 *3416:X 2.77263e-05
10 *848:98 0.000233032
11 *848:90 0.00140351
12 *848:43 0.000260044
13 *848:33 0.000513901
14 *848:31 0.000278175
15 *848:27 0.000281974
16 *848:25 0.000398196
17 *848:23 0.00144626
18 *848:21 0.000778048
19 *848:6 0.00107919
20 *2858:A2 *2858:A1 0.00014474
21 *848:21 *2795:A2 0.000112399
22 *848:21 *851:6 0.000112426
23 *848:25 *871:16 0
24 *848:27 *2783:A2 0
25 *848:27 *871:16 0
26 *848:31 *2783:A2 0
27 *848:33 *2858:A1 0
28 *848:43 *2775:A2 1.54008e-05
29 *848:43 *871:10 0
30 *848:43 *946:30 0.000112394
31 *848:90 *2819:A2 0.000337786
32 *848:90 *2863:A2 2.14736e-05
33 *848:90 *852:24 0.000334418
34 *848:90 *871:16 0
35 *848:90 *1125:48 0.000178985
36 *848:98 *871:16 7.3236e-05
37 *2775:A1 *848:33 4.77425e-05
38 *2807:A1 *848:90 0.000279469
39 *2843:A1 *848:90 7.34808e-05
40 *2858:B1 *848:31 0.000229431
41 *3418:A *848:21 8.02267e-05
42 *3624:A *848:21 0
43 *3625:A *848:90 0.00010525
44 *3637:A *848:98 0
45 *3648:A *848:25 0.000106064
46 *3648:A *848:27 0.000319022
47 *3648:A *848:31 0.000387036
48 *419:14 *2858:A2 0
49 *419:14 *848:33 0.000128049
50 *419:14 *848:43 0
51 *440:10 *2803:B1 4.77425e-05
52 *458:10 *848:21 0
53 *473:14 *848:90 0
54 *485:8 *848:98 4.6975e-05
55 *730:65 *848:43 0.000233249
56 *731:50 *848:25 0
57 *734:44 *2803:B1 0.000445382
58 *734:44 *848:21 0.000564681
59 *736:53 *848:21 0
60 *739:37 *848:90 0.00028542
61 *741:22 *848:90 7.34424e-05
62 *746:27 *848:98 0
63 *747:42 *848:90 0.000183722
64 *750:31 *848:98 0
65 *752:69 *848:43 0
66 *753:43 *848:98 0.000111658
67 *754:46 *848:98 0
68 *761:50 *848:43 0.000144702
69 *761:54 *848:31 7.30101e-05
70 *770:14 *848:21 0
71 *770:22 *2803:B1 0
72 *770:22 *848:21 0
73 *804:18 *848:25 0
74 *827:30 *848:90 0.000180331
75 *847:22 *848:90 0
*RES
1 *3416:X *848:6 20.3502 
2 *848:6 *2803:B1 23.0797 
3 *848:6 *848:21 7.2277 
4 *848:21 *848:23 20 
5 *848:23 *848:25 2.575 
6 *848:25 *848:27 1.5862 
7 *848:27 *848:31 22.0806 
8 *848:31 *848:33 1.1845 
9 *848:33 *848:43 42.8428 
10 *848:43 *2854:A2 20 
11 *848:33 *2858:A2 21.3184 
12 *848:31 *2775:B1 20 
13 *848:27 *2779:B1 40 
14 *848:25 *2783:B1 40 
15 *848:23 *848:90 32.2055 
16 *848:90 *848:98 42.0291 
17 *848:98 *3415:A 20 
18 *848:21 *2807:B1 20 
*END

*D_NET *849 0.00337141
*CONN
*I *2858:A1 I *D sg13g2_a21oi_1
*I *3545:X O *D sg13g2_buf_1
*CAP
1 *2858:A1 0.000232676
2 *3545:X 0.000636928
3 *849:14 0.000869604
4 *849:14 *2775:A2 0.00012559
5 *849:14 *871:16 0
6 *2775:A1 *2858:A1 8.00842e-05
7 *2854:A1 *849:14 0
8 *2858:A2 *2858:A1 0.00014474
9 *2858:B1 *2858:A1 0
10 *2858:B1 *849:14 0.000547435
11 *3544:A *849:14 0.00023003
12 *3640:A *2858:A1 0.000177109
13 *481:8 *2858:A1 0.00014474
14 *793:8 *849:14 0
15 *826:14 *849:14 0
16 *830:51 *849:14 0.000182475
17 *848:33 *2858:A1 0
*RES
1 *3545:X *849:14 46.901 
2 *849:14 *2858:A1 42.4823 
*END

*D_NET *850 0.0101184
*CONN
*I *2755:A2 I *D sg13g2_a22oi_1
*I *2763:A2 I *D sg13g2_a22oi_1
*I *2787:A2 I *D sg13g2_a22oi_1
*I *2759:A2 I *D sg13g2_a22oi_1
*I *2747:A2 I *D sg13g2_a22oi_1
*I *2743:A2 I *D sg13g2_a22oi_1
*I *2751:A2 I *D sg13g2_a22oi_1
*I *2791:A2 I *D sg13g2_a22oi_1
*I *3417:X O *D sg13g2_buf_1
*CAP
1 *2755:A2 0.000288408
2 *2763:A2 4.08322e-05
3 *2787:A2 0.000135116
4 *2759:A2 0
5 *2747:A2 0.000424384
6 *2743:A2 0.000460755
7 *2751:A2 0.0001161
8 *2791:A2 0.000351058
9 *3417:X 0.00127173
10 *850:70 0.000764135
11 *850:36 0.000668761
12 *850:34 0.00047793
13 *850:32 0.000376189
14 *850:30 0.00148111
15 *850:8 0.000584052
16 *2743:A2 *2743:B2 4.77425e-05
17 *2743:A2 *901:121 0.000111324
18 *2747:A2 *860:12 0
19 *2747:A2 *912:16 0
20 *2755:A2 *2755:B2 4.77425e-05
21 *2755:A2 *2763:B2 0.000112426
22 *2787:A2 *912:16 0
23 *2791:A2 *901:65 0.00014339
24 *2791:A2 *1045:20 0
25 *2791:A2 *1116:8 0.000208382
26 *850:8 *909:49 0
27 *850:30 *3417:A 0
28 *850:30 *1045:20 0
29 *850:70 *1137:56 8.09323e-05
30 *2742:A1 *2747:A2 0
31 *2747:B1 *2747:A2 0
32 *2748:A2 *2743:A2 0
33 *2757:A2 *2755:A2 0.000177214
34 *2763:B1 *2755:A2 4.76924e-05
35 *2791:B1 *850:30 0
36 *3153:CLK *2791:A2 0.000208971
37 *3171:D *2791:A2 0
38 *251:10 *2791:A2 0
39 *401:10 *2743:A2 0.000241137
40 *401:10 *2751:A2 0
41 *403:8 *850:8 0.000288087
42 *407:14 *2743:A2 0
43 *433:14 *850:30 0.000128662
44 *717:32 *850:8 0.00023464
45 *730:32 *2787:A2 0
46 *740:27 *2747:A2 0
47 *752:44 *2743:A2 0
48 *752:44 *850:36 0
49 *752:50 *2743:A2 0.000144937
50 *752:61 *850:30 0
51 *752:61 *850:34 0
52 *755:35 *2791:A2 0
53 *756:32 *850:70 0
54 *756:40 *2747:A2 0
55 *757:57 *2755:A2 4.77425e-05
56 *766:37 *2791:A2 0
57 *778:12 *2751:A2 4.77534e-05
58 *828:57 *2751:A2 0.000178206
59 *828:57 *850:36 0.000180837
60 *833:130 *850:30 0
61 *839:93 *2743:A2 0
62 *844:28 *850:30 0
63 *844:36 *2747:A2 0
64 *844:36 *2787:A2 0
65 *844:55 *2747:A2 0
*RES
1 *3417:X *850:8 42.575 
2 *850:8 *2791:A2 43.6977 
3 *3417:X *850:30 49.3833 
4 *850:30 *850:32 1.339 
5 *850:32 *850:34 1.5862 
6 *850:34 *850:36 1.0918 
7 *850:36 *2751:A2 41.1639 
8 *850:36 *2743:A2 44.9337 
9 *850:34 *850:70 42.4823 
10 *850:70 *2747:A2 43.6668 
11 *850:70 *2759:A2 40 
12 *850:70 *2787:A2 41.0918 
13 *850:32 *2763:A2 40.3193 
14 *850:30 *2755:A2 42.9355 
*END

*D_NET *851 0.0138947
*CONN
*I *2783:A2 I *D sg13g2_a22oi_1
*I *2775:A2 I *D sg13g2_a22oi_1
*I *2779:A2 I *D sg13g2_a22oi_1
*I *2771:A2 I *D sg13g2_a22oi_1
*I *2767:A2 I *D sg13g2_a22oi_1
*I *2799:A2 I *D sg13g2_a22oi_1
*I *3417:A I *D sg13g2_buf_1
*I *2795:A2 I *D sg13g2_a22oi_1
*I *3418:X O *D sg13g2_buf_1
*CAP
1 *2783:A2 0.000252357
2 *2775:A2 0.000260799
3 *2779:A2 0
4 *2771:A2 5.61002e-05
5 *2767:A2 0.00044718
6 *2799:A2 0
7 *3417:A 0.000707859
8 *2795:A2 0.00042347
9 *3418:X 6.60236e-05
10 *851:82 0.000538981
11 *851:73 0.000313416
12 *851:46 0.000484988
13 *851:31 0.00107254
14 *851:27 0.000746273
15 *851:25 0.00108641
16 *851:6 0.000925016
17 *2767:A2 *2799:B2 4.77425e-05
18 *2775:A2 *871:16 0.000284871
19 *2775:A2 *946:30 0
20 *2783:A2 *871:16 0
21 *851:73 *957:20 4.77425e-05
22 *851:82 *957:20 4.77425e-05
23 gpio_out[0] *2775:A2 0
24 *2771:A1 *851:27 0.00076066
25 *2771:A1 *851:31 0.000231654
26 *2773:A2 *2767:A2 0.000467195
27 *2773:B1 *2767:A2 0
28 *2791:B1 *3417:A 0
29 *2795:B1 *2795:A2 0
30 *2854:A1 *2775:A2 0
31 *2858:B1 *2775:A2 0
32 *2858:B1 *851:73 0.000337982
33 *3537:A *2767:A2 0
34 *3622:A *2795:A2 0
35 *3624:A *2795:A2 0
36 *3640:A *2775:A2 0
37 *3640:A *851:82 0
38 *3649:A *2783:A2 4.77425e-05
39 *261:8 *851:25 0.000234311
40 *417:8 *3417:A 0
41 *422:8 *851:73 0
42 *433:14 *3417:A 0.000338453
43 *433:14 *851:25 0.000287036
44 *433:14 *851:31 0
45 *434:14 *2795:A2 0
46 *434:14 *851:25 0.00034079
47 *478:18 *851:25 0.000106392
48 *478:18 *851:27 0.000708853
49 *716:12 *3417:A 0.000759438
50 *720:68 *3417:A 1.54008e-05
51 *733:45 *851:27 0
52 *733:45 *851:31 0
53 *733:60 *851:25 0
54 *734:44 *2795:A2 0.000403424
55 *758:67 *3417:A 0
56 *759:77 *851:25 7.51285e-05
57 *759:77 *851:27 0.000477113
58 *826:14 *2783:A2 4.77425e-05
59 *830:51 *2771:A2 8.00842e-05
60 *845:8 *851:31 0
61 *845:16 *851:31 0
62 *845:53 *2767:A2 0
63 *845:91 *2767:A2 0
64 *848:21 *2795:A2 0.000112399
65 *848:21 *851:6 0.000112426
66 *848:27 *2783:A2 0
67 *848:31 *2783:A2 0
68 *848:43 *2775:A2 1.54008e-05
69 *849:14 *2775:A2 0.00012559
70 *850:30 *3417:A 0
*RES
1 *3418:X *851:6 20.7519 
2 *851:6 *2795:A2 24.2333 
3 *851:6 *851:25 25.2221 
4 *851:25 *851:27 5.7886 
5 *851:27 *851:31 2.8943 
6 *851:31 *3417:A 47.313 
7 *851:31 *851:46 20.3193 
8 *851:46 *2799:A2 20 
9 *851:46 *2767:A2 24.841 
10 *851:27 *2771:A2 40.5356 
11 *851:25 *851:73 22.6986 
12 *851:73 *2779:A2 20 
13 *851:73 *851:82 20.3193 
14 *851:82 *2775:A2 43.2445 
15 *851:82 *2783:A2 41.9055 
*END

*D_NET *852 0.00898198
*CONN
*I *2815:A2 I *D sg13g2_a22oi_1
*I *2811:A2 I *D sg13g2_a22oi_1
*I *2835:A2 I *D sg13g2_a22oi_1
*I *2839:A2 I *D sg13g2_a22oi_1
*I *2823:A2 I *D sg13g2_a22oi_1
*I *2819:A2 I *D sg13g2_a22oi_1
*I *2827:A2 I *D sg13g2_a22oi_1
*I *2807:A2 I *D sg13g2_a22oi_1
*I *3419:X O *D sg13g2_buf_1
*CAP
1 *2815:A2 0
2 *2811:A2 0
3 *2835:A2 2.76164e-05
4 *2839:A2 0.000369254
5 *2823:A2 0
6 *2819:A2 7.68424e-05
7 *2827:A2 1.37667e-05
8 *2807:A2 9.37918e-05
9 *3419:X 0.000101919
10 *852:94 0.000379901
11 *852:82 0.000573345
12 *852:24 0.000214879
13 *852:20 0.000184163
14 *852:18 0.000663997
15 *852:12 0.00103325
16 *852:10 0.000289256
17 *852:6 0.000557002
18 *2807:A2 *1127:16 3.15744e-05
19 *2827:A2 *1127:16 0
20 *2839:A2 *1125:42 0
21 *852:18 *1125:42 0
22 *2811:B1 *852:94 0
23 *2815:A1 *852:94 5.18162e-05
24 *2827:B1 *2819:A2 0.000157003
25 *2827:B1 *852:24 0.000178292
26 *3633:A *2839:A2 1.54008e-05
27 *422:16 *852:94 0.000240514
28 *440:10 *852:94 0
29 *452:10 *852:10 0
30 *455:14 *2835:A2 3.22653e-05
31 *455:14 *852:10 0.000337159
32 *455:14 *852:18 0.000445297
33 *455:14 *852:94 2.14475e-05
34 *460:16 *2839:A2 0
35 *460:16 *852:18 0
36 *464:10 *2835:A2 0
37 *464:12 *2839:A2 0
38 *716:26 *852:94 0
39 *737:39 *852:18 0.000952505
40 *737:39 *852:94 0.000284772
41 *744:41 *2839:A2 4.77425e-05
42 *744:47 *2839:A2 0.000393081
43 *749:22 *852:18 4.77425e-05
44 *760:18 *2807:A2 0
45 *760:18 *2827:A2 3.15716e-05
46 *804:18 *852:24 0
47 *846:14 *852:94 0
48 *846:29 *852:94 0.000283604
49 *846:38 *852:10 0
50 *846:44 *2839:A2 0
51 *846:77 *2819:A2 0.000179009
52 *848:90 *2819:A2 0.000337786
53 *848:90 *852:24 0.000334418
*RES
1 *3419:X *852:6 21.339 
2 *852:6 *852:10 2.8634 
3 *852:10 *852:12 20 
4 *852:12 *852:18 26.9731 
5 *852:18 *852:20 20 
6 *852:20 *852:24 21.5862 
7 *852:24 *2807:A2 21.4368 
8 *852:24 *2827:A2 20.2111 
9 *852:20 *2819:A2 41.5862 
10 *852:18 *2823:A2 20 
11 *852:12 *2839:A2 43.3887 
12 *852:10 *2835:A2 20.3193 
13 *852:6 *852:82 1.6171 
14 *852:82 *852:94 44.3672 
15 *852:94 *2811:A2 20 
16 *852:82 *2815:A2 20 
*END

*D_NET *853 0.00390306
*CONN
*I *2867:A2 I *D sg13g2_a22oi_1
*I *2847:A2 I *D sg13g2_a22oi_1
*I *2843:A2 I *D sg13g2_a22oi_1
*I *2851:A2 I *D sg13g2_a22oi_1
*I *2863:A2 I *D sg13g2_a22oi_1
*I *3420:X O *D sg13g2_buf_1
*CAP
1 *2867:A2 0
2 *2847:A2 0
3 *2843:A2 0
4 *2851:A2 0.000207886
5 *2863:A2 0.000125197
6 *3420:X 0.000151092
7 *853:35 0.000257635
8 *853:33 0.00044818
9 *853:14 0.00061629
10 *853:8 0.000243753
11 *2863:A2 *871:16 4.77425e-05
12 *853:8 *882:18 0.000144711
13 *853:14 *882:18 4.77425e-05
14 *2851:B1 *853:33 1.54008e-05
15 *3635:A *853:35 0
16 *3637:A *2863:A2 4.77425e-05
17 *425:18 *2851:A2 8.00842e-05
18 *470:10 *2851:A2 0
19 *473:8 *853:33 0
20 *481:12 *853:14 0
21 *481:12 *853:33 0
22 *485:22 *2863:A2 0.000127853
23 *485:22 *853:14 0.00012816
24 *804:18 *2851:A2 0.000112426
25 *815:20 *853:33 3.15716e-05
26 *827:30 *2851:A2 0.000239953
27 *827:30 *853:33 7.99246e-05
28 *847:8 *853:8 0.000193973
29 *847:8 *853:14 1.54008e-05
30 *847:22 *2863:A2 0.000180676
31 *847:22 *853:33 0.000338191
32 *848:90 *2863:A2 2.14736e-05
*RES
1 *3420:X *853:8 21.751 
2 *853:8 *853:14 21.133 
3 *853:14 *2863:A2 41.6274 
4 *853:14 *853:33 24.0788 
5 *853:33 *853:35 0.5974 
6 *853:35 *2851:A2 22.266 
7 *853:35 *2843:A2 20 
8 *853:33 *2847:A2 20 
9 *853:8 *2867:A2 20 
*END

*D_NET *854 0.0159462
*CONN
*I *2859:A2 I *D sg13g2_a22oi_1
*I *3420:A I *D sg13g2_buf_1
*I *2855:A2 I *D sg13g2_a22oi_1
*I *2831:A2 I *D sg13g2_a22oi_1
*I *3419:A I *D sg13g2_buf_1
*I *3421:X O *D sg13g2_buf_1
*CAP
1 *2859:A2 0
2 *3420:A 4.66635e-05
3 *2855:A2 0
4 *2831:A2 0.000150261
5 *3419:A 0
6 *3421:X 0.000419541
7 *854:59 0.00101092
8 *854:30 0.00099754
9 *854:24 0.00238896
10 *854:14 0.00260098
11 *854:10 0.000815104
12 *2831:A2 *907:46 0
13 *3420:A *882:18 8.00842e-05
14 *854:10 *1135:85 0.000533004
15 *854:10 *1139:70 0.000144942
16 *854:10 *1147:32 0.000531565
17 *854:10 *1148:43 0.000552918
18 *854:14 *1147:32 0.00097493
19 *854:14 *1148:43 7.56299e-05
20 *854:24 *2855:B2 4.77702e-05
21 *854:24 *1130:66 0.000200462
22 *854:24 *1141:52 0
23 *854:30 *909:55 0
24 *854:59 *2855:B2 3.24458e-05
25 *854:59 *3691:A 0
26 *854:59 *907:99 0
27 *854:59 *1128:69 0
28 *854:59 *1130:66 0.000337982
29 *2856:A1 *854:59 0.000241979
30 *3421:A *854:10 0
31 *270:10 *854:30 0.000128307
32 *392:12 *854:24 0
33 *392:12 *854:30 0
34 *452:10 *854:30 0.000112128
35 *461:10 *2831:A2 0
36 *473:14 *854:59 0
37 *476:18 *854:14 0
38 *483:10 *854:10 0.000209374
39 *717:32 *854:30 0.00161453
40 *720:43 *854:30 0
41 *725:56 *2831:A2 7.85932e-05
42 *725:56 *854:30 0
43 *743:29 *2831:A2 0
44 *744:41 *854:30 0
45 *750:20 *854:24 0
46 *750:31 *854:59 0.00128883
47 *751:54 *854:59 0
48 *754:46 *3420:A 4.77425e-05
49 *754:46 *854:59 7.33256e-05
50 *781:6 *854:24 8.01788e-05
51 *781:27 *854:24 0.000129458
52 *843:62 *2831:A2 0
*RES
1 *3421:X *854:10 46.1388 
2 *854:10 *854:14 24.5526 
3 *854:14 *854:24 30.8562 
4 *854:24 *854:30 30.2485 
5 *854:30 *3419:A 20 
6 *854:24 *2831:A2 41.2926 
7 *854:14 *2855:A2 20 
8 *854:14 *854:59 31.0107 
9 *854:59 *3420:A 40.5356 
10 *854:10 *2859:A2 40 
*END

*D_NET *855 0.0172403
*CONN
*I *2992:C I *D sg13g2_nand4_1
*I *2951:C I *D sg13g2_nand4_1
*I *2947:C I *D sg13g2_nand4_1
*I *2963:C I *D sg13g2_nand4_1
*I *2959:C I *D sg13g2_nand4_1
*I *3077:B I *D sg13g2_nor3_1
*I *2984:C I *D sg13g2_nand4_1
*I *2996:C I *D sg13g2_nand4_1
*I *3422:X O *D sg13g2_buf_1
*CAP
1 *2992:C 0.00052644
2 *2951:C 0.00097784
3 *2947:C 0.000998575
4 *2963:C 0
5 *2959:C 0
6 *3077:B 3.54917e-05
7 *2984:C 0.000395834
8 *2996:C 0.000295158
9 *3422:X 6.26959e-05
10 *855:87 0.00321582
11 *855:73 7.36134e-05
12 *855:67 0.00096804
13 *855:50 0.000929918
14 *855:48 0.00195858
15 *855:42 0.00177919
16 *855:10 0.000760653
17 *855:8 0.000665934
18 *2947:C *3444:A 4.77425e-05
19 *2984:C *3422:A 1.57858e-05
20 *2984:C *865:12 4.77425e-05
21 *2984:C *865:72 0.000129429
22 *2992:C *856:73 0
23 *2992:C *880:85 0.000112289
24 *2992:C *892:23 0
25 *2996:C *2996:B 0
26 *2996:C *880:94 1.54008e-05
27 *2996:C *898:33 0
28 *3077:B *3077:A 0
29 *855:8 *865:72 0.000112008
30 *855:10 *856:73 0
31 *855:42 *856:73 0
32 *855:42 *892:23 0
33 *855:67 *2963:B 4.77425e-05
34 *855:67 *2963:D 4.77425e-05
35 *855:67 *1137:50 0
36 *855:73 *879:34 7.51285e-05
37 *855:73 *879:40 0.000287342
38 *2951:A *2951:C 0.000144441
39 *2952:A2 *2951:C 0
40 *2964:A1 *855:73 0
41 *2993:A2 *2992:C 0
42 *2997:A2 *2996:C 0
43 *3123:B1 *2992:C 0
44 *3517:A *2996:C 1.51e-05
45 *304:10 *2951:C 0.00024222
46 *304:10 *855:87 0
47 *359:32 *855:67 0
48 *359:47 *855:73 0.000287757
49 *362:32 *2947:C 0
50 *362:32 *2951:C 0
51 *386:16 *855:48 0.00044252
52 *571:37 *2984:C 0
53 *571:37 *2996:C 8.0342e-05
54 *571:43 *2984:C 0
55 *571:43 *2996:C 0
56 *576:8 *855:8 0.000112008
57 *646:8 *855:87 0
58 *671:117 *2996:C 0.000176396
59 *671:117 *855:10 0.000177894
60 *671:117 *855:42 0.00012816
61 *697:63 *2947:C 0
62 *697:97 *2951:C 0
63 *720:25 *2992:C 0
64 *722:35 *3077:B 0
65 *722:35 *855:67 0
66 *758:25 *855:87 0.000181608
67 *759:28 *2947:C 0.000112826
68 *759:28 *2951:C 0
69 *761:10 *2947:C 0.000208878
70 *778:29 *855:67 0
71 *807:8 *2992:C 0.000235345
72 *817:68 *2984:C 0.000112667
73 *818:87 *3077:B 0
74 *818:87 *855:67 0
75 *819:18 *855:87 0
76 *819:24 *855:87 0
*RES
1 *3422:X *855:8 40.7519 
2 *855:8 *855:10 0.8446 
3 *855:10 *2996:C 43.0488 
4 *855:10 *2984:C 43.5844 
5 *855:8 *855:42 5.5414 
6 *855:42 *855:48 48.9713 
7 *855:48 *855:50 20 
8 *855:50 *3077:B 20.3193 
9 *855:50 *855:67 48.6829 
10 *855:67 *855:73 41.5862 
11 *855:73 *2959:C 20 
12 *855:67 *2963:C 20 
13 *855:48 *855:87 33.4518 
14 *855:87 *2947:C 29.2262 
15 *855:87 *2951:C 29.0743 
16 *855:42 *2992:C 45.2118 
*END

*D_NET *856 0.0288669
*CONN
*I *3004:C I *D sg13g2_nand4_1
*I *3000:C I *D sg13g2_nand4_1
*I *2980:C I *D sg13g2_nand4_1
*I *3008:C I *D sg13g2_nand4_1
*I *2971:C I *D sg13g2_nand4_1
*I *3422:A I *D sg13g2_buf_1
*I *3110:B I *D sg13g2_nor3_1
*I *2988:C I *D sg13g2_nand4_1
*I *3423:X O *D sg13g2_buf_1
*CAP
1 *3004:C 0.000234553
2 *3000:C 4.57037e-05
3 *2980:C 0
4 *3008:C 0
5 *2971:C 0
6 *3422:A 8.61546e-06
7 *3110:B 0
8 *2988:C 9.80581e-05
9 *3423:X 5.04124e-05
10 *856:143 0.000724703
11 *856:126 0.00107545
12 *856:108 0.00159933
13 *856:85 0.00136373
14 *856:73 0.00394223
15 *856:60 0.00113991
16 *856:56 0.00103159
17 *856:50 0.00142129
18 *856:33 4.37077e-05
19 *856:27 0.00121547
20 *856:12 0.000944538
21 *856:8 0.000806558
22 *2988:C *3120:B 0
23 *2988:C *881:51 1.54008e-05
24 *2988:C *881:68 9.68392e-05
25 *2988:C *884:60 7.62389e-05
26 *3000:C *3000:B 4.77425e-05
27 *3000:C *3000:D 8.01776e-05
28 *3004:C *873:31 0.000715976
29 *3004:C *881:103 7.34889e-05
30 *3004:C *881:122 5.38157e-05
31 *3422:A *865:72 1.57858e-05
32 *856:8 *3432:A 4.6793e-05
33 *856:8 *861:6 7.91347e-05
34 *856:12 *3432:A 7.30101e-05
35 *856:12 *884:60 0
36 *856:33 *862:82 8.00842e-05
37 *856:50 *862:93 0.000209856
38 *856:50 *862:108 4.79124e-05
39 *856:50 *880:40 0.000177428
40 *856:50 *880:116 0
41 *856:60 *880:100 2.14736e-05
42 *856:73 *889:97 0
43 *856:73 *892:34 0
44 *856:73 *1137:8 0.00145695
45 *856:85 *866:64 0.000990767
46 *856:85 *879:23 4.79124e-05
47 *856:85 *879:30 1.54556e-05
48 *856:108 *3430:A 0
49 *856:108 *885:47 0.000425733
50 *856:108 *889:97 0
51 *856:108 *947:12 0
52 *856:108 *1120:29 1.54282e-05
53 *856:108 *1120:46 3.23417e-05
54 *856:126 *3432:A 5.20154e-05
55 *856:126 *861:14 0
56 *856:126 *873:31 0
57 *856:126 *889:16 0
58 *856:126 *889:31 0.000290623
59 *856:143 *3132:B 0.000832203
60 *856:143 *862:10 7.57681e-05
61 *856:143 *881:8 0.000106028
62 *856:143 *881:14 0.000617165
63 *2984:C *3422:A 1.57858e-05
64 *2992:C *856:73 0
65 *3110:C *856:33 8.00842e-05
66 *3335:CLK *856:85 0
67 *351:14 *856:27 0
68 *351:14 *856:50 0
69 *351:14 *856:56 0
70 *360:10 *856:126 0.000407998
71 *362:16 *856:108 0.00158057
72 *595:14 *856:108 0
73 *671:14 *2988:C 0
74 *671:14 *856:12 0
75 *717:16 *856:27 0.000674086
76 *717:16 *856:50 0.000343722
77 *717:16 *856:56 0
78 *720:8 *856:73 0.000659311
79 *720:8 *856:108 0.000767951
80 *722:10 *3004:C 0
81 *758:25 *856:85 0.000887589
82 *758:35 *856:85 0
83 *805:54 *856:108 0.000144156
84 *807:8 *856:73 0
85 *808:16 *3004:C 0
86 *808:29 *856:85 0.000565752
87 *817:68 *856:60 0.000124547
88 *817:68 *856:73 0
89 *817:81 *856:73 0
90 *820:72 *856:108 0
91 *855:10 *856:73 0
92 *855:42 *856:73 0
*RES
1 *3423:X *856:8 40.5356 
2 *856:8 *856:12 1.9055 
3 *856:12 *2988:C 41.1021 
4 *856:12 *856:27 24.9895 
5 *856:27 *856:33 40.5356 
6 *856:33 *3110:B 20 
7 *856:27 *856:50 45.8504 
8 *856:50 *856:56 48.1061 
9 *856:56 *856:60 21.339 
10 *856:60 *3422:A 40.1056 
11 *856:60 *856:73 12.2879 
12 *856:73 *856:85 34.42 
13 *856:85 *2971:C 20 
14 *856:73 *856:108 37.6336 
15 *856:108 *3008:C 20 
16 *856:50 *2980:C 20 
17 *856:8 *856:126 45.768 
18 *856:126 *3000:C 40.5356 
19 *856:126 *856:143 46.8804 
20 *856:143 *3004:C 43.3166 
*END

*D_NET *857 0.0131939
*CONN
*I *2942:C I *D sg13g2_nand4_1
*I *2930:C I *D sg13g2_nand4_1
*I *2938:C I *D sg13g2_nand4_1
*I *2934:C I *D sg13g2_nand4_1
*I *2922:C I *D sg13g2_nand4_1
*I *2914:C I *D sg13g2_nand4_1
*I *2918:C I *D sg13g2_nand4_1
*I *2926:C I *D sg13g2_nand4_1
*I *3424:X O *D sg13g2_buf_1
*CAP
1 *2942:C 0.000554898
2 *2930:C 0.000820278
3 *2938:C 0.000207556
4 *2934:C 0
5 *2922:C 0
6 *2914:C 0
7 *2918:C 0
8 *2926:C 0.000143366
9 *3424:X 0
10 *857:88 0.001774
11 *857:66 0.000278103
12 *857:62 0.00107022
13 *857:47 0.00148778
14 *857:16 0.000253476
15 *857:12 0.000371636
16 *857:4 0.00114846
17 *2926:C *2926:B 1.54008e-05
18 *2926:C *2926:D 1.54008e-05
19 *2930:C *2715:A 0
20 *2930:C *3299:D 0.000242138
21 *2930:C *868:35 4.79124e-05
22 *2930:C *868:46 6.48993e-05
23 *2938:C *2934:D 0
24 *2938:C *2938:B 0.000112521
25 *2938:C *867:115 4.79124e-05
26 *2938:C *877:40 1.54556e-05
27 *2938:C *877:42 0.000209004
28 *2942:C *2942:B 0.000111999
29 *2942:C *2942:D 1.54008e-05
30 *857:12 *2914:D 4.1307e-05
31 *857:12 *867:8 0
32 *857:12 *867:49 0.000112558
33 *857:12 *873:51 7.62389e-05
34 *857:12 *873:55 7.98582e-05
35 *857:12 *1023:28 0.00018387
36 *857:12 *1089:12 0
37 *857:16 *876:26 0.000130055
38 *857:47 *3569:A 0.000368474
39 *857:47 *861:47 1.52636e-05
40 *857:47 *873:66 0
41 *857:47 *877:58 0.000339393
42 *857:47 *886:43 0
43 *857:47 *1089:12 0.000272538
44 *857:62 *2912:A 0
45 *857:62 *2939:B1 0.000241979
46 *857:62 *877:50 9.71349e-05
47 *857:62 *877:58 1.54008e-05
48 *857:62 *883:100 0
49 *857:62 *894:40 0
50 *857:66 *867:115 8.0342e-05
51 *857:66 *873:66 0
52 *2914:A *2926:C 0.00034079
53 *2914:A *857:16 0
54 *2922:A *857:47 0
55 *2922:A *857:62 0
56 *2934:A *2938:C 0
57 *2934:A *2942:C 0.000872268
58 *2934:A *857:88 0.000662216
59 *2938:A *2938:C 0
60 *2939:A2 *2938:C 0
61 *2942:A *2942:C 0
62 *3045:A2 *2930:C 0
63 *3301:CLK *2942:C 0
64 *3301:CLK *857:88 0
65 *325:8 *857:62 0
66 *325:8 *857:88 0
67 *364:6 *2942:C 0
68 *368:6 *2930:C 0
69 *370:24 *2926:C 0.000234224
70 *379:22 *2942:C 2.21754e-05
71 *521:10 *857:47 0
72 *532:16 *2926:C 0
73 *538:8 *857:62 0
74 *538:8 *857:88 0
75 *621:37 *2930:C 0
76 *708:59 *2942:C 0
77 *821:74 *2930:C 0
*RES
1 *3424:X *857:4 20 
2 *857:4 *857:12 42.678 
3 *857:12 *857:16 21.0918 
4 *857:16 *2926:C 42.2248 
5 *857:16 *2918:C 40 
6 *857:12 *2914:C 20 
7 *857:4 *857:47 8.7756 
8 *857:47 *2922:C 20 
9 *857:47 *857:62 26.3757 
10 *857:62 *857:66 20.7519 
11 *857:66 *2934:C 20 
12 *857:66 *2938:C 22.2866 
13 *857:62 *857:88 5.2221 
14 *857:88 *2930:C 47.9104 
15 *857:88 *2942:C 46.6744 
*END

*D_NET *858 0.0136809
*CONN
*I *2897:C I *D sg13g2_nand4_1
*I *2885:C I *D sg13g2_nand4_1
*I *2901:C I *D sg13g2_nand4_1
*I *2909:C I *D sg13g2_nand4_1
*I *2881:C I *D sg13g2_nand4_1
*I *3011:B I *D sg13g2_nor3_1
*I *2893:C I *D sg13g2_nand4_1
*I *2889:C I *D sg13g2_nand4_1
*I *3425:X O *D sg13g2_buf_1
*CAP
1 *2897:C 0.000196006
2 *2885:C 0
3 *2901:C 0
4 *2909:C 6.22186e-05
5 *2881:C 0
6 *3011:B 0
7 *2893:C 0.000193216
8 *2889:C 0
9 *3425:X 0
10 *858:92 0.00129802
11 *858:77 0.000199957
12 *858:62 0.000654719
13 *858:54 0.00162661
14 *858:47 0.000520187
15 *858:32 0.000754801
16 *858:10 0.00042424
17 *858:4 0.000597698
18 *2893:C *869:23 0.000389354
19 *2897:C *875:82 0.000722243
20 *858:10 *859:41 8.00954e-05
21 *858:32 *859:41 0.000436445
22 *858:32 *875:45 0
23 *858:47 *1134:27 0
24 *858:47 *1135:32 0
25 *858:54 *887:8 4.70962e-05
26 *858:54 *1134:27 0
27 *858:54 *1135:32 0
28 *858:62 *2902:B1 0
29 *858:62 *870:32 0
30 *858:62 *887:21 0.00039332
31 *858:62 *887:42 0.000603966
32 *858:62 *896:40 0.000182508
33 *858:62 *896:51 0.000318925
34 *858:77 *3033:B 0.000285187
35 *858:77 *869:76 7.51285e-05
36 *858:77 *870:23 4.77425e-05
37 *858:77 *870:32 3.23417e-05
38 *858:77 *887:42 0
39 *858:92 *3451:A 0.00011254
40 *858:92 *875:82 7.62389e-05
41 *858:92 *887:8 3.24294e-05
42 *858:92 *888:61 0.000355521
43 *858:92 *1134:27 0.000952457
44 *858:92 *1135:32 0
45 *858:92 *1135:46 0
46 *2879:C *858:47 0.000394237
47 *2886:A2 *858:92 8.01118e-05
48 *2889:A *2893:C 0
49 *2890:A1 *858:10 0
50 *2890:A1 *858:32 0
51 *2910:A2 *2909:C 0
52 *2910:A2 *858:62 0
53 *3011:C *858:32 1.54282e-05
54 *3011:C *858:47 0.000112453
55 *3229:D *858:92 0.000176482
56 *379:22 *858:32 0
57 *498:10 *858:54 0
58 *504:8 *858:10 0
59 *513:10 *858:62 0
60 *596:101 *858:47 7.94957e-05
61 *711:18 *858:62 0
62 *790:38 *2897:C 0.000859883
63 *790:38 *858:92 0.00029161
64 *794:41 *2897:C 0
65 *824:12 *858:47 0
*RES
1 *3425:X *858:4 20 
2 *858:4 *858:10 22.0909 
3 *858:10 *2889:C 40 
4 *858:10 *2893:C 42.0806 
5 *858:4 *858:32 4.0479 
6 *858:32 *3011:B 20 
7 *858:32 *858:47 44.2024 
8 *858:47 *2881:C 20 
9 *858:47 *858:54 1.1845 
10 *858:54 *858:62 45.3045 
11 *858:62 *2909:C 20.5356 
12 *858:62 *858:77 42.1218 
13 *858:77 *2901:C 20 
14 *858:54 *858:92 32.4939 
15 *858:92 *2885:C 40 
16 *858:92 *2897:C 44.0582 
*END

*D_NET *859 0.0151685
*CONN
*I *2975:C I *D sg13g2_nand4_1
*I *2905:C I *D sg13g2_nand4_1
*I *3425:A I *D sg13g2_buf_1
*I *2967:C I *D sg13g2_nand4_1
*I *3426:X O *D sg13g2_buf_1
*CAP
1 *2975:C 0.000509611
2 *2905:C 0.000264375
3 *3425:A 0
4 *2967:C 0.000181402
5 *3426:X 0.000509611
6 *859:41 0.00121609
7 *859:21 0.00339773
8 *859:4 0.00209867
9 *2905:C *870:44 1.54008e-05
10 *2905:C *870:55 3.23417e-05
11 *2905:C *875:58 7.51285e-05
12 *2905:C *875:65 1.54008e-05
13 *2967:C *861:71 0.000112475
14 *2967:C *864:40 4.78356e-05
15 *2967:C *878:32 1.54556e-05
16 *2967:C *878:41 0
17 *2975:C *861:84 0
18 *2975:C *864:71 0.000403819
19 *2975:C *878:41 0.00037085
20 *2975:C *878:56 0.000453166
21 *859:21 *861:69 0
22 *859:21 *888:61 0.0017827
23 *859:41 *874:27 0.000501332
24 *859:41 *874:36 0.000177077
25 *3011:C *859:41 0.000112453
26 *290:10 *859:21 0.000981247
27 *315:12 *2905:C 0
28 *358:14 *2967:C 0
29 *358:27 *2967:C 0
30 *361:18 *859:21 0
31 *378:14 *859:41 0.000724813
32 *514:12 *2905:C 0
33 *516:10 *2905:C 0
34 *516:10 *859:21 0
35 *596:101 *859:41 0.000112519
36 *599:10 *2905:C 0.000231067
37 *599:10 *859:21 0.000181608
38 *697:180 *859:21 0
39 *697:216 *859:21 0
40 *697:234 *859:21 0
41 *711:12 *859:41 8.00842e-05
42 *711:18 *859:41 4.77425e-05
43 *823:52 *2905:C 0
44 *858:10 *859:41 8.00954e-05
45 *858:32 *859:41 0.000436445
*RES
1 *3426:X *859:4 20 
2 *859:4 *2967:C 21.751 
3 *859:4 *859:21 42.0317 
4 *859:21 *859:41 33.1634 
5 *859:41 *3425:A 20 
6 *859:21 *2905:C 42.6471 
7 *3426:X *2975:C 45.5105 
*END

*D_NET *860 0.00189375
*CONN
*I *2751:B2 I *D sg13g2_a22oi_1
*I *3546:X O *D sg13g2_buf_1
*CAP
1 *2751:B2 0
2 *3546:X 0.000689535
3 *860:12 0.000689535
4 *860:12 *912:16 0
5 *2742:A1 *860:12 0
6 *2747:A2 *860:12 0
7 *2749:A2 *860:12 0
8 *715:10 *860:12 0
9 *738:10 *860:12 0
10 *828:57 *860:12 0.000335189
11 *844:55 *860:12 0.000179494
*RES
1 *3546:X *860:12 47.4778 
2 *860:12 *2751:B2 40 
*END

*D_NET *861 0.0309977
*CONN
*I *3423:A I *D sg13g2_buf_1
*I *3044:B I *D sg13g2_nor3_1
*I *2955:C I *D sg13g2_nand4_1
*I *3426:A I *D sg13g2_buf_1
*I *3424:A I *D sg13g2_buf_1
*I *3427:X O *D sg13g2_buf_1
*CAP
1 *3423:A 0.000113786
2 *3044:B 0.00037151
3 *2955:C 0
4 *3426:A 0
5 *3424:A 7.87561e-05
6 *3427:X 0.000337586
7 *861:92 0.000244877
8 *861:84 0.000956759
9 *861:71 0.000827858
10 *861:69 0.00115564
11 *861:59 0.00391825
12 *861:47 0.00376923
13 *861:36 0.000597886
14 *861:34 0.000425304
15 *861:22 0.0031051
16 *861:14 0.00288801
17 *861:6 0.000659585
18 *3044:B *886:43 0.000377483
19 *3424:A *1089:12 0.000112426
20 *861:6 *3432:A 0
21 *861:6 *884:70 0.000435014
22 *861:14 *3432:A 2.14736e-05
23 *861:14 *873:31 0.000232469
24 *861:22 *3136:D 0
25 *861:22 *873:31 0
26 *861:22 *873:39 0
27 *861:22 *881:8 0
28 *861:22 *881:14 0.000448276
29 *861:22 *881:28 0.000450194
30 *861:22 *884:27 0.00142092
31 *861:22 *1051:10 0
32 *861:22 *1120:22 0.00104097
33 *861:47 *873:66 0
34 *861:47 *1089:12 0.00012777
35 *861:59 *2912:A 0
36 *861:59 *3223:RESET_B 0
37 *861:59 *3245:RESET_B 0
38 *861:59 *883:100 0
39 *861:59 *886:43 0.00029161
40 *861:59 *894:8 0
41 *861:59 *894:12 0
42 *861:59 *895:12 0
43 *861:59 *1121:10 0
44 *861:69 *3231:RESET_B 0.000144358
45 *861:69 *864:48 2.20966e-05
46 *861:69 *872:63 0
47 *861:69 *888:61 0
48 *861:71 *878:41 0
49 *861:84 *864:71 0.000339135
50 *861:84 *878:41 0
51 *2892:B1 *861:59 0
52 *2923:A1 *861:59 0.000262451
53 *2935:A1 *861:59 0
54 *2937:A1 *861:59 7.97988e-05
55 *2967:C *861:71 0.000112475
56 *2975:C *861:84 0
57 *3084:A1 *861:92 0.000267468
58 *3137:A1 *861:22 0.000586514
59 *3217:CLK *861:59 0
60 *3223:CLK *861:59 0
61 *3245:D *861:59 0.000240335
62 *3427:A *3423:A 0
63 *3427:A *861:6 0
64 *3:36 *861:69 0
65 *291:10 *861:22 0
66 *356:10 *861:34 0.000125875
67 *356:22 *861:59 0
68 *356:22 *861:69 0
69 *358:27 *861:71 0.000209856
70 *358:27 *861:84 0.000356394
71 *523:10 *861:22 2.20248e-05
72 *527:10 *861:22 0
73 *530:10 *861:59 0
74 *535:12 *861:59 0
75 *621:10 *3044:B 4.76053e-05
76 *708:82 *861:34 0.000817807
77 *717:12 *3423:A 0
78 *725:29 *861:84 0
79 *748:31 *861:59 0
80 *764:23 *861:34 0.00081689
81 *794:41 *861:92 0.000660896
82 *805:12 *861:22 0.000559728
83 *806:48 *861:92 0.000232459
84 *806:91 *861:92 0.000162602
85 *809:20 *861:34 7.48842e-05
86 *809:31 *861:59 0
87 *809:46 *861:59 0.000305186
88 *819:66 *861:92 4.77153e-05
89 *856:8 *861:6 7.91347e-05
90 *856:126 *861:14 0
91 *857:47 *861:47 1.52636e-05
92 *859:21 *861:69 0
*RES
1 *3427:X *861:6 23.3475 
2 *861:6 *861:14 42.2763 
3 *861:14 *861:22 49.9421 
4 *861:22 *861:34 46.3448 
5 *861:34 *861:36 20 
6 *861:36 *3424:A 20.7519 
7 *861:36 *861:47 24.2127 
8 *861:47 *861:59 49.0048 
9 *861:59 *861:69 49.7026 
10 *861:69 *861:71 1.4008 
11 *861:71 *3426:A 20 
12 *861:71 *861:84 46.9113 
13 *861:84 *861:92 44.0376 
14 *861:92 *2955:C 20 
15 *861:47 *3044:B 43.5741 
16 *861:6 *3423:A 21.1639 
*END

*D_NET *862 0.0153098
*CONN
*I *3116:B I *D sg13g2_nand4_1
*I *3124:B I *D sg13g2_nand4_1
*I *2980:B I *D sg13g2_nand4_1
*I *3112:B I *D sg13g2_nand4_1
*I *2988:B I *D sg13g2_nand4_1
*I *3120:B I *D sg13g2_nand4_1
*I *3132:B I *D sg13g2_nand4_1
*I *3000:B I *D sg13g2_nand4_1
*I *3428:X O *D sg13g2_buf_1
*CAP
1 *3116:B 0
2 *3124:B 0
3 *2980:B 0
4 *3112:B 0
5 *2988:B 3.89857e-05
6 *3120:B 0.000233217
7 *3132:B 0.00032398
8 *3000:B 5.36953e-05
9 *3428:X 0
10 *862:114 0.000428806
11 *862:108 0.00108782
12 *862:93 0.0011018
13 *862:82 0.000674653
14 *862:72 0.00104856
15 *862:38 0.000374887
16 *862:36 0.0011902
17 *862:10 0.000735628
18 *862:4 0.000628776
19 *2988:B *884:60 2.61365e-05
20 *3120:B *3120:D 4.46621e-05
21 *3120:B *884:47 1.54556e-05
22 *3120:B *884:60 4.79124e-05
23 *3132:B *884:27 4.77425e-05
24 *3132:B *885:10 0
25 *3132:B *1035:8 0.000215371
26 *862:10 *2731:A 0
27 *862:10 *881:28 0
28 *862:10 *885:10 0
29 *862:10 *1012:18 0.000240536
30 *862:10 *1035:8 0.000340762
31 *862:36 *873:31 0.000337823
32 *862:36 *884:12 0
33 *862:36 *884:27 0
34 *862:38 *3120:D 0.000107306
35 *862:38 *881:28 7.34842e-05
36 *862:72 *3110:A 0.000176711
37 *862:72 *881:68 0
38 *862:72 *884:70 0
39 *862:82 *3110:A 4.77425e-05
40 *862:82 *3112:D 3.72232e-05
41 *862:93 *3112:C 4.42885e-05
42 *862:93 *884:83 0
43 *862:108 *3113:B1 0
44 *862:108 *880:51 0
45 *862:108 *884:106 0.000498827
46 *862:108 *884:110 0.000274583
47 *862:108 *891:18 0.000176644
48 *862:114 *884:116 0.00140641
49 *2978:C *862:82 0
50 *2980:A *862:82 0
51 *2980:A *862:93 0.000144728
52 *2988:C *3120:B 0
53 *3000:C *3000:B 4.77425e-05
54 *3110:C *862:72 1.54008e-05
55 *3119:A1 *862:72 0
56 *3333:CLK *862:72 0
57 *3333:CLK *862:82 0
58 *3427:A *862:72 0.000532302
59 *354:24 *862:108 0.00024211
60 *354:32 *862:108 0
61 *355:20 *862:72 0.000467355
62 *355:24 *862:82 0
63 *572:10 *862:108 0.000228976
64 *573:12 *862:108 0
65 *671:6 *862:82 0
66 *671:8 *862:72 0
67 *671:14 *862:72 0
68 *671:81 *862:72 0.000179209
69 *671:102 *862:108 0
70 *803:38 *862:10 0.000125527
71 *803:81 *862:93 0
72 *803:81 *862:108 0
73 *817:46 *862:93 0
74 *856:33 *862:82 8.00842e-05
75 *856:50 *862:93 0.000209856
76 *856:50 *862:108 4.79124e-05
77 *856:143 *3132:B 0.000832203
78 *856:143 *862:10 7.57681e-05
*RES
1 *3428:X *862:4 20 
2 *862:4 *862:10 23.9449 
3 *862:10 *3000:B 40.5356 
4 *862:10 *3132:B 44.3466 
5 *862:4 *862:36 22.6162 
6 *862:36 *862:38 1.0918 
7 *862:38 *3120:B 41.9055 
8 *862:38 *2988:B 40.5614 
9 *862:36 *862:72 48.6526 
10 *862:72 *862:82 22.4205 
11 *862:82 *3112:B 20 
12 *862:82 *862:93 4.4496 
13 *862:93 *2980:B 20 
14 *862:93 *862:108 47.6632 
15 *862:108 *862:114 46.7774 
16 *862:114 *3124:B 20 
17 *862:108 *3116:B 20 
*END

*D_NET *863 0.00732755
*CONN
*I *3008:B I *D sg13g2_nand4_1
*I *3140:B I *D sg13g2_nand4_1
*I *3004:B I *D sg13g2_nand4_1
*I *3136:B I *D sg13g2_nand4_1
*I *3429:X O *D sg13g2_buf_1
*CAP
1 *3008:B 0
2 *3140:B 0
3 *3004:B 6.81135e-05
4 *3136:B 0
5 *3429:X 0
6 *863:44 0.000162124
7 *863:38 0.00119928
8 *863:22 0.000282043
9 *863:10 0.000608505
10 *863:4 0.0012955
11 *863:10 *873:31 0.000338362
12 *863:22 *3136:D 0.000112558
13 *863:22 *885:10 0.00018216
14 *863:22 *1023:18 0.000184723
15 *863:22 *1120:22 0.000112095
16 *863:38 *3213:RESET_B 0
17 *863:38 *3429:A 0.00024122
18 *863:38 *885:22 0.00111721
19 *863:38 *1120:22 0
20 *863:38 *1120:29 0
21 *863:44 *1120:46 0
22 *3004:A *3004:B 0.000112634
23 *3004:A *863:22 0.00014391
24 *3138:B *863:22 0
25 *3140:A *863:44 0.000234281
26 *348:10 *863:44 7.34081e-05
27 *349:12 *863:22 1.54008e-05
28 *690:8 *863:10 0.000444595
29 *691:12 *863:22 0
30 *723:16 *863:10 0.000399422
31 *816:18 *863:10 0
*RES
1 *3429:X *863:4 20 
2 *863:4 *863:10 43.811 
3 *863:10 *863:22 43.5381 
4 *863:22 *3136:B 20 
5 *863:10 *3004:B 20.7519 
6 *863:4 *863:38 10.1867 
7 *863:38 *863:44 41.5862 
8 *863:44 *3140:B 20 
9 *863:38 *3008:B 20 
*END

*D_NET *864 0.0156236
*CONN
*I *2967:B I *D sg13g2_nand4_1
*I *3083:B I *D sg13g2_nand4_1
*I *2955:B I *D sg13g2_nand4_1
*I *2951:B I *D sg13g2_nand4_1
*I *2975:B I *D sg13g2_nand4_1
*I *2971:B I *D sg13g2_nand4_1
*I *3079:B I *D sg13g2_nand4_1
*I *2947:B I *D sg13g2_nand4_1
*I *3430:X O *D sg13g2_buf_1
*CAP
1 *2967:B 0
2 *3083:B 0
3 *2955:B 0
4 *2951:B 0.000155699
5 *2975:B 0
6 *2971:B 8.64212e-05
7 *3079:B 0
8 *2947:B 0
9 *3430:X 0.000151225
10 *864:82 0.000303982
11 *864:78 0.000419938
12 *864:71 0.00036129
13 *864:63 0.000688619
14 *864:52 0.00090508
15 *864:48 0.00148067
16 *864:40 0.000817815
17 *864:34 0.00103922
18 *864:19 0.000922719
19 *864:10 0.000246203
20 *2951:B *2951:D 0.00023721
21 *2951:B *878:62 0.000125569
22 *2971:B *879:30 0
23 *864:19 *2947:D 0.00034195
24 *864:19 *898:46 0
25 *864:34 *2947:D 0.000106064
26 *864:34 *878:10 0.000233913
27 *864:34 *878:32 0.000392731
28 *864:34 *898:46 0
29 *864:34 *898:59 0
30 *864:40 *878:32 0
31 *864:78 *3083:C 0.000208747
32 *864:82 *878:60 0.000130055
33 *864:82 *878:62 0.00021097
34 *2967:C *864:40 4.78356e-05
35 *2975:C *864:71 0.000403819
36 *3079:A *864:10 0
37 *3079:A *864:19 0.000394739
38 *3083:A *864:78 0.000209125
39 *3103:A *2971:B 7.93426e-05
40 *3:30 *864:34 0
41 *356:46 *864:71 1.54008e-05
42 *358:14 *864:34 0.000986206
43 *358:14 *864:40 0.000208857
44 *548:8 *864:10 0.00018211
45 *563:10 *864:48 0.000181694
46 *567:8 *864:52 0
47 *723:31 *864:10 0
48 *725:10 *864:40 0
49 *725:25 *864:34 0.000177452
50 *725:25 *864:48 0
51 *725:29 *864:48 0
52 *725:29 *864:63 0
53 *725:29 *864:78 0
54 *758:35 *2971:B 0
55 *766:45 *864:52 0
56 *766:49 *864:52 0
57 *766:49 *864:71 0.000340704
58 *778:29 *864:52 0.00246904
59 *778:29 *864:71 0
60 *794:41 *2951:B 0
61 *794:41 *864:82 0
62 *806:46 *864:48 0
63 *806:46 *864:63 0
64 *806:46 *864:78 0
65 *820:72 *864:10 0
66 *820:72 *864:19 0
67 *861:69 *864:48 2.20966e-05
68 *861:84 *864:71 0.000339135
*RES
1 *3430:X *864:10 42.06 
2 *864:10 *2947:B 40 
3 *864:10 *864:19 2.0806 
4 *864:19 *3079:B 40 
5 *864:19 *864:34 49.9086 
6 *864:34 *864:40 21.9982 
7 *864:40 *864:48 45.9843 
8 *864:48 *864:52 31.4742 
9 *864:52 *2971:B 40.7519 
10 *864:48 *864:63 0.5356 
11 *864:63 *864:71 44.5011 
12 *864:71 *2975:B 20 
13 *864:63 *864:78 2.9149 
14 *864:78 *864:82 21.5862 
15 *864:82 *2951:B 41.5862 
16 *864:82 *2955:B 40 
17 *864:78 *3083:B 20 
18 *864:40 *2967:B 20 
*END

*D_NET *865 0.014308
*CONN
*I *2963:B I *D sg13g2_nand4_1
*I *2959:B I *D sg13g2_nand4_1
*I *3091:B I *D sg13g2_nand4_1
*I *3095:B I *D sg13g2_nand4_1
*I *2984:B I *D sg13g2_nand4_1
*I *2992:B I *D sg13g2_nand4_1
*I *2996:B I *D sg13g2_nand4_1
*I *3128:B I *D sg13g2_nand4_1
*I *3431:X O *D sg13g2_buf_1
*CAP
1 *2963:B 0.000139806
2 *2959:B 3.68983e-05
3 *3091:B 0
4 *3095:B 0
5 *2984:B 0
6 *2992:B 0.000807616
7 *2996:B 0.000155528
8 *3128:B 0.000325762
9 *3431:X 0.00018898
10 *865:96 0.000278398
11 *865:84 0.000105894
12 *865:78 0.000448472
13 *865:72 0.00222539
14 *865:18 0.000800992
15 *865:14 0.00112732
16 *865:12 0.00186405
17 *865:8 0.000271903
18 *2963:B *879:34 0.000106064
19 *2963:B *879:40 0.000234224
20 *2992:B *3128:C 0
21 *2992:B *866:39 0
22 *2992:B *880:66 0.000499492
23 *2992:B *880:85 0
24 *2996:B *880:94 0.000144025
25 *2996:B *898:33 4.76053e-05
26 *3128:B *3128:C 0.000112447
27 *3128:B *880:55 0
28 *3128:B *898:33 0
29 *865:8 *866:39 0
30 *865:18 *3128:C 0
31 *865:72 *885:78 0
32 *865:72 *885:80 4.72458e-05
33 *865:72 *909:38 0
34 *865:78 *885:78 7.30101e-05
35 *865:78 *885:80 0.000403664
36 *865:78 *909:38 0
37 *865:84 *885:86 0.000228168
38 *865:96 *879:40 0.000180955
39 *865:96 *885:78 0.000154925
40 *2983:A2 *865:72 4.78359e-05
41 *2984:C *865:12 4.77425e-05
42 *2984:C *865:72 0.000129429
43 *2996:C *2996:B 0
44 *3422:A *865:72 1.57858e-05
45 *342:8 *2992:B 0.000287757
46 *354:32 *865:12 0.000144899
47 *354:32 *865:72 4.77425e-05
48 *359:47 *2963:B 4.77425e-05
49 *360:49 *865:84 0.000335865
50 *571:37 *865:8 0.000229033
51 *571:37 *865:12 4.77425e-05
52 *571:43 *865:72 0
53 *571:62 *865:72 0.000602363
54 *576:8 *865:72 0
55 *580:22 *3128:B 0
56 *683:8 *2992:B 0.000234311
57 *778:29 *2963:B 0
58 *778:29 *865:96 0
59 *803:98 *3128:B 0
60 *803:98 *865:8 0
61 *807:51 *865:72 0
62 *807:68 *2959:B 0
63 *807:68 *865:72 0.000921182
64 *818:43 *865:72 0
65 *855:8 *865:72 0.000112008
66 *855:67 *2963:B 4.77425e-05
*RES
1 *3431:X *865:8 41.5862 
2 *865:8 *865:12 20.9682 
3 *865:12 *865:14 20 
4 *865:14 *865:18 2.1527 
5 *865:18 *3128:B 43.0179 
6 *865:18 *2996:B 41.6377 
7 *865:14 *2992:B 48.0134 
8 *865:12 *2984:B 20 
9 *865:12 *865:72 37.6284 
10 *865:72 *865:78 23.5123 
11 *865:78 *865:84 41.5862 
12 *865:84 *3095:B 20 
13 *865:78 *3091:B 20 
14 *865:72 *865:96 1.339 
15 *865:96 *2959:B 40.3193 
16 *865:96 *2963:B 41.9055 
*END

*D_NET *866 0.0264957
*CONN
*I *3428:A I *D sg13g2_buf_1
*I *3430:A I *D sg13g2_buf_1
*I *3103:B I *D sg13g2_nand4_1
*I *3431:A I *D sg13g2_buf_1
*I *3429:A I *D sg13g2_buf_1
*I *3432:X O *D sg13g2_buf_1
*CAP
1 *3428:A 0
2 *3430:A 0.000434496
3 *3103:B 0
4 *3431:A 0
5 *3429:A 0.000133115
6 *3432:X 0
7 *866:96 0.000511073
8 *866:70 6.37709e-05
9 *866:64 0.00135841
10 *866:52 0.00237324
11 *866:39 0.000828511
12 *866:35 0.00301289
13 *866:18 0.00087627
14 *866:10 0.00304673
15 *866:4 0.00127436
16 *3429:A *1120:22 0.00024122
17 *3430:A *892:51 0
18 *866:10 *881:68 2.24232e-05
19 *866:10 *890:61 0
20 *866:18 *889:31 0.00153117
21 *866:35 *3124:D 0.00111594
22 *866:39 *880:55 0.000124702
23 *866:39 *880:66 0.00058198
24 *866:39 *884:116 0
25 *866:52 *3335:RESET_B 0
26 *866:52 *892:34 0.000288502
27 *866:52 *892:51 0
28 *866:96 *3432:A 0
29 *866:96 *873:31 0
30 *866:96 *1012:18 0.000353303
31 *2992:B *866:39 0
32 *2992:A *866:35 0
33 *3003:B1 *866:35 0
34 *3005:A2 *866:18 0
35 *3006:B *866:35 0
36 *3123:A2 *866:35 0.000996362
37 *3123:B1 *866:52 0
38 *3261:CLK *866:64 0
39 *3335:D *866:52 0.000176559
40 *3335:CLK *866:64 0.000436435
41 *3341:CLK *866:18 0
42 *3388:A *866:10 0.000562351
43 *345:14 *866:18 0.000345758
44 *352:16 *866:18 0
45 *354:24 *866:96 8.0216e-05
46 *357:28 *866:64 0.000889587
47 *548:8 *3430:A 7.33225e-05
48 *567:8 *866:70 0.000181608
49 *571:37 *866:39 0.000176083
50 *671:14 *866:10 0
51 *681:8 *866:39 0.000554493
52 *682:10 *866:35 0
53 *683:8 *866:39 0.000501132
54 *698:6 *866:35 0
55 *698:12 *866:18 0.000274452
56 *698:12 *866:35 0.00080961
57 *698:89 *866:35 0
58 *707:16 *866:64 0
59 *707:49 *3430:A 0
60 *717:12 *866:96 0
61 *720:8 *3430:A 0
62 *720:8 *866:52 0
63 *720:25 *866:52 0
64 *758:25 *866:35 0
65 *758:35 *866:64 0.000759716
66 *803:98 *866:39 0
67 *817:81 *866:52 0.000273902
68 *856:85 *866:64 0.000990767
69 *856:108 *3430:A 0
70 *863:38 *3429:A 0.00024122
71 *865:8 *866:39 0
*RES
1 *3432:X *866:4 20 
2 *866:4 *866:10 48.0134 
3 *866:10 *866:18 49.2906 
4 *866:18 *3429:A 21.6171 
5 *866:10 *866:35 16.4921 
6 *866:35 *866:39 30.2382 
7 *866:39 *3431:A 40 
8 *866:35 *866:52 26.8186 
9 *866:52 *866:64 34.3944 
10 *866:64 *866:70 40.8446 
11 *866:70 *3103:B 20 
12 *866:52 *3430:A 45.047 
13 *866:4 *866:96 44.8307 
14 *866:96 *3428:A 20 
*END

*D_NET *867 0.00919246
*CONN
*I *3054:B I *D sg13g2_nand4_1
*I *2934:B I *D sg13g2_nand4_1
*I *2922:B I *D sg13g2_nand4_1
*I *3050:B I *D sg13g2_nand4_1
*I *2914:B I *D sg13g2_nand4_1
*I *2918:B I *D sg13g2_nand4_1
*I *3046:B I *D sg13g2_nand4_1
*I *2926:B I *D sg13g2_nand4_1
*I *3433:X O *D sg13g2_buf_1
*CAP
1 *3054:B 0
2 *2934:B 0
3 *2922:B 0
4 *3050:B 0
5 *2914:B 0
6 *2918:B 0
7 *3046:B 0.000137347
8 *2926:B 5.51059e-05
9 *3433:X 0.000317307
10 *867:115 0.000329026
11 *867:102 0.000281606
12 *867:96 0.000874416
13 *867:88 0.000540359
14 *867:84 0.000593882
15 *867:68 0.000325799
16 *867:49 0.000146371
17 *867:16 0.000406576
18 *867:8 0.000307553
19 *867:6 0.000364485
20 *867:4 0.000450484
21 *3046:B *3574:A 0
22 *3046:B *1027:14 0
23 *867:6 *868:10 0
24 *867:49 *1089:12 8.02927e-05
25 *867:68 *3573:A 0
26 *867:68 *868:29 1.98271e-05
27 *867:68 *873:55 0
28 *867:68 *886:24 0.000231903
29 *867:68 *1023:28 0.00018387
30 *867:84 *873:66 0
31 *867:84 *886:35 7.9225e-05
32 *867:84 *1074:18 0
33 *867:84 *1091:10 0.000143171
34 *867:84 *1120:10 0.000129842
35 *867:88 *3044:A 0.000144493
36 *867:88 *3054:C 0.00017559
37 *867:88 *886:35 0.000240886
38 *867:102 *894:23 0
39 *867:102 *894:40 0
40 *867:102 *1037:8 0.000180537
41 *2914:A *3046:B 0.000339735
42 *2914:A *867:16 0
43 *2922:A *867:96 7.62389e-05
44 *2926:C *2926:B 1.54008e-05
45 *2934:A *867:115 8.03692e-05
46 *2938:C *867:115 4.79124e-05
47 *325:8 *867:102 0
48 *365:22 *867:115 0
49 *368:16 *2926:B 4.76068e-05
50 *368:16 *3046:B 0.000288619
51 *369:10 *867:96 2.24232e-05
52 *370:24 *867:8 4.77425e-05
53 *370:24 *867:16 4.77425e-05
54 *370:24 *867:68 8.01609e-05
55 *492:20 *867:84 0
56 *526:12 *867:16 0.000129089
57 *532:16 *867:49 0.000346091
58 *628:8 *867:96 0
59 *628:8 *867:102 0
60 *809:12 *867:49 0.000346091
61 *809:54 *867:102 0
62 *821:34 *867:16 0.000344389
63 *857:12 *867:8 0
64 *857:12 *867:49 0.000112558
65 *857:66 *867:115 8.0342e-05
*RES
1 *3433:X *867:4 20 
2 *867:4 *867:6 0.9682 
3 *867:6 *867:8 0.9682 
4 *867:8 *867:16 22.6574 
5 *867:16 *2926:B 40.5356 
6 *867:16 *3046:B 42.1218 
7 *867:8 *2918:B 20 
8 *867:6 *867:49 42.5544 
9 *867:49 *2914:B 20 
10 *867:4 *867:68 43.3938 
11 *867:68 *3050:B 20 
12 *3433:X *867:84 43.0797 
13 *867:84 *867:88 22.6986 
14 *867:88 *867:96 43.0488 
15 *867:96 *867:102 42.8222 
16 *867:102 *2922:B 20 
17 *867:96 *867:115 44.0994 
18 *867:115 *2934:B 20 
19 *867:88 *3054:B 20 
*END

*D_NET *868 0.0165252
*CONN
*I *3062:B I *D sg13g2_nand4_1
*I *3058:B I *D sg13g2_nand4_1
*I *2942:B I *D sg13g2_nand4_1
*I *3070:B I *D sg13g2_nand4_1
*I *2938:B I *D sg13g2_nand4_1
*I *3066:B I *D sg13g2_nand4_1
*I *2930:B I *D sg13g2_nand4_1
*I *3433:A I *D sg13g2_buf_1
*I *3434:X O *D sg13g2_buf_1
*CAP
1 *3062:B 5.05625e-05
2 *3058:B 0
3 *2942:B 7.70089e-05
4 *3070:B 7.46505e-05
5 *2938:B 0.000190271
6 *3066:B 0
7 *2930:B 0
8 *3433:A 8.14688e-05
9 *3434:X 0.000132664
10 *868:102 0.000555766
11 *868:94 0.000674131
12 *868:63 0.000744507
13 *868:61 0.00076404
14 *868:50 0.00109859
15 *868:46 0.00132013
16 *868:35 0.000388652
17 *868:29 0.000934825
18 *868:10 0.00112148
19 *2938:B *873:80 0
20 *2938:B *873:99 0.000393544
21 *2938:B *877:40 0
22 *3062:B *886:112 7.99579e-05
23 *3070:B *3070:D 0
24 *3433:A *873:55 0
25 *3433:A *1074:18 0.000107965
26 *868:10 *873:55 0
27 *868:10 *894:62 0.000238615
28 *868:29 *876:10 0.000126829
29 *868:29 *876:14 0.000599344
30 *868:29 *876:68 0
31 *868:29 *894:62 0.000377058
32 *868:29 *1036:12 0.00049286
33 *868:50 *877:23 0
34 *868:50 *889:56 0.000143457
35 *868:61 *873:99 0.000318925
36 *868:63 *873:99 0.00150158
37 *868:63 *877:40 0
38 *868:102 *1071:18 2.14736e-05
39 *868:102 *1106:14 0.000282388
40 *868:102 *1122:54 0.000573127
41 *2930:C *868:35 4.79124e-05
42 *2930:C *868:46 6.48993e-05
43 *2930:A *868:46 0.000237902
44 *2938:C *2938:B 0.000112521
45 *2938:A *2938:B 0
46 *2938:A *3070:B 0.000101839
47 *2942:C *2942:B 0.000111999
48 *2942:A *2942:B 0
49 *3045:A2 *868:35 0
50 *3045:A2 *868:46 0
51 *3062:A *868:46 0.000829939
52 *3062:A *868:94 0.000320247
53 *3066:A *868:50 8.00842e-05
54 *3066:A *868:61 3.23417e-05
55 *365:22 *3070:B 6.16798e-05
56 *377:6 *3062:B 0
57 *378:14 *2942:B 0
58 *378:14 *868:50 0
59 *697:192 *868:63 0
60 *697:204 *868:63 0
61 *708:82 *868:29 0
62 *764:31 *868:102 0
63 *811:26 *868:29 8.09822e-05
64 *821:14 *868:46 0.000614504
65 *821:14 *868:94 0.000342671
66 *821:74 *3070:B 0
67 *867:6 *868:10 0
68 *867:68 *868:29 1.98271e-05
*RES
1 *3434:X *868:10 41.4111 
2 *868:10 *3433:A 40.7236 
3 *868:10 *868:29 30.3618 
4 *868:29 *868:35 40.3193 
5 *868:35 *2930:B 20 
6 *868:35 *868:46 25.5826 
7 *868:46 *868:50 27.4572 
8 *868:50 *3066:B 20 
9 *868:50 *868:61 22.3381 
10 *868:61 *868:63 7.0452 
11 *868:63 *2938:B 42.5647 
12 *868:63 *3070:B 40.7519 
13 *868:61 *2942:B 40.7519 
14 *868:46 *868:94 1.5862 
15 *868:94 *868:102 46.0152 
16 *868:102 *3058:B 40 
17 *868:94 *3062:B 40.5356 
*END

*D_NET *869 0.00780995
*CONN
*I *3033:B I *D sg13g2_nand4_1
*I *2909:B I *D sg13g2_nand4_1
*I *3013:B I *D sg13g2_nand4_1
*I *2881:B I *D sg13g2_nand4_1
*I *2893:B I *D sg13g2_nand4_1
*I *3025:B I *D sg13g2_nand4_1
*I *3021:B I *D sg13g2_nand4_1
*I *2889:B I *D sg13g2_nand4_1
*I *3435:X O *D sg13g2_buf_1
*CAP
1 *3033:B 0.000274138
2 *2909:B 0
3 *3013:B 0
4 *2881:B 9.90057e-05
5 *2893:B 0
6 *3025:B 0.00015702
7 *3021:B 0
8 *2889:B 0
9 *3435:X 0.000166898
10 *869:76 0.000372272
11 *869:58 0.000257561
12 *869:56 0.00094363
13 *869:27 0.000337741
14 *869:23 0.000455545
15 *869:15 0.00101366
16 *869:8 0.000218795
17 *2881:B *2881:D 0.000287672
18 *3025:B *3022:B1 0
19 *3025:B *874:19 0
20 *3025:B *887:73 0.000230832
21 *3033:B *2901:D 0.000210058
22 *3033:B *875:29 0.00012816
23 *869:8 *3435:A 1.54556e-05
24 *869:8 *3436:A 0
25 *869:15 *3436:A 0
26 *869:23 *3436:A 0
27 *869:23 *874:19 0
28 *869:23 *874:21 0
29 *869:27 *874:19 0
30 *869:56 *3436:A 0
31 *869:56 *896:57 0.000209419
32 *869:58 *2881:D 0.000265159
33 *869:58 *874:47 0.000181192
34 *869:76 *2901:D 0.000141862
35 *869:76 *874:47 0.000143461
36 *869:76 *887:42 0
37 *2889:A *869:27 7.31628e-05
38 *2893:C *869:23 0.000389354
39 *2893:A *3025:B 0
40 *2910:A2 *869:56 0.000144768
41 *3021:A *869:27 0.00039202
42 *3041:A *3033:B 0
43 *378:14 *869:8 0
44 *378:14 *869:15 0
45 *378:14 *869:56 0
46 *379:28 *2881:B 0.00034079
47 *824:12 *2881:B 0
48 *858:77 *3033:B 0.000285187
49 *858:77 *869:76 7.51285e-05
*RES
1 *3435:X *869:8 21.7819 
2 *869:8 *2889:B 20 
3 *869:8 *869:15 0.5356 
4 *869:15 *869:23 42.6162 
5 *869:23 *869:27 22.3278 
6 *869:27 *3021:B 40 
7 *869:27 *3025:B 41.5862 
8 *869:23 *2893:B 20 
9 *869:15 *869:56 26.6126 
10 *869:56 *869:58 2.0806 
11 *869:58 *2881:B 41.8334 
12 *869:58 *3013:B 40 
13 *869:56 *869:76 1.339 
14 *869:76 *2909:B 40 
15 *869:76 *3033:B 43.0694 
*END

*D_NET *870 0.0107545
*CONN
*I *3041:B I *D sg13g2_nand4_1
*I *2897:B I *D sg13g2_nand4_1
*I *3029:B I *D sg13g2_nand4_1
*I *3017:B I *D sg13g2_nand4_1
*I *2885:B I *D sg13g2_nand4_1
*I *2905:B I *D sg13g2_nand4_1
*I *2901:B I *D sg13g2_nand4_1
*I *3435:A I *D sg13g2_buf_1
*I *3436:X O *D sg13g2_buf_1
*CAP
1 *3041:B 0.000322798
2 *2897:B 0.000104654
3 *3029:B 0.000242293
4 *3017:B 9.72454e-05
5 *2885:B 0.000341461
6 *2905:B 0
7 *2901:B 0
8 *3435:A 0.000121395
9 *3436:X 0
10 *870:59 0.000521802
11 *870:57 0.000325389
12 *870:55 0.000814002
13 *870:44 0.000809924
14 *870:40 0.000536424
15 *870:32 0.000807835
16 *870:23 0.00106896
17 *870:4 0.00114117
18 *2897:B *2897:D 0
19 *3017:B *3017:C 0.000112426
20 *3029:B *3017:C 0.000323817
21 *3029:B *3029:C 0.000351062
22 *3029:B *1145:37 0
23 *3041:B *887:42 0.000232421
24 *3041:B *1123:38 0
25 *3435:A *3436:A 0
26 *870:23 *3436:A 0
27 *870:40 *3037:B 0.000231946
28 *870:40 *872:63 2.16289e-05
29 *870:40 *1133:27 0
30 *870:55 *2897:D 0
31 *870:55 *875:65 0
32 *870:59 *3017:C 0.000288912
33 *2889:A *870:23 0
34 *2893:A *870:23 4.72458e-05
35 *2901:A *870:23 0.000177109
36 *2901:A *870:32 4.78359e-05
37 *2905:C *870:44 1.54008e-05
38 *2905:C *870:55 3.23417e-05
39 *2906:A1 *2885:B 0
40 *3029:A *3029:B 0.000112558
41 *3041:A *3041:B 4.78192e-05
42 *373:32 *870:40 0
43 *373:32 *870:44 4.76296e-05
44 *374:18 *870:23 0
45 *375:20 *3029:B 5.38157e-05
46 *375:30 *3029:B 0.000238083
47 *377:14 *870:23 0
48 *378:14 *3435:A 0
49 *378:14 *870:44 0
50 *507:10 *870:23 0
51 *510:8 *2885:B 0.000291899
52 *510:8 *870:59 0.000290118
53 *513:10 *870:32 0
54 *514:12 *870:44 7.84876e-05
55 *516:10 *870:40 0.000126412
56 *613:8 *3041:B 0.00023464
57 *697:240 *870:44 0
58 *697:240 *870:55 0
59 *697:264 *2897:B 0
60 *697:264 *870:55 0
61 *711:64 *3041:B 0
62 *766:55 *2885:B 0
63 *766:55 *870:59 0
64 *790:38 *3029:B 0
65 *790:38 *870:59 0
66 *825:61 *870:23 0
67 *858:62 *870:32 0
68 *858:77 *870:23 4.77425e-05
69 *858:77 *870:32 3.23417e-05
70 *869:8 *3435:A 1.54556e-05
*RES
1 *3436:X *870:4 20 
2 *870:4 *3435:A 21.4523 
3 *870:4 *870:23 48.0909 
4 *870:23 *2901:B 20 
5 *870:23 *870:32 20.5356 
6 *870:32 *870:40 45.0882 
7 *870:40 *870:44 20.9682 
8 *870:44 *2905:B 20 
9 *870:44 *870:55 6.4272 
10 *870:55 *870:57 20 
11 *870:57 *870:59 1.5862 
12 *870:59 *2885:B 43.5432 
13 *870:59 *3017:B 40.9682 
14 *870:57 *3029:B 43.5432 
15 *870:55 *2897:B 20.9682 
16 *870:32 *3041:B 43.605 
*END

*D_NET *871 0.00681076
*CONN
*I *2863:B2 I *D sg13g2_a22oi_1
*I *3547:X O *D sg13g2_buf_1
*CAP
1 *2863:B2 0
2 *3547:X 0.000111279
3 *871:16 0.00187053
4 *871:10 0.0019818
5 *871:16 *1127:16 0
6 *2775:A2 *871:16 0.000284871
7 *2783:A2 *871:16 0
8 *2807:A1 *871:16 0.000387837
9 *2843:A1 *871:16 0.000339657
10 *2854:A1 *871:10 0.000111596
11 *2863:A2 *871:16 4.77425e-05
12 *3625:A *871:16 0.000126047
13 *3636:A *871:16 0
14 *485:8 *871:16 0.000144401
15 *741:22 *871:16 7.34424e-05
16 *746:27 *871:16 0.000333344
17 *747:46 *871:16 0
18 *826:14 *871:16 0.000924981
19 *827:22 *871:16 0
20 *848:25 *871:16 0
21 *848:27 *871:16 0
22 *848:43 *871:10 0
23 *848:90 *871:16 0
24 *848:98 *871:16 7.3236e-05
25 *849:14 *871:16 0
*RES
1 *3547:X *871:10 41.1021 
2 *871:10 *871:16 38.128 
3 *871:16 *2863:B2 20 
*END

*D_NET *872 0.0146929
*CONN
*I *3037:B I *D sg13g2_nand4_1
*I *3436:A I *D sg13g2_buf_1
*I *3107:B I *D sg13g2_nand4_1
*I *3087:B I *D sg13g2_nand4_1
*I *3099:B I *D sg13g2_nand4_1
*I *3437:X O *D sg13g2_buf_1
*CAP
1 *3037:B 0.000471155
2 *3436:A 0.000763099
3 *3107:B 0
4 *3087:B 0
5 *3099:B 0.000104112
6 *3437:X 0.000142861
7 *872:69 0.00121976
8 *872:63 0.00333222
9 *872:44 0.000431245
10 *872:27 0.000598856
11 *872:23 0.00271211
12 *872:10 0.000387069
13 *3037:B *3037:C 0.000176383
14 *3037:B *888:74 0
15 *3037:B *1145:37 0
16 *872:10 *3099:C 0
17 *872:10 *878:49 7.89557e-05
18 *872:27 *3087:C 4.77425e-05
19 *872:44 *3087:C 3.23417e-05
20 *872:44 *3107:C 0.000313088
21 *872:63 *888:61 0
22 *872:63 *888:74 0
23 *872:63 *896:32 0
24 *872:69 *1133:27 0.000868226
25 *2893:A *3436:A 0
26 *3037:A *3037:B 3.23417e-05
27 *3089:B *872:44 0
28 *3100:A2 *872:10 7.93152e-05
29 *3100:A2 *872:44 0
30 *3107:A *872:44 1.54008e-05
31 *3435:A *3436:A 0
32 *3:36 *872:63 0
33 *3:38 *872:63 0
34 *356:38 *872:44 0.000208348
35 *358:27 *3099:B 7.48105e-05
36 *361:18 *3099:B 0
37 *361:51 *872:27 7.89557e-05
38 *372:20 *872:69 0.00018189
39 *373:24 *3037:B 0.00011159
40 *373:32 *3037:B 0
41 *507:10 *3436:A 0.000144872
42 *513:10 *3037:B 0
43 *516:10 *872:63 0
44 *654:10 *872:63 4.77425e-05
45 *697:11 *872:44 0
46 *710:23 *872:63 0
47 *711:64 *3037:B 0
48 *736:32 *872:63 0
49 *744:33 *872:44 0
50 *744:33 *872:63 0.000497352
51 *754:16 *872:63 0.000499887
52 *778:29 *3099:B 0
53 *778:29 *872:23 0
54 *812:33 *872:69 0
55 *812:59 *3037:B 5.15366e-05
56 *812:59 *872:63 0.000287846
57 *814:56 *872:44 0
58 *822:20 *872:63 0
59 *822:54 *872:63 0.000448215
60 *825:61 *3436:A 0
61 *861:69 *872:63 0
62 *869:8 *3436:A 0
63 *869:15 *3436:A 0
64 *869:23 *3436:A 0
65 *869:56 *3436:A 0
66 *870:23 *3436:A 0
67 *870:40 *3037:B 0.000231946
68 *870:40 *872:63 2.16289e-05
*RES
1 *3437:X *872:10 41.5347 
2 *872:10 *3099:B 40.8446 
3 *872:10 *872:23 21.0918 
4 *872:23 *872:27 1.751 
5 *872:27 *3087:B 20 
6 *872:27 *872:44 44.2436 
7 *872:44 *3107:B 20 
8 *872:23 *872:63 45.1835 
9 *872:63 *872:69 45.7268 
10 *872:69 *3436:A 47.0423 
11 *872:63 *3037:B 44.9955 
*END

*D_NET *873 0.0337944
*CONN
*I *3074:B I *D sg13g2_nand4_1
*I *3437:A I *D sg13g2_buf_1
*I *3434:A I *D sg13g2_buf_1
*I *3432:A I *D sg13g2_buf_1
*I *3438:X O *D sg13g2_buf_1
*CAP
1 *3074:B 0
2 *3437:A 0.000109387
3 *3434:A 0
4 *3432:A 0.000517987
5 *3438:X 2.9608e-05
6 *873:99 0.000860401
7 *873:86 0.00123111
8 *873:80 0.0035257
9 *873:66 0.00485485
10 *873:55 0.00166736
11 *873:51 0.000617276
12 *873:39 0.0022114
13 *873:31 0.00283844
14 *873:8 0.00171501
15 *3432:A *884:60 2.19476e-05
16 *3432:A *884:70 0
17 *3437:A *888:6 0
18 *873:31 *881:122 0
19 *873:39 *885:10 0
20 *873:39 *1023:18 0
21 *873:39 *1120:22 0.000666787
22 *873:51 *894:62 0.000183878
23 *873:51 *1023:28 0
24 *873:66 *2939:B1 0
25 *873:66 *3054:C 0
26 *873:66 *877:42 0
27 *873:66 *877:50 0
28 *873:66 *877:58 0
29 *873:66 *886:35 0
30 *873:80 *2882:B1 0
31 *873:80 *2939:B1 0
32 *873:80 *877:40 0
33 *873:80 *896:10 0.000177295
34 *873:80 *898:67 0
35 *873:80 *898:86 0
36 *873:80 *898:97 0.000757358
37 *873:86 *878:49 0.000229779
38 *873:86 *888:23 0.000282359
39 *873:86 *888:34 0.000260054
40 *873:86 *888:55 0.00020916
41 *873:99 *3070:D 0
42 *2882:A1 *873:80 0.000306244
43 *2934:A *873:99 0
44 *2938:B *873:80 0
45 *2938:B *873:99 0.000393544
46 *2939:A2 *873:80 0
47 *2940:B *873:80 0
48 *3004:C *873:31 0.000715976
49 *3056:A *873:66 0
50 *3072:A *873:80 0
51 *3100:A2 *3437:A 0.000144271
52 *3382:A *873:80 0.000209615
53 *3427:A *873:8 4.78524e-05
54 *3433:A *873:55 0
55 *3486:A *873:66 0
56 *354:12 *873:31 0.00049993
57 *356:10 *873:51 0.000330693
58 *357:16 *873:31 0.000211768
59 *361:51 *873:86 0.000227897
60 *362:8 *873:39 0.000778858
61 *364:12 *873:99 0.000606382
62 *372:16 *873:99 0
63 *377:6 *873:99 0
64 *523:10 *873:39 0.000335935
65 *526:12 *873:39 0
66 *538:8 *873:66 0.000288087
67 *538:8 *873:99 0.000212215
68 *621:10 *873:66 0
69 *639:10 *873:99 0
70 *641:8 *873:99 0.000554578
71 *687:10 *873:31 0.000502466
72 *690:8 *873:31 0
73 *692:10 *873:39 0.000237656
74 *697:188 *873:80 0
75 *697:204 *873:99 0
76 *710:60 *873:80 0
77 *717:12 *3432:A 0.000209769
78 *722:10 *873:31 0
79 *743:14 *873:80 0
80 *743:21 *873:80 0
81 *754:16 *873:80 0.000306227
82 *754:31 *873:80 0.000417988
83 *766:49 *873:86 0
84 *778:29 *873:86 0
85 *805:12 *873:31 0.000130676
86 *810:8 *873:80 8.00842e-05
87 *856:8 *3432:A 4.6793e-05
88 *856:12 *3432:A 7.30101e-05
89 *856:126 *3432:A 5.20154e-05
90 *856:126 *873:31 0
91 *857:12 *873:51 7.62389e-05
92 *857:12 *873:55 7.98582e-05
93 *857:47 *873:66 0
94 *857:66 *873:66 0
95 *861:6 *3432:A 0
96 *861:14 *3432:A 2.14736e-05
97 *861:14 *873:31 0.000232469
98 *861:22 *873:31 0
99 *861:22 *873:39 0
100 *861:47 *873:66 0
101 *862:36 *873:31 0.000337823
102 *863:10 *873:31 0.000338362
103 *866:96 *3432:A 0
104 *866:96 *873:31 0
105 *867:68 *873:55 0
106 *867:84 *873:66 0
107 *868:10 *873:55 0
108 *868:61 *873:99 0.000318925
109 *868:63 *873:99 0.00150158
*RES
1 *3438:X *873:8 40.3193 
2 *873:8 *3432:A 45.15 
3 *873:8 *873:31 34.8526 
4 *873:31 *873:39 39.3125 
5 *873:39 *873:51 44.9234 
6 *873:51 *873:55 20.7519 
7 *873:55 *3434:A 20 
8 *873:55 *873:66 33.9874 
9 *873:66 *873:80 45.1526 
10 *873:80 *873:86 49.991 
11 *873:86 *3437:A 20.9682 
12 *873:66 *873:99 32.7514 
13 *873:99 *3074:B 20 
*END

*D_NET *874 0.00740032
*CONN
*I *3025:D I *D sg13g2_nand4_1
*I *2893:D I *D sg13g2_nand4_1
*I *2889:D I *D sg13g2_nand4_1
*I *2901:D I *D sg13g2_nand4_1
*I *2909:D I *D sg13g2_nand4_1
*I *2881:D I *D sg13g2_nand4_1
*I *2729:A I *D sg13g2_inv_1
*I *3021:D I *D sg13g2_nand4_1
*I *3439:X O *D sg13g2_buf_1
*CAP
1 *3025:D 5.00372e-05
2 *2893:D 8.98236e-05
3 *2889:D 7.87561e-05
4 *2901:D 0.000105473
5 *2909:D 0
6 *2881:D 0.000171094
7 *2729:A 0
8 *3021:D 0
9 *3439:X 0.00017766
10 *874:47 0.000240161
11 *874:36 0.000508825
12 *874:27 0.000510498
13 *874:21 0.000623742
14 *874:19 0.000755534
15 *874:8 0.000655876
16 *2901:D *875:45 0
17 *874:8 *1123:24 0
18 *874:19 *3022:B1 0
19 *874:19 *887:67 0
20 *874:19 *887:73 0
21 *874:21 *3022:B1 0
22 *874:21 *896:70 0
23 *874:47 *875:45 0
24 *2881:B *2881:D 0.000287672
25 *3025:B *874:19 0
26 *3033:B *2901:D 0.000210058
27 *3041:A *2901:D 0.000178897
28 *373:24 *874:8 0
29 *374:18 *874:8 0
30 *374:18 *874:19 0
31 *378:14 *2889:D 0.000112426
32 *378:14 *874:27 0.0005012
33 *378:14 *874:36 0.0003389
34 *504:8 *874:21 5.30319e-05
35 *504:8 *874:27 0.00012816
36 *507:10 *2893:D 1.54008e-05
37 *596:101 *2881:D 0.000181608
38 *604:10 *874:19 1.54008e-05
39 *824:12 *2881:D 0
40 *859:41 *874:27 0.000501332
41 *859:41 *874:36 0.000177077
42 *869:23 *874:19 0
43 *869:23 *874:21 0
44 *869:27 *874:19 0
45 *869:58 *2881:D 0.000265159
46 *869:58 *874:47 0.000181192
47 *869:76 *2901:D 0.000141862
48 *869:76 *874:47 0.000143461
*RES
1 *3439:X *874:8 21.751 
2 *874:8 *3021:D 20 
3 *874:8 *874:19 24.0685 
4 *874:19 *874:21 2.0806 
5 *874:21 *874:27 23.9449 
6 *874:27 *2729:A 20 
7 *874:27 *874:36 22.266 
8 *874:36 *2881:D 42.575 
9 *874:36 *874:47 1.52182 
10 *874:47 *2909:D 40 
11 *874:47 *2901:D 41.6506 
12 *874:21 *2889:D 40.7519 
13 *874:19 *2893:D 40.7519 
14 *874:8 *3025:D 20.5974 
*END

*D_NET *875 0.0119748
*CONN
*I *3041:D I *D sg13g2_nand4_1
*I *3033:D I *D sg13g2_nand4_1
*I *2897:D I *D sg13g2_nand4_1
*I *2885:D I *D sg13g2_nand4_1
*I *3017:D I *D sg13g2_nand4_1
*I *2905:D I *D sg13g2_nand4_1
*I *3013:D I *D sg13g2_nand4_1
*I *3439:A I *D sg13g2_buf_1
*I *3440:X O *D sg13g2_buf_1
*CAP
1 *3041:D 3.51631e-05
2 *3033:D 0
3 *2897:D 9.63945e-05
4 *2885:D 0
5 *3017:D 0
6 *2905:D 0
7 *3013:D 0
8 *3439:A 0
9 *3440:X 0
10 *875:82 0.00030813
11 *875:72 0.000428563
12 *875:65 0.000681623
13 *875:58 0.0013417
14 *875:45 0.000476885
15 *875:31 0.0011933
16 *875:29 0.000125554
17 *875:25 0.000514954
18 *875:16 0.000369219
19 *875:8 0.00075575
20 *875:6 0
21 *875:16 *1123:30 0
22 *875:16 *1142:12 0
23 *875:31 *887:48 0
24 *875:45 *3013:C 1.27224e-05
25 *875:58 *887:48 7.91244e-05
26 *875:58 *887:92 0.000710981
27 *875:65 *3017:C 0.000144181
28 *2893:A *875:16 0
29 *2897:B *2897:D 0
30 *2897:C *875:82 0.000722243
31 *2901:A *875:31 0
32 *2901:A *875:58 0
33 *2901:D *875:45 0
34 *2903:B *875:65 0
35 *2905:C *875:58 7.51285e-05
36 *2905:C *875:65 1.54008e-05
37 *2906:A1 *875:82 8.02105e-05
38 *3018:A2 *2897:D 0
39 *3033:B *875:29 0.00012816
40 *3041:A *3041:D 5.18521e-05
41 *3041:A *875:29 0.00028545
42 *3041:A *875:45 0.000446016
43 *315:12 *875:65 0.000176343
44 *373:32 *875:58 0
45 *377:14 *875:16 0
46 *378:14 *875:65 0
47 *378:27 *875:82 0.000399349
48 *379:22 *875:45 0
49 *513:10 *875:58 0.000531812
50 *516:10 *875:58 0
51 *596:101 *875:45 0.000132558
52 *613:8 *3041:D 0
53 *613:8 *875:29 0
54 *697:240 *875:58 0
55 *823:52 *875:58 0.000498379
56 *824:12 *875:45 0.00108138
57 *858:32 *875:45 0
58 *858:92 *875:82 7.62389e-05
59 *870:55 *2897:D 0
60 *870:55 *875:65 0
61 *874:47 *875:45 0
*RES
1 *3440:X *875:6 40 
2 *875:6 *875:8 20 
3 *875:8 *875:16 43.914 
4 *875:16 *3439:A 20 
5 *875:8 *875:25 24.6453 
6 *875:25 *875:29 21.339 
7 *875:29 *875:31 0.3502 
8 *875:31 *875:45 46.3499 
9 *875:45 *3013:D 20 
10 *875:31 *875:58 48.0546 
11 *875:58 *2905:D 20 
12 *875:58 *875:65 6.1594 
13 *875:65 *3017:D 20 
14 *875:65 *875:72 0.3193 
15 *875:72 *875:82 44.4187 
16 *875:82 *2885:D 20 
17 *875:72 *2897:D 20.9167 
18 *875:29 *3033:D 20 
19 *875:25 *3041:D 40.3502 
*END

*D_NET *876 0.0110792
*CONN
*I *3058:D I *D sg13g2_nand4_1
*I *2732:A I *D sg13g2_inv_1
*I *2930:D I *D sg13g2_nand4_1
*I *3050:D I *D sg13g2_nand4_1
*I *3046:D I *D sg13g2_nand4_1
*I *2926:D I *D sg13g2_nand4_1
*I *2918:D I *D sg13g2_nand4_1
*I *2914:D I *D sg13g2_nand4_1
*I *3441:X O *D sg13g2_buf_1
*CAP
1 *3058:D 0.000252196
2 *2732:A 0.00059011
3 *2930:D 0
4 *3050:D 0
5 *3046:D 3.21158e-05
6 *2926:D 2.90123e-05
7 *2918:D 4.49486e-05
8 *2914:D 5.34409e-05
9 *3441:X 0
10 *876:79 0.00109503
11 *876:68 0.000134495
12 *876:26 0.000192425
13 *876:22 0.000240232
14 *876:16 0.000296651
15 *876:14 0.000533351
16 *876:10 0.00124348
17 *876:6 0.000739252
18 *2732:A *886:43 0.000130055
19 *2732:A *1121:10 0
20 *2926:D *1074:18 4.77425e-05
21 *3046:D *3046:C 4.79124e-05
22 *3046:D *1027:14 0
23 *3058:D *3587:A 8.0216e-05
24 *3058:D *886:76 8.00842e-05
25 *3058:D *895:81 2.24232e-05
26 *3058:D *1106:14 0
27 *3058:D *1133:20 0.000342627
28 *876:10 *1036:12 0
29 *876:10 *1101:8 0.000183828
30 *876:14 *894:62 0
31 *876:16 *3046:C 1.54556e-05
32 *876:16 *3574:A 0.000143171
33 *876:22 *1027:14 0.000126063
34 *876:68 *3574:A 0.000112558
35 *876:68 *886:24 7.62389e-05
36 *2914:A *876:22 0
37 *2926:C *2926:D 1.54008e-05
38 *3044:C *2732:A 0.00039892
39 *365:8 *2732:A 0
40 *368:31 *3058:D 0
41 *368:31 *876:10 0.00128933
42 *368:31 *876:14 7.62389e-05
43 *370:24 *876:16 1.54008e-05
44 *370:24 *876:22 0.000161447
45 *370:24 *876:26 0.00018387
46 *370:24 *876:68 9.71568e-05
47 *532:16 *876:22 7.61961e-05
48 *532:16 *876:26 0.000399241
49 *627:8 *2732:A 0.0003461
50 *708:82 *876:68 0.00023721
51 *857:12 *2914:D 4.1307e-05
52 *857:16 *876:26 0.000130055
53 *868:29 *876:10 0.000126829
54 *868:29 *876:14 0.000599344
55 *868:29 *876:68 0
*RES
1 *3441:X *876:6 40 
2 *876:6 *876:10 6.3551 
3 *876:10 *876:14 22.8222 
4 *876:14 *876:16 1.4008 
5 *876:16 *876:22 21.6892 
6 *876:22 *876:26 21.8334 
7 *876:26 *2914:D 20.6257 
8 *876:26 *2918:D 20.5974 
9 *876:22 *2926:D 40.3193 
10 *876:16 *3046:D 20.3193 
11 *876:14 *876:68 41.8437 
12 *876:68 *3050:D 20 
13 *876:10 *876:79 44.6453 
14 *876:79 *2930:D 40 
15 *876:79 *2732:A 46.18 
16 *876:6 *3058:D 42.6162 
*END

*D_NET *877 0.0129858
*CONN
*I *3062:D I *D sg13g2_nand4_1
*I *2942:D I *D sg13g2_nand4_1
*I *2938:D I *D sg13g2_nand4_1
*I *2934:D I *D sg13g2_nand4_1
*I *2922:D I *D sg13g2_nand4_1
*I *3054:D I *D sg13g2_nand4_1
*I *3066:D I *D sg13g2_nand4_1
*I *3441:A I *D sg13g2_buf_1
*I *3442:X O *D sg13g2_buf_1
*CAP
1 *3062:D 2.77263e-05
2 *2942:D 4.52895e-05
3 *2938:D 0
4 *2934:D 3.03095e-05
5 *2922:D 0
6 *3054:D 0
7 *3066:D 0
8 *3441:A 0
9 *3442:X 0.000103076
10 *877:58 0.000415063
11 *877:50 0.00102884
12 *877:42 0.000816436
13 *877:40 0.000934944
14 *877:34 0.00126783
15 *877:23 0.00127599
16 *877:19 0.00129048
17 *877:8 0.000549789
18 *877:8 *3585:A 8.00842e-05
19 *877:8 *1071:18 0
20 *877:19 *3585:A 0.000327806
21 *877:19 *3587:A 0
22 *877:19 *886:97 0
23 *877:19 *886:112 0
24 *877:19 *889:56 0
25 *877:19 *1071:18 0
26 *877:19 *1104:10 0.000176367
27 *877:19 *1106:14 0
28 *877:23 *886:112 0
29 *877:23 *889:56 0.000240531
30 *877:23 *1122:22 0.000987394
31 *877:34 *1122:22 4.77425e-05
32 *877:40 *2939:B1 0
33 *877:42 *2939:B1 0
34 *877:50 *2939:B1 0.000339262
35 *2938:B *877:40 0
36 *2938:C *2934:D 0
37 *2938:C *877:40 1.54556e-05
38 *2938:C *877:42 0.000209004
39 *2942:C *2942:D 1.54008e-05
40 *3056:A *2934:D 0
41 *3068:A *877:34 0
42 *3068:B *877:34 0
43 *3383:A *877:19 0
44 *3503:A *877:34 0
45 *378:14 *2942:D 0
46 *378:14 *877:34 0
47 *379:22 *2942:D 8.0216e-05
48 *538:8 *877:50 0
49 *544:14 *877:40 0
50 *697:192 *877:40 0
51 *697:204 *877:34 0
52 *697:204 *877:40 0
53 *811:92 *877:34 0.000554907
54 *811:92 *877:40 0.00167397
55 *857:47 *877:58 0.000339393
56 *857:62 *877:50 9.71349e-05
57 *857:62 *877:58 1.54008e-05
58 *868:50 *877:23 0
59 *868:63 *877:40 0
60 *873:66 *877:42 0
61 *873:66 *877:50 0
62 *873:66 *877:58 0
63 *873:80 *877:40 0
*RES
1 *3442:X *877:8 21.133 
2 *877:8 *3441:A 20 
3 *877:8 *877:19 4.6659 
4 *877:19 *877:23 8.24 
5 *877:23 *3066:D 20 
6 *877:23 *877:34 24.7442 
7 *877:34 *877:40 29.2906 
8 *877:40 *877:42 1.8334 
9 *877:42 *877:50 45.5826 
10 *877:50 *877:58 43.8522 
11 *877:58 *3054:D 20 
12 *877:50 *2922:D 20 
13 *877:42 *2934:D 20.3502 
14 *877:40 *2938:D 20 
15 *877:34 *2942:D 40.5356 
16 *877:19 *3062:D 20.3502 
*END

*D_NET *878 0.0109333
*CONN
*I *2975:D I *D sg13g2_nand4_1
*I *3083:D I *D sg13g2_nand4_1
*I *2955:D I *D sg13g2_nand4_1
*I *2951:D I *D sg13g2_nand4_1
*I *3087:D I *D sg13g2_nand4_1
*I *2967:D I *D sg13g2_nand4_1
*I *3079:D I *D sg13g2_nand4_1
*I *2947:D I *D sg13g2_nand4_1
*I *3443:X O *D sg13g2_buf_1
*CAP
1 *2975:D 0
2 *3083:D 0
3 *2955:D 0
4 *2951:D 8.44138e-05
5 *3087:D 0
6 *2967:D 0
7 *3079:D 0
8 *2947:D 0.000127764
9 *3443:X 4.96871e-05
10 *878:62 0.000160264
11 *878:60 0.000236492
12 *878:56 0.000450516
13 *878:49 0.000325619
14 *878:41 0.00113321
15 *878:32 0.00149008
16 *878:10 0.000189586
17 *878:8 0.00108387
18 *878:8 *3443:A 8.00842e-05
19 *878:32 *3452:A 0
20 *878:32 *1121:14 0.000274491
21 *878:32 *1121:33 0
22 *878:41 *1121:33 0
23 *878:41 *1121:52 0
24 *878:49 *3087:C 8.00842e-05
25 *878:49 *888:23 0
26 *878:56 *1121:52 0
27 *2951:B *2951:D 0.00023721
28 *2951:B *878:62 0.000125569
29 *2967:C *878:32 1.54556e-05
30 *2967:C *878:41 0
31 *2975:C *878:41 0.00037085
32 *2975:C *878:56 0.000453166
33 *3313:CLK *878:32 0.000209697
34 *356:46 *878:60 0.000180797
35 *358:14 *878:32 0
36 *651:8 *878:60 0
37 *766:49 *878:49 0
38 *778:29 *878:49 0.000653706
39 *790:38 *2951:D 0.000345105
40 *790:38 *878:60 0.000534277
41 *790:38 *878:62 0.000316848
42 *820:72 *2947:D 0
43 *820:72 *878:10 0
44 *861:71 *878:41 0
45 *861:84 *878:41 0
46 *864:19 *2947:D 0.00034195
47 *864:34 *2947:D 0.000106064
48 *864:34 *878:10 0.000233913
49 *864:34 *878:32 0.000392731
50 *864:40 *878:32 0
51 *864:82 *878:60 0.000130055
52 *864:82 *878:62 0.00021097
53 *872:10 *878:49 7.89557e-05
54 *873:86 *878:49 0.000229779
*RES
1 *3443:X *878:8 40.5356 
2 *878:8 *878:10 1.0918 
3 *878:10 *2947:D 42.0806 
4 *878:10 *3079:D 40 
5 *878:8 *878:32 30.712 
6 *878:32 *2967:D 20 
7 *878:32 *878:41 5.2118 
8 *878:41 *878:49 44.0376 
9 *878:49 *3087:D 20 
10 *878:41 *878:56 3.1312 
11 *878:56 *878:60 22.575 
12 *878:60 *878:62 1.5862 
13 *878:62 *2951:D 41.5862 
14 *878:62 *2955:D 40 
15 *878:60 *3083:D 40 
16 *878:56 *2975:D 20 
*END

*D_NET *879 0.0171988
*CONN
*I *3443:A I *D sg13g2_buf_1
*I *3103:D I *D sg13g2_nand4_1
*I *2963:D I *D sg13g2_nand4_1
*I *2959:D I *D sg13g2_nand4_1
*I *3095:D I *D sg13g2_nand4_1
*I *3091:D I *D sg13g2_nand4_1
*I *2971:D I *D sg13g2_nand4_1
*I *2733:A I *D sg13g2_inv_1
*I *3444:X O *D sg13g2_buf_1
*CAP
1 *3443:A 0.000596942
2 *3103:D 2.57853e-05
3 *2963:D 2.57874e-05
4 *2959:D 4.14875e-05
5 *3095:D 5.98185e-05
6 *3091:D 0.000112639
7 *2971:D 0
8 *2733:A 0
9 *3444:X 0
10 *879:42 0.000301802
11 *879:40 0.000313563
12 *879:34 0.00103368
13 *879:30 0.00104719
14 *879:23 0.00100387
15 *879:14 0.00107314
16 *879:8 0.00252997
17 *879:6 0.00120615
18 *2963:D *1137:50 4.86353e-05
19 *3091:D *885:80 0.000112535
20 *3103:D *885:108 4.77425e-05
21 *3443:A *892:64 0
22 *879:8 *3079:C 0
23 *879:8 *885:51 0
24 *879:8 *892:64 0
25 *879:14 *885:57 0
26 *879:14 *898:46 0
27 *879:23 *885:100 0.00134154
28 *879:30 *885:100 0.000193417
29 *879:30 *885:108 4.77425e-05
30 *879:34 *885:108 7.51285e-05
31 *879:42 *885:80 0
32 *2963:B *879:34 0.000106064
33 *2963:B *879:40 0.000234224
34 *2964:A1 *879:40 0
35 *2971:B *879:30 0
36 *2972:A2 *879:30 0
37 *3080:A1 *3443:A 4.77425e-05
38 *3080:A2 *3443:A 0
39 *3103:A *879:30 0
40 *3378:A *3443:A 0.000212127
41 *3378:A *879:8 0.00156234
42 *3379:A *879:14 0.000181192
43 *3:30 *3443:A 0
44 *359:32 *879:14 0.000533144
45 *359:47 *2959:D 0
46 *359:47 *3095:D 0
47 *359:47 *879:42 0
48 *360:49 *2959:D 0
49 *360:49 *879:40 0
50 *386:10 *879:14 4.78156e-05
51 *567:8 *879:34 0.000288173
52 *697:34 *879:14 0
53 *757:33 *879:14 0
54 *758:25 *879:23 0.000920046
55 *758:35 *879:30 0
56 *766:45 *879:34 0
57 *778:29 *879:34 0
58 *790:34 *3091:D 4.77425e-05
59 *790:34 *3095:D 4.77425e-05
60 *806:25 *3443:A 0.000285865
61 *807:23 *879:14 0
62 *807:68 *879:40 8.03692e-05
63 *807:68 *879:42 0.000129116
64 *808:31 *879:8 0.000106064
65 *808:31 *879:14 0.000395811
66 *808:46 *879:23 0
67 *855:67 *2963:D 4.77425e-05
68 *855:73 *879:34 7.51285e-05
69 *855:73 *879:40 0.000287342
70 *856:85 *879:23 4.79124e-05
71 *856:85 *879:30 1.54556e-05
72 *865:96 *879:40 0.000180955
73 *878:8 *3443:A 8.00842e-05
*RES
1 *3444:X *879:6 40 
2 *879:6 *879:8 7.7662 
3 *879:8 *879:14 30.8356 
4 *879:14 *2733:A 20 
5 *879:8 *879:23 29.6202 
6 *879:23 *2971:D 20 
7 *879:23 *879:30 1.6171 
8 *879:30 *879:34 28.5078 
9 *879:34 *879:40 22.369 
10 *879:40 *879:42 1.4008 
11 *879:42 *3091:D 21.3493 
12 *879:42 *3095:D 20.7519 
13 *879:40 *2959:D 20.6257 
14 *879:34 *2963:D 40.3193 
15 *879:30 *3103:D 20.3193 
16 *879:6 *3443:A 45.8051 
*END

*D_NET *880 0.0116757
*CONN
*I *3112:D I *D sg13g2_nand4_1
*I *2996:D I *D sg13g2_nand4_1
*I *3128:D I *D sg13g2_nand4_1
*I *2992:D I *D sg13g2_nand4_1
*I *3116:D I *D sg13g2_nand4_1
*I *2984:D I *D sg13g2_nand4_1
*I *2980:D I *D sg13g2_nand4_1
*I *2734:A I *D sg13g2_inv_1
*I *3445:X O *D sg13g2_buf_1
*CAP
1 *3112:D 6.32702e-05
2 *2996:D 0
3 *3128:D 0
4 *2992:D 0
5 *3116:D 0.000219931
6 *2984:D 0
7 *2980:D 0
8 *2734:A 0
9 *3445:X 0.00028605
10 *880:124 0.000232523
11 *880:116 0.000372917
12 *880:100 0.000180825
13 *880:94 0.000371756
14 *880:85 0.000691401
15 *880:66 0.0010602
16 *880:55 0.000328959
17 *880:51 0.00109947
18 *880:40 0.000930442
19 *880:34 0.000572526
20 *880:16 0.000300351
21 *880:8 0.000419538
22 *3112:D *3112:C 1.00105e-05
23 *3116:D *3117:B1 1.54008e-05
24 *3116:D *884:110 1.54008e-05
25 *880:8 *883:53 0
26 *880:16 *3110:A 7.44237e-05
27 *880:16 *883:23 4.82481e-05
28 *880:34 *891:35 0
29 *880:40 *891:35 0
30 *880:40 *1125:10 0
31 *880:51 *891:10 0
32 *880:51 *891:14 0.000112558
33 *880:51 *891:18 0.000176644
34 *880:51 *898:33 4.79124e-05
35 *880:85 *3128:C 0.000446767
36 *880:85 *889:97 0
37 *880:94 *898:33 0
38 *880:100 *3128:C 0
39 *880:124 *884:70 0
40 *880:124 *884:106 8.12727e-05
41 *2978:C *3112:D 0
42 *2979:B1 *880:51 0
43 *2992:B *880:66 0.000499492
44 *2992:B *880:85 0
45 *2992:C *880:85 0.000112289
46 *2993:A2 *880:85 0.000112289
47 *2996:B *880:94 0.000144025
48 *2996:C *880:94 1.54008e-05
49 *3117:A2 *3116:D 0
50 *3118:B *880:85 4.78141e-05
51 *3119:A1 *880:16 0
52 *3128:B *880:55 0
53 *3128:A *880:100 0
54 *342:8 *880:85 0.000181694
55 *360:34 *3116:D 0.000219036
56 *360:34 *880:85 0.000112289
57 *571:20 *880:8 0.000176309
58 *571:20 *880:34 4.74145e-05
59 *571:37 *880:51 0
60 *571:37 *880:94 0.000273562
61 *572:10 *880:51 0
62 *671:81 *880:16 2.19989e-05
63 *671:100 *880:34 0
64 *671:102 *3116:D 0
65 *685:10 *880:100 0
66 *698:40 *880:124 0.000124547
67 *717:16 *880:124 0.000179325
68 *803:98 *880:51 0
69 *803:98 *880:55 0
70 *817:46 *880:8 0
71 *817:46 *880:116 0.00020978
72 *817:53 *880:34 0
73 *817:53 *880:40 0
74 *817:53 *880:51 0
75 *817:53 *880:116 9.68672e-05
76 *817:68 *880:51 0
77 *856:50 *880:40 0.000177428
78 *856:50 *880:116 0
79 *856:60 *880:100 2.14736e-05
80 *862:82 *3112:D 3.72232e-05
81 *862:108 *880:51 0
82 *866:39 *880:55 0.000124702
83 *866:39 *880:66 0.00058198
*RES
1 *3445:X *880:8 41.1845 
2 *880:8 *880:16 42.8634 
3 *880:16 *2734:A 40 
4 *3445:X *880:34 41.4111 
5 *880:34 *880:40 21.7819 
6 *880:40 *2980:D 20 
7 *880:40 *880:51 6.8598 
8 *880:51 *880:55 21.339 
9 *880:55 *2984:D 40 
10 *880:55 *880:66 22.8222 
11 *880:66 *3116:D 22.266 
12 *880:66 *880:85 46.901 
13 *880:85 *2992:D 20 
14 *880:51 *880:94 2.1836 
15 *880:94 *880:100 41.5862 
16 *880:100 *3128:D 20 
17 *880:94 *2996:D 20 
18 *880:34 *880:116 42.0497 
19 *880:116 *880:124 41.7819 
20 *880:124 *3112:D 40.6566 
*END

*D_NET *881 0.0152523
*CONN
*I *3136:D I *D sg13g2_nand4_1
*I *3140:D I *D sg13g2_nand4_1
*I *3004:D I *D sg13g2_nand4_1
*I *3132:D I *D sg13g2_nand4_1
*I *3000:D I *D sg13g2_nand4_1
*I *3445:A I *D sg13g2_buf_1
*I *2988:D I *D sg13g2_nand4_1
*I *3120:D I *D sg13g2_nand4_1
*I *3446:X O *D sg13g2_buf_1
*CAP
1 *3136:D 0.00014169
2 *3140:D 0
3 *3004:D 3.34444e-05
4 *3132:D 6.93493e-05
5 *3000:D 0.00010825
6 *3445:A 0.000759479
7 *2988:D 0
8 *3120:D 0.00035881
9 *3446:X 0
10 *881:122 0.00128647
11 *881:103 0.00152817
12 *881:68 0.00135644
13 *881:51 0.000624855
14 *881:28 0.00083116
15 *881:14 0.000987826
16 *881:8 0.000867596
17 *881:6 0.000713077
18 *3120:D *884:8 7.62389e-05
19 *3120:D *884:12 1.57249e-05
20 *3120:D *884:47 4.78359e-05
21 *3120:D *890:26 4.79124e-05
22 *3132:D *884:27 0.000112558
23 *3136:D *1120:22 0.000130055
24 *3445:A *3275:RESET_B 0.000273798
25 *3445:A *884:70 0
26 *881:28 *884:12 0.000338854
27 *881:28 *889:16 0.000290049
28 *881:51 *884:47 0
29 *881:122 *3140:C 0.000112799
30 *881:122 *3141:B1 0
31 *881:122 *3341:RESET_B 0
32 *881:122 *885:22 0
33 *881:122 *889:31 0
34 *881:122 *890:91 0
35 *2988:C *881:51 1.54008e-05
36 *2988:C *881:68 9.68392e-05
37 *2989:A2 *881:68 0
38 *3000:C *3000:D 8.01776e-05
39 *3001:A2 *3000:D 0
40 *3004:C *881:103 7.34889e-05
41 *3004:C *881:122 5.38157e-05
42 *3004:A *3136:D 0
43 *3005:A2 *3004:D 4.77425e-05
44 *3120:B *3120:D 4.46621e-05
45 *3134:B *3000:D 0
46 *3135:A2 *881:122 0
47 *3141:A2 *881:122 0
48 *3333:CLK *881:68 0
49 *352:16 *3132:D 0
50 *354:12 *3000:D 0
51 *354:24 *3445:A 0
52 *355:20 *881:51 4.77425e-05
53 *355:20 *881:68 0.000499719
54 *571:20 *3445:A 0
55 *671:14 *881:68 0
56 *691:12 *3136:D 0
57 *692:10 *3136:D 0.000215413
58 *692:10 *881:8 0.000130344
59 *717:12 *881:68 0.000395518
60 *805:24 *881:122 0
61 *808:16 *881:103 0
62 *808:16 *881:122 0
63 *816:18 *881:122 0.000129874
64 *817:42 *3445:A 0.000371648
65 *820:46 *881:122 0
66 *856:143 *881:8 0.000106028
67 *856:143 *881:14 0.000617165
68 *861:22 *3136:D 0
69 *861:22 *881:8 0
70 *861:22 *881:14 0.000448276
71 *861:22 *881:28 0.000450194
72 *862:10 *881:28 0
73 *862:38 *3120:D 0.000107306
74 *862:38 *881:28 7.34842e-05
75 *862:72 *881:68 0
76 *863:22 *3136:D 0.000112558
77 *866:10 *881:68 2.24232e-05
78 *873:31 *881:122 0
*RES
1 *3446:X *881:6 40 
2 *881:6 *881:8 3.3166 
3 *881:8 *881:14 5.2221 
4 *881:14 *881:28 45.7989 
5 *881:28 *3120:D 43.7389 
6 *881:28 *881:51 20.3193 
7 *881:51 *2988:D 20 
8 *881:51 *881:68 46.7465 
9 *881:68 *3445:A 27.8074 
10 *881:14 *3000:D 40.9682 
11 *881:8 *3132:D 40.7519 
12 *881:6 *881:103 42.1836 
13 *881:103 *3004:D 40.3193 
14 *881:103 *881:122 32.1849 
15 *881:122 *3140:D 20 
16 *881:6 *3136:D 41.8437 
*END

*D_NET *882 0.0092576
*CONN
*I *2867:B2 I *D sg13g2_a22oi_1
*I *3548:X O *D sg13g2_buf_1
*CAP
1 *2867:B2 0
2 *3548:X 0.000103097
3 *882:18 0.00168027
4 *882:8 0.00178337
5 *3420:A *882:18 8.00842e-05
6 *3547:A *882:8 1.54008e-05
7 *31:8 *882:18 0
8 *717:46 *882:18 0
9 *727:14 *882:18 0.00268722
10 *739:52 *882:18 0
11 *743:37 *882:18 0
12 *749:12 *882:18 0
13 *749:22 *882:18 0.00205833
14 *750:31 *882:18 0
15 *751:54 *882:18 0.000399098
16 *753:43 *882:18 0
17 *754:46 *882:18 0
18 *755:62 *882:18 0.000184793
19 *782:10 *882:18 7.34842e-05
20 *815:14 *882:18 0
21 *853:8 *882:18 0.000144711
22 *853:14 *882:18 4.77425e-05
*RES
1 *3548:X *882:8 40.7519 
2 *882:8 *882:18 41.3103 
3 *882:18 *2867:B2 20 
*END

*D_NET *883 0.0306045
*CONN
*I *2879:A I *D sg13g2_nor3_1
*I *3011:A I *D sg13g2_nor3_1
*I *2912:A I *D sg13g2_nor3_1
*I *3077:A I *D sg13g2_nor3_1
*I *2945:A I *D sg13g2_nor3_1
*I *2978:A I *D sg13g2_nor3_1
*I *3110:A I *D sg13g2_nor3_1
*I *2730:A I *D sg13g2_inv_1
*I *3447:X O *D sg13g2_buf_1
*CAP
1 *2879:A 0.000220249
2 *3011:A 0
3 *2912:A 0.00067751
4 *3077:A 0.000514335
5 *2945:A 0
6 *2978:A 0
7 *3110:A 0.000202842
8 *2730:A 0.000322413
9 *3447:X 2.56377e-05
10 *883:110 0.000220442
11 *883:104 0.000725607
12 *883:100 0.00227902
13 *883:85 0.00562339
14 *883:61 0.00217226
15 *883:53 0.00544816
16 *883:42 0.00102784
17 *883:25 0.000392224
18 *883:23 0.00082944
19 *883:8 0.00117749
20 *2730:A *890:36 0
21 *2730:A *1023:12 0
22 *2912:A *894:12 0
23 *3077:A *3271:RESET_B 0
24 *3077:A *885:70 0
25 *3110:A *884:70 0
26 *883:23 *889:16 0.000408001
27 *883:42 *884:70 0.000112046
28 *883:61 *885:57 0
29 *883:85 *1120:46 0
30 *883:100 *2939:B1 0
31 *883:100 *3245:RESET_B 0
32 *883:100 *3458:A 0.00108311
33 *883:100 *894:12 0
34 *883:100 *895:23 8.00842e-05
35 *883:100 *898:67 0
36 *883:100 *1020:8 0
37 *2879:C *2879:A 0
38 *2888:A2 *2879:A 0.000323735
39 *2888:A2 *883:104 0.000274622
40 *2922:A *2912:A 0
41 *2935:A1 *883:100 0
42 *2935:A2 *883:100 0
43 *2992:A *883:61 0
44 *2993:A2 *883:61 0
45 *2994:B *883:61 0
46 *3077:B *3077:A 0
47 *3126:A *883:61 8.01773e-05
48 *3333:CLK *3110:A 4.79124e-05
49 *3393:A *2879:A 0
50 *3393:A *883:104 0
51 *3438:A *2730:A 0
52 *3:22 *883:53 0
53 *3:22 *883:85 0
54 *285:10 *883:100 0.00012816
55 *293:8 *883:85 0
56 *295:10 *883:85 0
57 *348:10 *883:85 0
58 *351:10 *2730:A 0.000395908
59 *351:10 *883:8 4.77425e-05
60 *352:16 *883:61 0
61 *355:12 *883:8 4.78359e-05
62 *505:8 *883:100 0
63 *508:10 *883:100 0
64 *508:10 *883:110 0
65 *521:10 *2912:A 0.000304254
66 *530:10 *883:85 0
67 *546:12 *3077:A 0.000209637
68 *546:12 *883:61 8.00842e-05
69 *571:12 *3110:A 7.31628e-05
70 *571:12 *883:42 0.000144371
71 *571:20 *883:42 0
72 *671:81 *3110:A 0
73 *671:81 *883:23 8.09323e-05
74 *671:100 *883:53 0
75 *697:188 *883:104 0
76 *698:38 *883:53 0
77 *698:38 *883:85 0
78 *698:40 *3110:A 0
79 *698:40 *883:53 0
80 *717:16 *883:23 0
81 *722:35 *3077:A 0
82 *722:35 *883:61 0.00231199
83 *741:12 *883:85 0
84 *757:8 *883:53 0.000341621
85 *757:8 *883:85 5.34469e-05
86 *758:8 *883:85 0.000446855
87 *803:38 *2730:A 0.000450307
88 *803:53 *2730:A 4.78524e-05
89 *807:12 *883:61 0
90 *807:23 *883:61 0
91 *814:12 *883:110 0.00071243
92 *816:70 *883:85 0
93 *817:42 *883:53 0
94 *817:46 *883:53 0.000112181
95 *818:87 *3077:A 0
96 *857:62 *2912:A 0
97 *857:62 *883:100 0
98 *861:59 *2912:A 0
99 *861:59 *883:100 0
100 *862:72 *3110:A 0.000176711
101 *862:82 *3110:A 4.77425e-05
102 *880:8 *883:53 0
103 *880:16 *3110:A 7.44237e-05
104 *880:16 *883:23 4.82481e-05
*RES
1 *3447:X *883:8 40.3193 
2 *883:8 *2730:A 44.1303 
3 *883:8 *883:23 30.0528 
4 *883:23 *883:25 20 
5 *883:25 *3110:A 42.1527 
6 *883:25 *883:42 21.9673 
7 *883:42 *2978:A 20 
8 *883:42 *883:53 27.4984 
9 *883:53 *883:61 37.922 
10 *883:61 *2945:A 20 
11 *883:61 *3077:A 25.15 
12 *883:53 *883:85 46.8006 
13 *883:85 *2912:A 26.4952 
14 *883:85 *883:100 39.9906 
15 *883:100 *883:104 22.6986 
16 *883:104 *883:110 43.3166 
17 *883:110 *3011:A 20 
18 *883:104 *2879:A 22.266 
*END

*D_NET *884 0.0186337
*CONN
*I *3116:C I *D sg13g2_nand4_1
*I *3124:C I *D sg13g2_nand4_1
*I *3112:C I *D sg13g2_nand4_1
*I *2978:B I *D sg13g2_nor3_1
*I *3120:C I *D sg13g2_nand4_1
*I *3132:C I *D sg13g2_nand4_1
*I *3136:C I *D sg13g2_nand4_1
*I *2731:A I *D sg13g2_inv_1
*I *3448:X O *D sg13g2_buf_1
*CAP
1 *3116:C 0
2 *3124:C 0
3 *3112:C 0.000192183
4 *2978:B 0
5 *3120:C 0
6 *3132:C 0
7 *3136:C 0
8 *2731:A 0.000168799
9 *3448:X 7.49866e-05
10 *884:116 0.00042661
11 *884:110 0.000658729
12 *884:106 0.00090054
13 *884:83 0.000901888
14 *884:74 0.000140194
15 *884:70 0.00111968
16 *884:60 0.00143113
17 *884:47 0.000462621
18 *884:33 0.000385721
19 *884:27 0.0010073
20 *884:12 0.0012568
21 *884:8 0.000593671
22 *2731:A *1012:18 0
23 *884:12 *885:153 0.00044811
24 *884:33 *885:10 0.00103593
25 *884:47 *890:26 0
26 *884:60 *890:26 0
27 *884:106 *891:35 0
28 *884:106 *1125:23 0.00053764
29 *2978:C *884:74 0.000143332
30 *2988:B *884:60 2.61365e-05
31 *2988:C *884:60 7.62389e-05
32 *3110:A *884:70 0
33 *3112:D *3112:C 1.00105e-05
34 *3116:D *884:110 1.54008e-05
35 *3120:B *884:47 1.54556e-05
36 *3120:B *884:60 4.79124e-05
37 *3120:A *884:60 0.000231417
38 *3120:D *884:8 7.62389e-05
39 *3120:D *884:12 1.57249e-05
40 *3120:D *884:47 4.78359e-05
41 *3132:B *884:27 4.77425e-05
42 *3132:D *884:27 0.000112558
43 *3427:A *2731:A 7.92311e-05
44 *3427:A *884:70 0.000499851
45 *3432:A *884:60 2.19476e-05
46 *3432:A *884:70 0
47 *3445:A *884:70 0
48 *355:12 *2731:A 0
49 *360:34 *884:110 0
50 *571:12 *884:70 0
51 *571:12 *884:74 0
52 *571:20 *884:70 7.97045e-05
53 *671:14 *884:60 0
54 *671:81 *884:106 0.000213259
55 *671:102 *884:110 0
56 *672:8 *3112:C 0
57 *681:8 *884:116 0
58 *682:10 *884:116 0
59 *698:40 *3112:C 0
60 *698:40 *884:70 0
61 *717:16 *884:106 0
62 *803:30 *884:27 0.000449703
63 *817:42 *884:106 2.14736e-05
64 *817:46 *884:83 4.77425e-05
65 *856:12 *884:60 0
66 *861:6 *884:70 0.000435014
67 *861:22 *884:27 0.00142092
68 *862:10 *2731:A 0
69 *862:36 *884:12 0
70 *862:36 *884:27 0
71 *862:72 *884:70 0
72 *862:93 *3112:C 4.42885e-05
73 *862:93 *884:83 0
74 *862:108 *884:106 0.000498827
75 *862:108 *884:110 0.000274583
76 *862:114 *884:116 0.00140641
77 *866:39 *884:116 0
78 *880:124 *884:70 0
79 *880:124 *884:106 8.12727e-05
80 *881:28 *884:12 0.000338854
81 *881:51 *884:47 0
82 *883:42 *884:70 0.000112046
*RES
1 *3448:X *884:8 40.8446 
2 *884:8 *884:12 4.841 
3 *884:12 *2731:A 41.4008 
4 *884:12 *884:27 28.1782 
5 *884:27 *884:33 44.7998 
6 *884:33 *3136:C 20 
7 *884:27 *3132:C 20 
8 *884:8 *884:47 20.5356 
9 *884:47 *3120:C 20 
10 *884:47 *884:60 43.8522 
11 *884:60 *884:70 30.1146 
12 *884:70 *884:74 20.9682 
13 *884:74 *2978:B 20 
14 *884:74 *884:83 20.5356 
15 *884:83 *3112:C 41.7072 
16 *884:83 *884:106 48.2194 
17 *884:106 *884:110 22.266 
18 *884:110 *884:116 46.7774 
19 *884:116 *3124:C 20 
20 *884:110 *3116:C 20 
*END

*D_NET *885 0.0361207
*CONN
*I *3448:A I *D sg13g2_buf_1
*I *3079:C I *D sg13g2_nand4_1
*I *3083:C I *D sg13g2_nand4_1
*I *3103:C I *D sg13g2_nand4_1
*I *3091:C I *D sg13g2_nand4_1
*I *3095:C I *D sg13g2_nand4_1
*I *2945:B I *D sg13g2_nor3_1
*I *3140:C I *D sg13g2_nand4_1
*I *3449:X O *D sg13g2_buf_1
*CAP
1 *3448:A 0
2 *3079:C 0.000767541
3 *3083:C 0.000150674
4 *3103:C 0
5 *3091:C 0
6 *3095:C 0
7 *2945:B 0
8 *3140:C 0.000183327
9 *3449:X 3.78077e-05
10 *885:153 0.000519161
11 *885:119 0.00117852
12 *885:108 0.00113941
13 *885:100 0.00105647
14 *885:86 8.99887e-05
15 *885:80 0.000366184
16 *885:78 0.00128895
17 *885:70 0.00160712
18 *885:57 0.00119021
19 *885:51 0.0020868
20 *885:49 0.00131359
21 *885:47 0.0012362
22 *885:43 0.00175524
23 *885:24 0.000702374
24 *885:22 0.00116623
25 *885:10 0.00247345
26 *885:6 0.00186419
27 *3079:C *892:64 0.000765471
28 *885:10 *890:36 0.000819652
29 *885:10 *1023:18 0
30 *885:10 *1035:8 0.000552866
31 *885:22 *3213:RESET_B 0.000112651
32 *885:22 *890:91 0
33 *885:22 *1120:22 0
34 *885:43 *891:41 0
35 *885:47 *3279:RESET_B 0
36 *885:47 *892:64 0
37 *885:78 *898:12 0.000209637
38 *885:78 *898:23 0
39 *885:80 *909:38 0
40 *885:153 *3449:A 0.000112227
41 *885:153 *890:26 0
42 *2945:C *885:57 1.54008e-05
43 *2945:C *885:70 0.000287186
44 *2948:A2 *885:47 0
45 *2949:A *885:47 0.000176781
46 *2972:A2 *885:100 0
47 *2991:A2 *885:70 0
48 *3000:A *885:10 0.000714591
49 *3077:A *885:70 0
50 *3080:A2 *3079:C 0
51 *3081:B *3079:C 4.68099e-05
52 *3083:A *885:119 0.000531717
53 *3091:D *885:80 0.000112535
54 *3103:D *885:108 4.77425e-05
55 *3104:A2 *885:119 4.77863e-05
56 *3122:B *885:153 0
57 *3132:B *885:10 0
58 *3137:A1 *885:22 0.000144635
59 *3137:A2 *885:22 0
60 *3140:A *3140:C 0.000181145
61 *3140:A *885:43 7.48178e-05
62 *3141:A2 *3140:C 0
63 *3213:CLK *885:22 0
64 *348:10 *885:43 5.15366e-05
65 *350:10 *885:10 0.000182109
66 *351:10 *885:153 0
67 *360:34 *885:78 0
68 *362:16 *885:47 0
69 *362:32 *885:119 0.000346273
70 *386:10 *885:70 0.000342763
71 *546:8 *885:57 0
72 *546:110 *885:51 0
73 *546:110 *885:57 0
74 *547:8 *3079:C 0
75 *595:14 *885:47 0
76 *691:12 *885:10 0
77 *697:34 *885:70 0
78 *722:35 *885:57 0
79 *723:51 *885:47 0
80 *724:29 *885:47 0
81 *756:10 *885:78 8.01789e-05
82 *758:35 *885:108 0
83 *758:35 *885:119 0
84 *759:28 *3079:C 0
85 *759:42 *885:119 0.000722135
86 *766:49 *885:119 0
87 *778:29 *885:78 0
88 *790:38 *885:86 0.000125095
89 *803:38 *885:10 0.000708806
90 *803:53 *885:153 7.30101e-05
91 *805:54 *3140:C 0
92 *805:54 *885:22 8.01224e-05
93 *806:6 *3079:C 3.23417e-05
94 *806:16 *3079:C 8.00842e-05
95 *806:46 *3083:C 0
96 *806:66 *885:119 0
97 *807:68 *885:78 0
98 *807:68 *885:80 0
99 *808:46 *885:100 0
100 *819:37 *3079:C 0
101 *820:110 *885:119 7.36416e-05
102 *856:108 *885:47 0.000425733
103 *862:10 *885:10 0
104 *863:22 *885:10 0.00018216
105 *863:38 *885:22 0.00111721
106 *864:78 *3083:C 0.000208747
107 *865:72 *885:78 0
108 *865:72 *885:80 4.72458e-05
109 *865:78 *885:78 7.30101e-05
110 *865:78 *885:80 0.000403664
111 *865:84 *885:86 0.000228168
112 *865:96 *885:78 0.000154925
113 *873:39 *885:10 0
114 *879:8 *3079:C 0
115 *879:8 *885:51 0
116 *879:14 *885:57 0
117 *879:23 *885:100 0.00134154
118 *879:30 *885:100 0.000193417
119 *879:30 *885:108 4.77425e-05
120 *879:34 *885:108 7.51285e-05
121 *879:42 *885:80 0
122 *881:122 *3140:C 0.000112799
123 *881:122 *885:22 0
124 *883:61 *885:57 0
125 *884:12 *885:153 0.00044811
126 *884:33 *885:10 0.00103593
*RES
1 *3449:X *885:6 20.3193 
2 *885:6 *885:10 36.6654 
3 *885:10 *885:22 32.257 
4 *885:22 *885:24 20 
5 *885:24 *3140:C 42.0909 
6 *885:24 *885:43 46.1079 
7 *885:43 *885:47 31.9995 
8 *885:47 *885:49 20 
9 *885:49 *885:51 5.047 
10 *885:51 *885:57 25.4899 
11 *885:57 *2945:B 20 
12 *885:57 *885:70 46.5096 
13 *885:70 *885:78 49.1979 
14 *885:78 *885:80 2.9149 
15 *885:80 *885:86 41.0918 
16 *885:86 *3095:C 20 
17 *885:80 *3091:C 20 
18 *885:51 *885:100 30.2691 
19 *885:100 *885:108 41.133 
20 *885:108 *3103:C 20 
21 *885:108 *885:119 32.4424 
22 *885:119 *3083:C 41.4008 
23 *885:49 *3079:C 48.1679 
24 *885:6 *885:153 45.6856 
25 *885:153 *3448:A 20 
*END

*D_NET *886 0.0202488
*CONN
*I *3066:C I *D sg13g2_nand4_1
*I *3070:C I *D sg13g2_nand4_1
*I *3062:C I *D sg13g2_nand4_1
*I *3058:C I *D sg13g2_nand4_1
*I *3046:C I *D sg13g2_nand4_1
*I *3054:C I *D sg13g2_nand4_1
*I *2912:B I *D sg13g2_nor3_1
*I *3050:C I *D sg13g2_nand4_1
*I *3450:X O *D sg13g2_buf_1
*CAP
1 *3066:C 0
2 *3070:C 0.00038282
3 *3062:C 0
4 *3058:C 0
5 *3046:C 7.80619e-05
6 *3054:C 0.000138478
7 *2912:B 0
8 *3050:C 0
9 *3450:X 0.00011027
10 *886:112 0.00130438
11 *886:97 0.00147136
12 *886:76 0.00139991
13 *886:43 0.000299962
14 *886:35 0.00094171
15 *886:24 9.07139e-05
16 *886:16 0.000837651
17 *886:10 0.000387891
18 *886:8 0.00102654
19 *3046:C *3574:A 1.54556e-05
20 *3070:C *3070:D 0.00172452
21 *886:16 *3573:A 0.00014391
22 *886:16 *1027:14 0.000126131
23 *886:16 *1074:18 0.000208041
24 *886:24 *3573:A 0
25 *886:35 *3572:A 0.000240536
26 *886:35 *3573:A 0.000337693
27 *886:35 *1074:18 3.24351e-05
28 *886:97 *2724:A 0
29 *886:97 *3587:A 0
30 *886:97 *1104:10 0
31 *886:97 *1120:10 0.000284831
32 *886:112 *3070:D 0.00012816
33 *886:112 *3074:C 0.000501474
34 *886:112 *3074:D 6.84327e-05
35 *886:112 *1122:22 0.000469001
36 *2732:A *886:43 0.000130055
37 *2914:A *886:10 0
38 *2914:A *886:16 0
39 *2934:A *3070:C 0.00151289
40 *3044:B *886:43 0.000377483
41 *3046:D *3046:C 4.79124e-05
42 *3058:D *886:76 8.00842e-05
43 *3060:A *886:97 0
44 *3060:B *886:97 0
45 *3062:B *886:112 7.99579e-05
46 *3066:A *3070:C 0.000234224
47 *3383:A *886:97 4.78521e-05
48 *323:12 *886:76 0.00050698
49 *368:31 *886:76 0.000112332
50 *370:10 *886:35 0
51 *377:6 *886:112 0
52 *521:10 *886:43 1.54282e-05
53 *532:16 *886:16 7.63467e-05
54 *621:10 *3054:C 0
55 *623:10 *886:8 0.000143171
56 *635:10 *886:97 0.0003316
57 *641:8 *3070:C 0
58 *809:10 *886:76 0.000269143
59 *809:12 *886:10 0.00018112
60 *809:12 *886:16 0.000396486
61 *809:12 *886:76 0.000130162
62 *811:8 *886:97 0
63 *811:16 *886:76 0.00163511
64 *811:47 *886:97 7.9225e-05
65 *857:47 *886:43 0
66 *861:59 *886:43 0.00029161
67 *867:68 *886:24 0.000231903
68 *867:84 *886:35 7.9225e-05
69 *867:88 *3054:C 0.00017559
70 *867:88 *886:35 0.000240886
71 *873:66 *3054:C 0
72 *873:66 *886:35 0
73 *876:16 *3046:C 1.54556e-05
74 *876:68 *886:24 7.62389e-05
75 *877:19 *886:97 0
76 *877:19 *886:112 0
77 *877:23 *886:112 0
*RES
1 *3450:X *886:8 40.9682 
2 *886:8 *886:10 0.8446 
3 *886:10 *886:16 23.2342 
4 *886:16 *886:24 41.1639 
5 *886:24 *3050:C 20 
6 *886:16 *886:35 5.5929 
7 *886:35 *886:43 43.605 
8 *886:43 *2912:B 20 
9 *886:35 *3054:C 21.4008 
10 *886:10 *3046:C 40.8549 
11 *886:8 *886:76 31.8141 
12 *886:76 *3058:C 20 
13 *886:76 *886:97 45.9946 
14 *886:97 *3062:C 20 
15 *886:97 *886:112 29.1876 
16 *886:112 *3070:C 48.5078 
17 *886:112 *3066:C 40 
*END

*D_NET *887 0.0128813
*CONN
*I *3029:C I *D sg13g2_nand4_1
*I *3017:C I *D sg13g2_nand4_1
*I *3033:C I *D sg13g2_nand4_1
*I *3025:C I *D sg13g2_nand4_1
*I *3021:C I *D sg13g2_nand4_1
*I *3041:C I *D sg13g2_nand4_1
*I *3013:C I *D sg13g2_nand4_1
*I *2879:B I *D sg13g2_nor3_1
*I *3451:X O *D sg13g2_buf_1
*CAP
1 *3029:C 0.000176345
2 *3017:C 0.000278741
3 *3033:C 0
4 *3025:C 0
5 *3021:C 0
6 *3041:C 6.26516e-05
7 *3013:C 0.000130429
8 *2879:B 0.000249888
9 *3451:X 5.49922e-05
10 *887:92 0.00138838
11 *887:73 0.000101043
12 *887:67 0.000655284
13 *887:56 0.000766072
14 *887:48 0.000291565
15 *887:42 0.0015829
16 *887:21 0.000823333
17 *887:8 0.000490563
18 *2879:B *1135:32 0
19 *3029:C *3029:D 0.000144417
20 *887:8 *1135:32 0
21 *887:42 *2902:B1 0
22 *887:48 *1123:38 0
23 *887:67 *1123:34 0.000144838
24 *887:67 *1123:38 0
25 *887:73 *3022:B1 0
26 *887:92 *3029:D 0
27 *887:92 *1123:38 0
28 *887:92 *1143:48 0.000402801
29 *2879:C *2879:B 1.54008e-05
30 *2888:A2 *2879:B 0
31 *2903:B *3017:C 0
32 *3014:A2 *3013:C 1.51e-05
33 *3017:B *3017:C 0.000112426
34 *3025:B *887:73 0.000230832
35 *3029:B *3017:C 0.000323817
36 *3029:B *3029:C 0.000351062
37 *3041:B *887:42 0.000232421
38 *3041:A *887:56 0.000337302
39 *3221:CLK *2879:B 7.51285e-05
40 *373:24 *887:67 0.000792593
41 *374:35 *887:48 0
42 *379:28 *2879:B 0
43 *496:19 *2879:B 0
44 *596:101 *3013:C 0
45 *604:10 *887:67 0
46 *697:264 *887:92 0
47 *711:12 *887:42 0
48 *711:18 *2879:B 0
49 *766:55 *3017:C 0
50 *766:55 *3029:C 0
51 *824:12 *2879:B 0
52 *824:12 *887:56 0.000338219
53 *858:54 *887:8 4.70962e-05
54 *858:62 *887:21 0.00039332
55 *858:62 *887:42 0.000603966
56 *858:77 *887:42 0
57 *858:92 *887:8 3.24294e-05
58 *869:76 *887:42 0
59 *870:59 *3017:C 0.000288912
60 *874:19 *887:67 0
61 *874:19 *887:73 0
62 *875:31 *887:48 0
63 *875:45 *3013:C 1.27224e-05
64 *875:58 *887:48 7.91244e-05
65 *875:58 *887:92 0.000710981
66 *875:65 *3017:C 0.000144181
*RES
1 *3451:X *887:8 40.5356 
2 *887:8 *2879:B 42.3072 
3 *887:8 *887:21 2.0806 
4 *887:21 *3013:C 41.3956 
5 *887:21 *887:42 25.5414 
6 *887:42 *887:48 1.4214 
7 *887:48 *887:56 42.1218 
8 *887:56 *3041:C 20.5356 
9 *887:56 *887:67 6.077 
10 *887:67 *887:73 41.0918 
11 *887:73 *3021:C 20 
12 *887:67 *3025:C 20 
13 *887:48 *3033:C 20 
14 *887:42 *887:92 30.0528 
15 *887:92 *3017:C 43.7904 
16 *887:92 *3029:C 42.3072 
*END

*D_NET *888 0.0151387
*CONN
*I *3037:C I *D sg13g2_nand4_1
*I *3451:A I *D sg13g2_buf_1
*I *3107:C I *D sg13g2_nand4_1
*I *3087:C I *D sg13g2_nand4_1
*I *3099:C I *D sg13g2_nand4_1
*I *3452:X O *D sg13g2_buf_1
*CAP
1 *3037:C 0.000273455
2 *3451:A 6.09947e-05
3 *3107:C 0.000322737
4 *3087:C 4.37077e-05
5 *3099:C 0.00015941
6 *3452:X 0.000116958
7 *888:74 0.00124998
8 *888:61 0.00244374
9 *888:55 0.0017686
10 *888:34 0.000754444
11 *888:23 0.000253099
12 *888:6 0.000416425
13 *3037:C *3029:D 1.54556e-05
14 *3037:C *1123:38 0.000467503
15 *3037:C *1145:37 0
16 *3451:A *1134:27 0.000112227
17 *888:61 *1134:27 0.000370253
18 *3037:B *3037:C 0.000176383
19 *3037:B *888:74 0
20 *3089:B *3107:C 0
21 *3100:A2 *3099:C 0
22 *3100:A2 *888:6 0
23 *3348:A *3107:C 8.00842e-05
24 *3437:A *888:6 0
25 *373:24 *3037:C 0
26 *513:10 *888:74 0
27 *520:16 *888:74 0
28 *619:10 *3037:C 0
29 *711:12 *888:74 0
30 *711:64 *888:74 0
31 *736:32 *3099:C 0.000111596
32 *736:32 *888:6 0.000161861
33 *739:31 *888:55 0.0006617
34 *744:33 *3107:C 8.00842e-05
35 *745:12 *888:55 0.000662208
36 *754:16 *888:61 0
37 *766:49 *888:23 0.000388172
38 *766:49 *888:34 0.000282079
39 *766:49 *888:55 0.000229924
40 *812:59 *888:74 0
41 *822:54 *888:61 0
42 *858:92 *3451:A 0.00011254
43 *858:92 *888:61 0.000355521
44 *859:21 *888:61 0.0017827
45 *861:69 *888:61 0
46 *872:10 *3099:C 0
47 *872:27 *3087:C 4.77425e-05
48 *872:44 *3087:C 3.23417e-05
49 *872:44 *3107:C 0.000313088
50 *872:63 *888:61 0
51 *872:63 *888:74 0
52 *873:86 *888:23 0.000282359
53 *873:86 *888:34 0.000260054
54 *873:86 *888:55 0.00020916
55 *878:49 *3087:C 8.00842e-05
56 *878:49 *888:23 0
*RES
1 *3452:X *888:6 21.1845 
2 *888:6 *3099:C 21.6377 
3 *888:6 *888:23 22.1527 
4 *888:23 *3087:C 40.5356 
5 *888:23 *888:34 1.339 
6 *888:34 *3107:C 43.399 
7 *888:34 *888:55 45.3045 
8 *888:55 *888:61 35.9341 
9 *888:61 *3451:A 20.7519 
10 *888:61 *888:74 48.5078 
11 *888:74 *3037:C 23.1312 
*END

*D_NET *889 0.0436512
*CONN
*I *3452:A I *D sg13g2_buf_1
*I *3128:C I *D sg13g2_nand4_1
*I *3074:C I *D sg13g2_nand4_1
*I *3450:A I *D sg13g2_buf_1
*I *3449:A I *D sg13g2_buf_1
*I *3453:X O *D sg13g2_buf_1
*CAP
1 *3452:A 0.0013481
2 *3128:C 0.000994385
3 *3074:C 0.000631196
4 *3450:A 8.22286e-05
5 *3449:A 9.94469e-05
6 *3453:X 0.000993703
7 *889:97 0.00347137
8 *889:80 0.00402102
9 *889:76 0.0011546
10 *889:70 0.00124494
11 *889:56 0.00125756
12 *889:48 0.00123528
13 *889:35 0.000750347
14 *889:31 0.00311806
15 *889:16 0.000659989
16 *889:6 0.0036194
17 *3074:C *3074:D 1.54556e-05
18 *3074:C *895:67 0
19 *3074:C *895:77 0
20 *3128:C *898:33 0
21 *3450:A *3574:A 0.000144658
22 *3452:A *1121:14 0
23 *3452:A *1121:33 0.00150576
24 *3452:A *1121:52 0.000305772
25 *889:31 *3570:A 0
26 *889:31 *1060:18 0
27 *889:31 *1075:26 0.000502712
28 *889:31 *1092:8 0.000291508
29 *889:31 *1117:14 0.00191109
30 *889:31 *1118:12 0.00222978
31 *889:31 *1119:10 0.000493884
32 *889:35 *3574:A 6.34045e-05
33 *889:48 *1071:18 0.000183978
34 *889:56 *2711:A 0
35 *889:56 *2725:A 0.00024128
36 *889:56 *3585:A 0.000208403
37 *889:56 *1122:22 0.000183657
38 *889:76 *891:35 0
39 *889:76 *930:8 0
40 *2992:B *3128:C 0
41 *3002:A *889:70 0
42 *3002:B *889:70 0
43 *3128:B *3128:C 0.000112447
44 *3128:A *3128:C 0
45 *3247:CLK *889:97 0
46 *3438:A *3449:A 0
47 *3:22 *889:76 0
48 *298:12 *889:97 0
49 *312:10 *889:70 0
50 *314:10 *889:97 0
51 *354:24 *889:70 0.00131028
52 *355:12 *889:16 0.000288317
53 *355:20 *3449:A 4.75212e-05
54 *360:34 *889:70 0
55 *377:6 *3074:C 0
56 *378:8 *889:56 0
57 *493:28 *889:31 0
58 *580:22 *3128:C 0
59 *622:8 *889:48 0.000183828
60 *623:10 *3450:A 0.000112634
61 *623:10 *889:48 0.000230373
62 *671:14 *889:16 0
63 *671:14 *889:31 0
64 *682:10 *889:97 0
65 *683:8 *889:97 0
66 *687:10 *889:31 0
67 *708:82 *889:48 0
68 *722:35 *889:80 0
69 *736:32 *3452:A 0.00247661
70 *757:33 *889:80 0
71 *764:23 *889:31 0
72 *764:31 *889:31 0.00018387
73 *764:31 *889:48 0.00173014
74 *811:55 *3074:C 4.78685e-05
75 *817:68 *3128:C 0
76 *817:81 *3128:C 0
77 *817:81 *889:97 0
78 *820:72 *889:97 0
79 *856:73 *889:97 0
80 *856:108 *889:97 0
81 *856:126 *889:16 0
82 *856:126 *889:31 0.000290623
83 *865:18 *3128:C 0
84 *866:18 *889:31 0.00153117
85 *868:50 *889:56 0.000143457
86 *877:19 *889:56 0
87 *877:23 *889:56 0.000240531
88 *878:32 *3452:A 0
89 *880:85 *3128:C 0.000446767
90 *880:85 *889:97 0
91 *880:100 *3128:C 0
92 *881:28 *889:16 0.000290049
93 *881:122 *889:31 0
94 *883:23 *889:16 0.000408001
95 *885:153 *3449:A 0.000112227
96 *886:112 *3074:C 0.000501474
*RES
1 *3453:X *889:6 40 
2 *889:6 *889:16 46.1182 
3 *889:16 *3449:A 41.1021 
4 *889:6 *889:31 37.5023 
5 *889:31 *889:35 20.5356 
6 *889:35 *3450:A 20.9682 
7 *889:35 *889:48 48.0134 
8 *889:48 *889:56 46.2006 
9 *889:56 *3074:C 26.3757 
10 *3453:X *889:70 30.0528 
11 *889:70 *889:76 41.6782 
12 *889:76 *889:80 28.1061 
13 *889:80 *3128:C 48.9816 
14 *889:80 *889:97 41.4343 
15 *889:97 *3452:A 36.5418 
*END

*D_NET *890 0.0166766
*CONN
*I *2981:B1 I *D sg13g2_o21ai_1
*I *3137:B1 I *D sg13g2_o21ai_1
*I *2875:A I *D sg13g2_and2_1
*I *3005:B1 I *D sg13g2_o21ai_1
*I *3001:B1 I *D sg13g2_o21ai_1
*I *2989:B1 I *D sg13g2_o21ai_1
*I *3121:B1 I *D sg13g2_o21ai_1
*I *3133:B1 I *D sg13g2_o21ai_1
*I *3454:X O *D sg13g2_buf_1
*CAP
1 *2981:B1 4.44674e-05
2 *3137:B1 0
3 *2875:A 0.000357702
4 *3005:B1 5.54753e-05
5 *3001:B1 0.00032466
6 *2989:B1 0
7 *3121:B1 0
8 *3133:B1 0
9 *3454:X 0.000116947
10 *890:91 0.00126447
11 *890:72 0.00174801
12 *890:61 0.00182626
13 *890:50 0.00078488
14 *890:36 0.000427978
15 *890:26 0.00113449
16 *890:18 0.000858363
17 *890:14 0.00130205
18 *890:8 0.00138066
19 *890:8 *3113:B1 0
20 *890:14 *3113:B1 0
21 *890:14 *3329:RESET_B 0
22 *890:26 *3333:RESET_B 0.000274769
23 *890:36 *1012:18 0
24 *890:36 *1023:18 0.000610285
25 *2730:A *890:36 0
26 *2875:B *2875:A 0
27 *2981:A2 *2981:B1 8.0216e-05
28 *2989:A2 *890:26 0
29 *2989:A2 *890:61 1.54008e-05
30 *3001:A2 *3001:B1 1.54556e-05
31 *3002:B *3001:B1 0
32 *3005:A2 *3005:B1 1.54008e-05
33 *3120:A *890:26 0
34 *3120:D *890:26 4.79124e-05
35 *3121:A2 *890:26 0.000176601
36 *3121:A2 *890:36 1.54556e-05
37 *3122:A *890:26 0
38 *3122:B *890:26 3.24568e-05
39 *3122:B *890:36 1.54556e-05
40 *3134:B *890:36 1.54008e-05
41 *3137:A2 *2875:A 0.000305105
42 *3137:A2 *890:91 1.54556e-05
43 *3213:D *2875:A 1.54008e-05
44 *353:8 *890:36 0
45 *357:16 *890:91 7.61961e-05
46 *359:28 *3001:B1 0
47 *572:10 *890:8 0
48 *572:10 *890:14 0
49 *573:12 *890:8 0.000126354
50 *580:22 *2981:B1 0
51 *580:22 *890:14 0.0011822
52 *580:22 *890:61 0
53 *678:8 *890:18 0.000292275
54 *678:8 *890:50 0.000238126
55 *678:8 *890:61 0.000391979
56 *692:10 *2875:A 0.000272631
57 *717:12 *890:61 0
58 *803:20 *3001:B1 0
59 *803:38 *890:36 0
60 *803:53 *890:36 0
61 *816:18 *890:91 0
62 *820:27 *890:91 0
63 *866:10 *890:61 0
64 *881:122 *890:91 0
65 *884:47 *890:26 0
66 *884:60 *890:26 0
67 *885:10 *890:36 0.000819652
68 *885:22 *890:91 0
69 *885:153 *890:26 0
*RES
1 *3454:X *890:8 41.0918 
2 *890:8 *890:14 33.4936 
3 *890:14 *890:18 21.339 
4 *890:18 *890:26 27.6014 
5 *890:26 *890:36 46.1182 
6 *890:36 *3133:B1 20 
7 *890:26 *3121:B1 20 
8 *890:18 *890:50 21.0918 
9 *890:50 *2989:B1 20 
10 *890:50 *890:61 26.8186 
11 *890:61 *3001:B1 42.6986 
12 *890:61 *890:72 7.2718 
13 *890:72 *3005:B1 40.4476 
14 *890:72 *890:91 29.1258 
15 *890:91 *2875:A 23.9964 
16 *890:91 *3137:B1 20 
17 *890:8 *2981:B1 40.5356 
*END

*D_NET *891 0.0196654
*CONN
*I *3454:A I *D sg13g2_buf_1
*I *2943:B1 I *D sg13g2_o21ai_1
*I *2931:B1 I *D sg13g2_o21ai_1
*I *2915:B1 I *D sg13g2_o21ai_1
*I *3009:B1 I *D sg13g2_o21ai_1
*I *3141:B1 I *D sg13g2_o21ai_1
*I *3113:B1 I *D sg13g2_o21ai_1
*I *3455:X O *D sg13g2_buf_1
*CAP
1 *3454:A 0
2 *2943:B1 0
3 *2931:B1 0
4 *2915:B1 0
5 *3009:B1 2.01163e-05
6 *3141:B1 0.000107615
7 *3113:B1 0.000716175
8 *3455:X 0.000409428
9 *891:109 0.000304996
10 *891:87 0.000104082
11 *891:81 0.000839844
12 *891:71 0.00144492
13 *891:65 0.00230652
14 *891:52 0.00137685
15 *891:41 0.000530489
16 *891:35 0.00198355
17 *891:18 0.00231019
18 *891:14 0.0001608
19 *891:10 0.00047252
20 *891:81 *1060:18 7.31628e-05
21 *891:87 *1051:10 7.95863e-05
22 *2915:A2 *891:87 0.000176249
23 *2921:A2 *891:109 1.53311e-05
24 *2925:A2 *891:81 0.000112141
25 *2941:A2 *891:65 0
26 *3113:A1 *3113:B1 0
27 *3113:A2 *3113:B1 1.54008e-05
28 *3114:A *3113:B1 0
29 *3123:A2 *891:35 0
30 *3141:A2 *3141:B1 8.02105e-05
31 *3329:CLK *3113:B1 0
32 *293:8 *891:65 0
33 *296:8 *891:65 0
34 *356:18 *891:81 0.000420686
35 *356:22 *891:71 0.00101157
36 *356:22 *891:109 0.00020816
37 *521:27 *891:81 0
38 *521:53 *891:71 0.000497436
39 *521:60 *891:71 0.000625917
40 *521:60 *891:109 0.000192759
41 *521:64 *891:109 0
42 *530:10 *891:65 0
43 *535:12 *891:81 0.000328334
44 *539:8 *891:65 0.000124824
45 *544:14 *891:109 0.000526235
46 *545:8 *891:65 0
47 *572:10 *891:10 0
48 *573:12 *3113:B1 0
49 *580:22 *3113:B1 0
50 *580:22 *891:10 0
51 *595:14 *3009:B1 3.15716e-05
52 *695:14 *891:41 0.000212014
53 *724:8 *891:65 0
54 *737:27 *891:65 0
55 *739:31 *891:81 0.000352071
56 *803:81 *3113:B1 0
57 *803:81 *891:14 0
58 *803:98 *891:10 0.000371829
59 *803:98 *891:14 0
60 *805:60 *891:35 0.000392345
61 *805:60 *891:52 0.000157916
62 *805:60 *891:65 0.000105753
63 *809:31 *891:81 0
64 *809:46 *891:71 0
65 *816:85 *891:109 0
66 *862:108 *3113:B1 0
67 *862:108 *891:18 0.000176644
68 *880:34 *891:35 0
69 *880:40 *891:35 0
70 *880:51 *891:10 0
71 *880:51 *891:14 0.000112558
72 *880:51 *891:18 0.000176644
73 *881:122 *3141:B1 0
74 *884:106 *891:35 0
75 *885:43 *891:41 0
76 *889:76 *891:35 0
77 *890:8 *3113:B1 0
78 *890:14 *3113:B1 0
*RES
1 *3455:X *891:10 44.0067 
2 *891:10 *891:14 20.7519 
3 *891:14 *891:18 21.1845 
4 *891:18 *3113:B1 46.5726 
5 *891:18 *891:35 16.5315 
6 *891:35 *891:41 45.0779 
7 *891:41 *3141:B1 40.9682 
8 *891:35 *891:52 0.8446 
9 *891:52 *3009:B1 40.2112 
10 *891:52 *891:65 34.935 
11 *891:65 *891:71 8.3745 
12 *891:71 *891:81 47.7559 
13 *891:81 *891:87 41.1845 
14 *891:87 *2915:B1 20 
15 *891:71 *2931:B1 20 
16 *891:65 *891:109 44.5835 
17 *891:109 *2943:B1 20 
18 *891:14 *3454:A 20 
*END

*D_NET *892 0.0172004
*CONN
*I *2985:B1 I *D sg13g2_o21ai_1
*I *2997:B1 I *D sg13g2_o21ai_1
*I *3129:B1 I *D sg13g2_o21ai_1
*I *2968:B1 I *D sg13g2_o21ai_1
*I *2948:B1 I *D sg13g2_o21ai_1
*I *3125:B1 I *D sg13g2_o21ai_1
*I *2993:B1 I *D sg13g2_o21ai_1
*I *3117:B1 I *D sg13g2_o21ai_1
*I *3456:X O *D sg13g2_buf_1
*CAP
1 *2985:B1 0.000601781
2 *2997:B1 0
3 *3129:B1 0
4 *2968:B1 0.00058235
5 *2948:B1 0
6 *3125:B1 0.000438628
7 *2993:B1 0
8 *3117:B1 0.0004212
9 *3456:X 0.000277447
10 *892:93 0.000468694
11 *892:83 0.000492447
12 *892:81 0.000949127
13 *892:64 0.00118763
14 *892:51 0.00116474
15 *892:34 0.00124395
16 *892:23 0.000825047
17 *892:8 0.00120296
18 *892:6 0.000803608
19 *2968:B1 *3313:RESET_B 0
20 *3117:B1 *3115:B1 4.77425e-05
21 *3125:B1 *3335:RESET_B 0
22 *892:6 *898:23 0.000485211
23 *892:8 *898:23 8.00842e-05
24 *892:8 *1137:20 0
25 *892:23 *898:46 0
26 *892:34 *898:46 0
27 *892:51 *898:46 0.00129943
28 *892:93 *898:33 0
29 *2948:A2 *892:51 8.00842e-05
30 *2948:A2 *892:64 1.54008e-05
31 *2966:B1 *2968:B1 0
32 *2985:A2 *2985:B1 0.000274769
33 *2992:C *892:23 0
34 *2997:A2 *892:83 1.54008e-05
35 *2997:A2 *892:93 0.000144389
36 *3079:C *892:64 0.000765471
37 *3081:A *2968:B1 0
38 *3081:B *2968:B1 0
39 *3116:D *3117:B1 1.54008e-05
40 *3117:A2 *3117:B1 1.54008e-05
41 *3118:B *3117:B1 0
42 *3125:A2 *3125:B1 1.54556e-05
43 *3265:CLK *892:93 0
44 *3313:D *2968:B1 8.03692e-05
45 *3331:D *3117:B1 0.000241242
46 *3430:A *892:51 0
47 *3443:A *892:64 0
48 *3:30 *2968:B1 0
49 *360:34 *892:6 0.000273929
50 *360:34 *892:8 0
51 *362:22 *892:51 7.51285e-05
52 *546:120 *2968:B1 0
53 *571:43 *2985:B1 4.77425e-05
54 *571:54 *2985:B1 0.000226709
55 *586:10 *2985:B1 0.000259171
56 *586:10 *892:83 3.24568e-05
57 *586:10 *892:93 1.54285e-05
58 *646:20 *2968:B1 0
59 *646:20 *892:64 0
60 *671:102 *3117:B1 0
61 *675:10 *3117:B1 0.000241588
62 *675:10 *892:8 6.47875e-05
63 *675:10 *892:23 0
64 *684:8 *892:93 0
65 *707:49 *892:64 0
66 *720:25 *892:51 0
67 *721:28 *2985:B1 0
68 *723:51 *892:64 0
69 *756:10 *892:81 0
70 *758:25 *3125:B1 0
71 *758:25 *892:51 0
72 *806:37 *2968:B1 0
73 *807:8 *892:23 0
74 *807:8 *892:34 0
75 *807:23 *892:81 0.000496501
76 *807:27 *892:81 0.000229428
77 *807:37 *892:93 0.000713588
78 *807:51 *2985:B1 0
79 *817:81 *3125:B1 0
80 *818:28 *2985:B1 0
81 *818:62 *892:81 0
82 *818:62 *892:93 0
83 *819:18 *2968:B1 0
84 *820:82 *2968:B1 0
85 *855:42 *892:23 0
86 *856:73 *892:34 0
87 *866:52 *892:34 0.000288502
88 *866:52 *892:51 0
89 *879:8 *892:64 0
90 *885:47 *892:64 0
*RES
1 *3456:X *892:6 23.3475 
2 *892:6 *892:8 2.0497 
3 *892:8 *3117:B1 24.4496 
4 *892:8 *892:23 25.5414 
5 *892:23 *2993:B1 40 
6 *892:23 *892:34 23.3166 
7 *892:34 *3125:B1 23.9964 
8 *892:34 *892:51 47.9722 
9 *892:51 *2948:B1 20 
10 *892:51 *892:64 46.0152 
11 *892:64 *2968:B1 25.3778 
12 *892:6 *892:81 43.811 
13 *892:81 *892:83 0.3193 
14 *892:83 *892:93 45.7474 
15 *892:93 *3129:B1 20 
16 *892:83 *2997:B1 20 
17 *892:81 *2985:B1 26.3963 
*END

*D_NET *893 0.00280547
*CONN
*I *2755:B2 I *D sg13g2_a22oi_1
*I *3549:X O *D sg13g2_buf_1
*CAP
1 *2755:B2 0.00021586
2 *3549:X 0.000449491
3 *893:18 0.000442628
4 *893:8 0.00067626
5 *2755:B2 *1094:12 0.000177295
6 *893:8 *957:8 0.000345318
7 *893:18 *2787:B2 0
8 *893:18 *923:12 0
9 *893:18 *1094:12 0.000241498
10 *2755:A2 *2755:B2 4.77425e-05
11 *2787:B1 *893:18 0
12 *3542:A *2755:B2 0
13 *64:9 *893:18 0.000209374
14 *65:9 *893:8 0
15 *397:16 *893:8 0
16 *738:10 *893:8 0
17 *755:54 *2755:B2 0
18 *755:54 *893:18 0
19 *826:8 *2755:B2 0
*RES
1 *3549:X *893:8 44.5526 
2 *893:8 *893:18 42.5338 
3 *893:18 *2755:B2 42.2866 
*END

*D_NET *894 0.0140844
*CONN
*I *2935:B1 I *D sg13g2_o21ai_1
*I *3055:B1 I *D sg13g2_o21ai_1
*I *3051:B1 I *D sg13g2_o21ai_1
*I *3047:B1 I *D sg13g2_o21ai_1
*I *2927:B1 I *D sg13g2_o21ai_1
*I *2919:B1 I *D sg13g2_o21ai_1
*I *2939:B1 I *D sg13g2_o21ai_1
*I *2923:B1 I *D sg13g2_o21ai_1
*I *3457:X O *D sg13g2_buf_1
*CAP
1 *2935:B1 0
2 *3055:B1 0
3 *3051:B1 0
4 *3047:B1 0
5 *2927:B1 3.0747e-05
6 *2919:B1 0.000226182
7 *2939:B1 0.000602404
8 *2923:B1 0.000199051
9 *3457:X 0.000218675
10 *894:96 8.4168e-05
11 *894:79 0.000136811
12 *894:62 0.000884619
13 *894:56 0.00102608
14 *894:50 0.00122816
15 *894:40 0.00119475
16 *894:23 0.001142
17 *894:12 0.000828933
18 *894:8 0.00066509
19 *2919:B1 *1079:18 0
20 *2927:B1 *3567:A 0
21 *2927:B1 *1075:26 1.53311e-05
22 *894:8 *895:12 1.53457e-05
23 *894:50 *2715:A 0
24 *894:50 *3301:RESET_B 0
25 *894:50 *1037:8 0
26 *894:79 *1083:16 0.000218065
27 *894:79 *1088:14 0.000211993
28 *894:96 *1036:12 0.000231749
29 *2912:A *894:12 0
30 *2919:A2 *2919:B1 0.000175967
31 *2927:A1 *2927:B1 0
32 *2927:A2 *2927:B1 3.97982e-05
33 *2935:A2 *894:8 1.53311e-05
34 *2935:A2 *894:12 0.000207804
35 *2939:A2 *2939:B1 0
36 *3051:A2 *894:50 1.54008e-05
37 *3052:B *894:50 0
38 *3053:A1 *894:50 0.000144894
39 *3056:A *894:40 0
40 *3056:A *894:50 0
41 *3056:B *894:40 0.000209807
42 *356:10 *2919:B1 0.00038223
43 *356:10 *894:62 7.32394e-05
44 *365:22 *894:50 0
45 *369:10 *894:50 0
46 *628:8 *894:50 0
47 *629:14 *894:50 0
48 *708:82 *894:96 0.000230598
49 *739:14 *2919:B1 7.92265e-05
50 *809:12 *894:62 0.00136498
51 *809:14 *2919:B1 0.000279156
52 *809:14 *894:62 0.000103552
53 *809:20 *2919:B1 0.000124547
54 *809:54 *894:23 0
55 *821:74 *894:50 9.69533e-05
56 *857:62 *2939:B1 0.000241979
57 *857:62 *894:40 0
58 *861:59 *894:8 0
59 *861:59 *894:12 0
60 *867:102 *894:23 0
61 *867:102 *894:40 0
62 *868:10 *894:62 0.000238615
63 *868:29 *894:62 0.000377058
64 *873:51 *894:62 0.000183878
65 *873:66 *2939:B1 0
66 *873:80 *2939:B1 0
67 *876:14 *894:62 0
68 *877:40 *2939:B1 0
69 *877:42 *2939:B1 0
70 *877:50 *2939:B1 0.000339262
71 *883:100 *2939:B1 0
72 *883:100 *894:12 0
*RES
1 *3457:X *894:8 21.9673 
2 *894:8 *894:12 23.9964 
3 *894:12 *2923:B1 42.0806 
4 *894:12 *894:23 2.0806 
5 *894:23 *2939:B1 46.5096 
6 *894:23 *894:40 23.914 
7 *894:40 *894:50 46.5544 
8 *894:50 *894:56 43.9964 
9 *894:56 *894:62 27.9619 
10 *894:62 *2919:B1 43.0179 
11 *894:62 *894:79 41.4008 
12 *894:79 *2927:B1 40.3193 
13 *894:56 *894:96 41.442 
14 *894:96 *3047:B1 20 
15 *894:50 *3051:B1 20 
16 *894:40 *3055:B1 20 
17 *894:8 *2935:B1 20 
*END

*D_NET *895 0.0178052
*CONN
*I *3067:B1 I *D sg13g2_o21ai_1
*I *3063:B1 I *D sg13g2_o21ai_1
*I *2878:C I *D sg13g2_and3_1
*I *3144:B I *D sg13g2_nand3_1
*I *3059:B1 I *D sg13g2_o21ai_1
*I *3075:B1 I *D sg13g2_o21ai_1
*I *3071:B1 I *D sg13g2_o21ai_1
*I *3457:A I *D sg13g2_buf_1
*I *3458:X O *D sg13g2_buf_1
*CAP
1 *3067:B1 0
2 *3063:B1 0
3 *2878:C 3.30256e-05
4 *3144:B 0.000456998
5 *3059:B1 2.96211e-05
6 *3075:B1 3.34444e-05
7 *3071:B1 2.41961e-05
8 *3457:A 0
9 *3458:X 0
10 *895:100 0.00124231
11 *895:81 0.000942946
12 *895:77 0.000831146
13 *895:67 0.00156702
14 *895:57 0.00102631
15 *895:42 0.000321874
16 *895:38 0.00136705
17 *895:23 0.00149496
18 *895:12 9.06121e-05
19 *895:4 0.000353358
20 *2878:C *2878:A 4.78359e-05
21 *3075:B1 *3075:A2 4.77425e-05
22 *3144:B *1025:12 0
23 *3144:B *1107:8 0.000341009
24 *3144:B *1124:14 0.000264029
25 *895:38 *1133:27 0
26 *895:38 *1141:8 0
27 *895:77 *1121:10 7.48517e-05
28 *895:77 *1122:14 7.30101e-05
29 *895:81 *1106:14 0.000446795
30 *895:100 *1034:37 7.30101e-05
31 *895:100 *1048:16 0
32 *895:100 *1106:14 0.000946961
33 *895:100 *1107:8 0
34 *2878:B *3144:B 0
35 *2878:B *895:100 1.57249e-05
36 *2935:A1 *895:12 7.99451e-05
37 *2935:A1 *895:23 7.99451e-05
38 *3058:D *895:81 2.24232e-05
39 *3059:A2 *3059:B1 4.77425e-05
40 *3067:A2 *895:67 8.00842e-05
41 *3069:A1 *895:38 0
42 *3071:A1 *895:23 0.000212543
43 *3074:C *895:67 0
44 *3074:C *895:77 0
45 *3144:C *3144:B 0.000257659
46 *3473:A *3144:B 0
47 *328:10 *895:38 0.000230685
48 *373:24 *895:67 0
49 *374:18 *895:67 0
50 *377:6 *895:67 0
51 *544:14 *895:12 0.000127838
52 *544:14 *895:23 0.00108614
53 *544:14 *895:38 0.00149021
54 *621:100 *895:38 0
55 *634:8 *895:67 0.000182525
56 *636:10 *895:67 0.000339294
57 *636:10 *895:77 1.54008e-05
58 *637:8 *895:38 0
59 *638:8 *895:42 0
60 *638:8 *895:67 0
61 *639:10 *895:42 0
62 *639:10 *895:57 0
63 *640:8 *895:23 0
64 *640:8 *895:38 0
65 *645:8 *895:57 0.000234224
66 *714:39 *3144:B 0
67 *810:10 *895:23 0.00032018
68 *810:12 *895:23 0.000446855
69 *811:16 *895:81 0
70 *811:70 *895:42 0
71 *811:70 *895:57 0
72 *811:92 *895:38 0
73 *825:32 *895:67 0
74 *825:38 *895:38 0.000310259
75 *861:59 *895:12 0
76 *883:100 *895:23 8.00842e-05
77 *894:8 *895:12 1.53457e-05
*RES
1 *3458:X *895:4 20 
2 *895:4 *895:12 41.133 
3 *895:12 *3457:A 20 
4 *895:4 *895:23 25.5826 
5 *895:23 *3071:B1 40.3193 
6 *895:23 *895:38 35.038 
7 *895:38 *895:42 21.0918 
8 *895:42 *3075:B1 40.3193 
9 *895:42 *895:57 21.6583 
10 *895:57 *895:67 48.9878 
11 *895:67 *895:77 46.3963 
12 *895:77 *895:81 22.0806 
13 *895:81 *3059:B1 40.3193 
14 *895:81 *895:100 8.1164 
15 *895:100 *3144:B 45.7371 
16 *895:100 *2878:C 40.3193 
17 *895:67 *3063:B1 20 
18 *895:57 *3067:B1 20 
*END

*D_NET *896 0.0144982
*CONN
*I *2906:B1 I *D sg13g2_o21ai_1
*I *2902:B1 I *D sg13g2_o21ai_1
*I *2910:B1 I *D sg13g2_o21ai_1
*I *3022:B1 I *D sg13g2_o21ai_1
*I *2894:B1 I *D sg13g2_o21ai_1
*I *2890:B1 I *D sg13g2_o21ai_1
*I *3014:B1 I *D sg13g2_o21ai_1
*I *2882:B1 I *D sg13g2_o21ai_1
*I *3459:X O *D sg13g2_buf_1
*CAP
1 *2906:B1 0.000381482
2 *2902:B1 0.00048247
3 *2910:B1 8.26523e-05
4 *3022:B1 0.000609042
5 *2894:B1 6.56425e-05
6 *2890:B1 0.000368499
7 *3014:B1 5.37171e-05
8 *2882:B1 3.71636e-05
9 *3459:X 0.000760955
10 *896:70 0.000743976
11 *896:57 0.00099448
12 *896:53 0.000639341
13 *896:51 0.00057544
14 *896:40 0.000300112
15 *896:34 0.000534907
16 *896:32 0.00056224
17 *896:10 0.000235878
18 *2882:B1 *898:86 0
19 *2906:B1 *1134:27 0
20 *2882:A1 *2882:B1 0
21 *2890:A1 *2890:B1 0.000340288
22 *2890:A1 *896:70 0.000181192
23 *2890:A2 *2890:B1 8.03692e-05
24 *2894:A1 *2894:B1 0
25 *2906:A2 *2906:B1 0.000144946
26 *2910:A2 *2910:B1 8.00842e-05
27 *2910:A2 *896:57 0
28 *3014:A1 *2902:B1 0.000179542
29 *3014:A2 *3014:B1 8.00842e-05
30 *3025:B *3022:B1 0
31 *3362:A *2902:B1 0
32 *376:18 *3022:B1 0
33 *378:14 *896:57 0.000856254
34 *379:22 *2890:B1 0.000112557
35 *496:27 *896:10 0
36 *498:10 *896:10 0.00018128
37 *517:10 *2906:B1 1.54556e-05
38 *520:8 *2910:B1 1.54008e-05
39 *520:16 *896:32 0.00129777
40 *599:10 *2906:B1 0
41 *599:10 *3014:B1 1.54008e-05
42 *697:240 *2902:B1 0
43 *710:21 *896:32 0.00023464
44 *711:12 *2902:B1 0
45 *711:18 *896:40 0.000181192
46 *711:18 *896:51 0.000181192
47 *743:21 *896:10 0
48 *812:10 *3022:B1 0.000106392
49 *812:12 *3022:B1 0.000266492
50 *812:14 *3022:B1 0.00110913
51 *812:16 *3022:B1 0.000128527
52 *812:16 *896:70 5.30319e-05
53 *812:59 *2902:B1 0
54 *822:20 *896:32 0.000340791
55 *858:62 *2902:B1 0
56 *858:62 *896:40 0.000182508
57 *858:62 *896:51 0.000318925
58 *869:56 *896:57 0.000209419
59 *872:63 *896:32 0
60 *873:80 *2882:B1 0
61 *873:80 *896:10 0.000177295
62 *874:19 *3022:B1 0
63 *874:21 *3022:B1 0
64 *874:21 *896:70 0
65 *887:42 *2902:B1 0
66 *887:73 *3022:B1 0
*RES
1 *3459:X *896:10 42.2763 
2 *896:10 *2882:B1 40.3193 
3 *3459:X *896:32 47.9413 
4 *896:32 *896:34 20 
5 *896:34 *896:40 21.8128 
6 *896:40 *3014:B1 40.5356 
7 *896:40 *896:51 1.5862 
8 *896:51 *896:53 20 
9 *896:53 *896:57 25.7268 
10 *896:57 *2890:B1 43.914 
11 *896:57 *896:70 1.0918 
12 *896:70 *2894:B1 40.5356 
13 *896:70 *3022:B1 48.0546 
14 *896:53 *2910:B1 20.8858 
15 *896:51 *2902:B1 44.738 
16 *896:34 *2906:B1 23.5638 
*END

*D_NET *897 0.00425679
*CONN
*I *3038:B1 I *D sg13g2_o21ai_1
*I *3042:B1 I *D sg13g2_o21ai_1
*I *3034:B1 I *D sg13g2_o21ai_1
*I *3026:B1 I *D sg13g2_o21ai_1
*I *3460:X O *D sg13g2_buf_1
*CAP
1 *3038:B1 8.2395e-05
2 *3042:B1 0
3 *3034:B1 0.00013225
4 *3026:B1 0.000711579
5 *3460:X 0.000111484
6 *897:20 0.00110041
7 *897:16 0.000615428
8 *897:10 0.000441247
9 *897:8 0.000111484
10 *3026:B1 *1145:37 0.000468699
11 *3026:A2 *3026:B1 1.54008e-05
12 *3034:A1 *897:20 4.77425e-05
13 *3034:A2 *3034:B1 4.77425e-05
14 *3043:A *897:16 0
15 *3043:B *897:16 0
16 *3386:A *3026:B1 0
17 *373:24 *3026:B1 0
18 *596:37 *897:16 0
19 *613:8 *3026:B1 0
20 *613:8 *3034:B1 0
21 *616:10 *897:8 0
22 *711:64 *3026:B1 0
23 *711:64 *3034:B1 0
24 *813:16 *3026:B1 0
25 *813:27 *3026:B1 0
26 *813:27 *897:20 0
27 *813:38 *3038:B1 0
28 *813:38 *897:16 0.000370934
29 *823:33 *897:16 0
30 *823:33 *897:20 0
31 *823:52 *897:8 0
32 *823:63 *3038:B1 0
33 *823:63 *897:16 0
34 *823:69 *897:8 0
*RES
1 *3460:X *897:8 41.0918 
2 *897:8 *897:10 20 
3 *897:10 *897:16 3.8007 
4 *897:16 *897:20 22.4823 
5 *897:20 *3026:B1 46.8495 
6 *897:20 *3034:B1 41.1639 
7 *897:16 *3042:B1 20 
8 *897:10 *3038:B1 20.7519 
*END

*D_NET *898 0.0286925
*CONN
*I *3460:A I *D sg13g2_buf_1
*I *3459:A I *D sg13g2_buf_1
*I *3458:A I *D sg13g2_buf_1
*I *3080:B1 I *D sg13g2_o21ai_1
*I *3455:A I *D sg13g2_buf_1
*I *3456:A I *D sg13g2_buf_1
*I *3461:X O *D sg13g2_buf_1
*CAP
1 *3460:A 6.87217e-05
2 *3459:A 0
3 *3458:A 0.000680971
4 *3080:B1 2.90123e-05
5 *3455:A 0
6 *3456:A 0
7 *3461:X 0.000251014
8 *898:97 0.00203396
9 *898:86 0.00257259
10 *898:67 0.00108566
11 *898:59 0.00226753
12 *898:46 0.00283392
13 *898:33 0.000969994
14 *898:23 0.00295201
15 *898:12 0.000559763
16 *898:8 0.000378172
17 *3460:A *1145:37 0.000112436
18 *3460:A *1148:37 0
19 *898:23 *1137:20 0.000371608
20 *898:46 *3444:A 0
21 *898:59 *3444:A 0.000764907
22 *898:59 *1121:33 0.000265108
23 *898:97 *1011:8 0
24 *898:97 *1143:8 0.000927744
25 *2880:A1 *898:86 0
26 *2882:B1 *898:86 0
27 *2882:A1 *898:86 0
28 *2895:A *898:67 0
29 *2940:A *3458:A 8.0216e-05
30 *2940:B *3458:A 0
31 *2996:B *898:33 4.76053e-05
32 *2996:C *898:33 0
33 *2997:A2 *898:33 0.000306336
34 *3079:A *898:46 0
35 *3080:A2 *3080:B1 4.77425e-05
36 *3081:B *3080:B1 1.54008e-05
37 *3128:B *898:33 0
38 *3128:C *898:33 0
39 *3281:CLK *898:97 0
40 *3378:A *898:46 0
41 *3379:A *898:46 0
42 *283:8 *898:59 0
43 *286:8 *898:59 0
44 *290:10 *898:97 0
45 *315:12 *898:97 0.000715721
46 *360:34 *898:12 0
47 *362:22 *898:46 0.00039075
48 *496:50 *898:67 0
49 *496:50 *898:86 0.00017735
50 *499:8 *898:59 0
51 *508:10 *898:59 0
52 *508:10 *898:67 0
53 *515:8 *898:97 0.000288379
54 *517:10 *898:97 0.000554272
55 *520:16 *898:86 1.54008e-05
56 *520:16 *898:97 0
57 *549:8 *898:46 0.000288588
58 *571:70 *898:8 0
59 *580:22 *898:33 0
60 *616:10 *898:97 0
61 *671:117 *898:33 0
62 *675:10 *898:46 0
63 *685:10 *898:33 0
64 *697:180 *898:97 0
65 *697:216 *898:97 0
66 *697:234 *898:97 0
67 *710:49 *898:97 0
68 *710:60 *898:97 0
69 *721:10 *898:33 0.000176504
70 *748:8 *898:59 0
71 *756:10 *898:23 0
72 *778:29 *898:97 0
73 *806:16 *898:46 0.000710211
74 *807:23 *898:33 0.000422884
75 *807:23 *898:46 0.00113642
76 *807:27 *898:33 0.000230844
77 *807:68 *898:8 0
78 *808:31 *898:46 0
79 *818:62 *898:33 0
80 *823:52 *898:97 0
81 *864:19 *898:46 0
82 *864:34 *898:46 0
83 *864:34 *898:59 0
84 *873:80 *898:67 0
85 *873:80 *898:86 0
86 *873:80 *898:97 0.000757358
87 *879:14 *898:46 0
88 *880:51 *898:33 4.79124e-05
89 *880:94 *898:33 0
90 *883:100 *3458:A 0.00108311
91 *883:100 *898:67 0
92 *885:78 *898:12 0.000209637
93 *885:78 *898:23 0
94 *892:6 *898:23 0.000485211
95 *892:8 *898:23 8.00842e-05
96 *892:23 *898:46 0
97 *892:34 *898:46 0
98 *892:51 *898:46 0.00129943
99 *892:93 *898:33 0
*RES
1 *3461:X *898:8 42.0806 
2 *898:8 *898:12 21.4008 
3 *898:12 *3456:A 20 
4 *898:12 *898:23 24.7792 
5 *898:23 *898:33 30.4854 
6 *898:33 *3455:A 20 
7 *898:23 *898:46 20.1262 
8 *898:46 *3080:B1 40.3193 
9 *898:46 *898:59 34.4406 
10 *898:59 *898:67 43.6359 
11 *898:67 *3458:A 27.6735 
12 *898:59 *898:86 6.18 
13 *898:86 *3459:A 20 
14 *898:86 *898:97 42.4849 
15 *898:97 *3460:A 40.7519 
*END

*D_NET *899 0.0128485
*CONN
*I *2788:B1 I *D sg13g2_o21ai_1
*I *2764:B1 I *D sg13g2_o21ai_1
*I *2960:B1 I *D sg13g2_o21ai_1
*I *3096:B1 I *D sg13g2_o21ai_1
*I *3092:B1 I *D sg13g2_o21ai_1
*I *3104:B1 I *D sg13g2_o21ai_1
*I *2972:B1 I *D sg13g2_o21ai_1
*I *2964:B1 I *D sg13g2_o21ai_1
*I *3462:X O *D sg13g2_buf_1
*CAP
1 *2788:B1 0
2 *2764:B1 0
3 *2960:B1 2.90123e-05
4 *3096:B1 3.08156e-05
5 *3092:B1 0.000287118
6 *3104:B1 0.000378393
7 *2972:B1 0.000191689
8 *2964:B1 0.000273921
9 *3462:X 0
10 *899:119 0.000243296
11 *899:75 0.00079891
12 *899:73 0.000710347
13 *899:43 0.00115434
14 *899:28 0.00109969
15 *899:24 0.000674917
16 *899:22 0.000985832
17 *899:14 0.00141021
18 *899:4 0.000900722
19 *2964:B1 *1137:50 0
20 *3104:B1 *3261:RESET_B 0
21 *2762:B1 *899:14 0
22 *2788:A2 *899:119 5.45687e-05
23 *2958:B1 *899:22 4.70962e-05
24 *2960:A2 *2960:B1 1.54008e-05
25 *2961:B *2960:B1 4.77425e-05
26 *2964:A1 *2964:B1 0.000130061
27 *2964:A2 *2964:B1 0.000144417
28 *2972:A2 *2972:B1 1.54008e-05
29 *3092:A1 *3092:B1 0
30 *3096:A2 *3096:B1 1.54282e-05
31 *3104:A2 *3104:B1 8.00842e-05
32 *3105:B *3104:B1 1.54008e-05
33 *3157:CLK *899:14 0
34 *3157:CLK *899:22 0
35 *556:8 *899:22 0
36 *556:8 *899:73 0
37 *657:10 *899:75 0
38 *661:10 *3092:B1 0
39 *661:10 *3096:B1 4.77699e-05
40 *712:16 *899:22 0
41 *712:53 *899:22 0.000597347
42 *712:61 *899:22 0
43 *722:45 *899:22 0
44 *722:47 *899:22 0
45 *757:53 *899:119 0
46 *758:57 *3104:B1 4.77425e-05
47 *766:37 *899:14 8.54744e-05
48 *766:37 *899:22 0
49 *766:37 *899:119 6.40949e-05
50 *766:45 *899:22 0
51 *768:10 *899:14 0.000436636
52 *768:32 *899:14 0.000145052
53 *790:38 *2964:B1 0
54 *790:38 *899:43 0
55 *795:26 *899:73 0.000589373
56 *795:26 *899:75 0.000288752
57 *806:66 *2972:B1 1.54285e-05
58 *806:66 *3104:B1 0
59 *807:84 *899:75 0
60 *808:46 *2972:B1 0
61 *808:46 *3104:B1 0
62 *833:14 *899:14 1.54556e-05
63 *833:14 *899:22 8.03692e-05
64 *833:25 *899:14 0
65 *833:25 *899:119 0.000287363
66 *833:29 *899:119 7.34121e-05
67 *839:29 *899:119 0.000339413
*RES
1 *3462:X *899:4 20 
2 *899:4 *899:14 6.66575 
3 *899:14 *899:22 47.622 
4 *899:22 *899:24 2.9149 
5 *899:24 *899:28 22.9149 
6 *899:28 *2964:B1 42.8016 
7 *899:28 *899:43 25.5414 
8 *899:43 *2972:B1 21.854 
9 *899:43 *3104:B1 24.0994 
10 *899:24 *899:73 22.8222 
11 *899:73 *899:75 4.3054 
12 *899:75 *3092:B1 42.8943 
13 *899:75 *3096:B1 40.3193 
14 *899:73 *2960:B1 40.3193 
15 *899:14 *2764:B1 20 
16 *899:4 *899:119 43.09 
17 *899:119 *2788:B1 20 
*END

*D_NET *900 0.00681044
*CONN
*I *3108:B1 I *D sg13g2_o21ai_1
*I *3100:B1 I *D sg13g2_o21ai_1
*I *3084:B1 I *D sg13g2_o21ai_1
*I *2976:B1 I *D sg13g2_o21ai_1
*I *2956:B1 I *D sg13g2_o21ai_1
*I *2952:B1 I *D sg13g2_o21ai_1
*I *3463:X O *D sg13g2_buf_1
*CAP
1 *3108:B1 0.000409097
2 *3100:B1 0.000171497
3 *3084:B1 4.90447e-05
4 *2976:B1 6.18885e-05
5 *2956:B1 0
6 *2952:B1 0
7 *3463:X 0
8 *900:52 0.000821754
9 *900:41 0.000413911
10 *900:30 0.00022338
11 *900:18 5.47651e-05
12 *900:12 0.000197238
13 *900:6 0.000180258
14 *2956:A2 *900:12 8.00842e-05
15 *2977:B *2976:B1 1.54008e-05
16 *3084:A1 *900:41 0.000345425
17 *3084:A2 *3084:B1 8.00842e-05
18 *3085:B *3084:B1 1.54008e-05
19 *3100:A2 *3100:B1 1.54008e-05
20 *3101:B *3100:B1 0
21 *3108:A2 *3108:B1 0.000369297
22 *555:12 *900:12 1.54008e-05
23 *646:94 *3108:B1 0
24 *794:41 *3108:B1 0
25 *794:41 *900:41 0
26 *794:41 *900:52 0
27 *795:28 *900:18 0.000291458
28 *796:34 *3108:B1 0.000443136
29 *796:34 *900:12 0.000342032
30 *796:34 *900:18 0.000291566
31 *796:34 *900:30 0.000181903
32 *796:34 *900:41 0.000560213
33 *796:34 *900:52 0.000658454
34 *806:48 *900:12 0.000234401
35 *806:48 *900:30 0.00010444
36 *806:91 *900:30 7.57253e-05
37 *806:91 *900:41 0.000107782
38 *814:75 *3100:B1 0
*RES
1 *3463:X *900:6 40 
2 *900:6 *900:12 22.1218 
3 *900:12 *900:18 41.339 
4 *900:18 *2952:B1 20 
5 *900:12 *2956:B1 20 
6 *900:6 *900:30 0.8446 
7 *900:30 *2976:B1 40.5356 
8 *900:30 *900:41 2.575 
9 *900:41 *3084:B1 40.5356 
10 *900:41 *900:52 3.0694 
11 *900:52 *3100:B1 41.4008 
12 *900:52 *3108:B1 44.7792 
*END

*D_NET *901 0.0173544
*CONN
*I *2748:B1 I *D sg13g2_o21ai_1
*I *2756:B1 I *D sg13g2_o21ai_1
*I *2772:B1 I *D sg13g2_o21ai_1
*I *2768:B1 I *D sg13g2_o21ai_1
*I *2792:B1 I *D sg13g2_o21ai_1
*I *2744:B1 I *D sg13g2_o21ai_1
*I *2752:B1 I *D sg13g2_o21ai_1
*I *2760:B1 I *D sg13g2_o21ai_1
*I *3464:X O *D sg13g2_buf_1
*CAP
1 *2748:B1 0
2 *2756:B1 0
3 *2772:B1 0
4 *2768:B1 0
5 *2792:B1 0.000710948
6 *2744:B1 0
7 *2752:B1 3.74197e-06
8 *2760:B1 0.000833328
9 *3464:X 3.02645e-05
10 *901:121 0.000472816
11 *901:101 0.000562019
12 *901:86 0.000481912
13 *901:78 0.00122262
14 *901:65 0.00136778
15 *901:57 0.0011729
16 *901:49 0.0011946
17 *901:42 0.000210625
18 *901:14 0.00105257
19 *901:6 0.000429363
20 *901:65 *909:49 0
21 *901:65 *963:8 0.00039332
22 *901:65 *1045:20 0.000175513
23 *901:65 *1116:8 0
24 *901:65 *1116:12 0
25 *901:121 *909:10 4.78134e-05
26 *2743:A2 *901:121 0.000111324
27 *2744:A1 *901:6 0
28 *2744:A1 *901:42 8.0216e-05
29 *2744:A2 *901:42 7.31538e-06
30 *2744:A2 *901:49 3.96571e-05
31 *2744:A2 *901:121 7.9947e-05
32 *2748:A2 *901:121 4.77534e-05
33 *2752:A1 *901:14 3.35737e-05
34 *2756:A2 *901:57 4.77425e-05
35 *2756:A2 *901:65 1.54008e-05
36 *2758:A1 *2760:B1 0
37 *2761:A1 *2760:B1 0
38 *2791:A2 *901:65 0.00014339
39 *2792:A1 *2792:B1 0
40 *392:26 *901:86 0.000393406
41 *394:10 *901:121 0
42 *396:10 *901:121 7.93426e-05
43 *405:8 *901:57 0.000181608
44 *407:28 *2760:B1 0
45 *412:12 *901:86 0
46 *414:8 *901:86 0
47 *432:10 *2792:B1 0.000177257
48 *437:14 *2792:B1 0
49 *437:14 *901:101 0
50 *460:16 *901:86 0
51 *716:18 *901:78 7.96777e-05
52 *716:18 *901:101 0.000144899
53 *717:32 *901:57 0
54 *717:32 *901:86 0.00145894
55 *720:43 *901:65 0.000181192
56 *728:42 *901:101 0
57 *728:42 *901:121 0.000231077
58 *752:34 *901:14 0
59 *752:34 *901:42 0
60 *752:44 *901:121 0
61 *757:53 *901:57 0.000287256
62 *758:57 *2792:B1 0
63 *758:67 *901:78 6.99095e-05
64 *758:67 *901:101 0.000581879
65 *790:26 *2760:B1 0.000209035
66 *795:14 *2760:B1 0
67 *795:26 *2760:B1 0
68 *833:58 *2752:B1 3.23361e-05
69 *833:58 *2760:B1 0.00080095
70 *833:75 *901:14 0
71 *833:75 *901:42 0
72 *833:75 *901:49 0
73 *833:75 *901:121 0
74 *833:94 *901:57 0
75 *833:111 *901:57 0
76 *833:130 *901:101 0.0004397
77 *834:73 *901:86 8.01447e-05
78 *839:67 *2760:B1 0.000728285
79 *839:78 *901:121 0
80 *839:93 *901:121 0.000229017
81 *840:40 *901:86 0
82 *845:16 *901:101 0
*RES
1 *3464:X *901:6 20.3502 
2 *901:6 *901:14 41.5965 
3 *901:14 *2760:B1 29.5018 
4 *901:14 *2752:B1 20.1571 
5 *901:6 *901:42 1.6171 
6 *901:42 *2744:B1 20 
7 *901:42 *901:49 0.3193 
8 *901:49 *901:57 46.1079 
9 *901:57 *901:65 44.9337 
10 *901:65 *2792:B1 26.3757 
11 *901:65 *901:78 1.6377 
12 *901:78 *901:86 47.313 
13 *901:86 *2768:B1 20 
14 *901:78 *901:101 46.3654 
15 *901:101 *2772:B1 20 
16 *901:57 *2756:B1 20 
17 *901:49 *901:121 44.9749 
18 *901:121 *2748:B1 20 
*END

*D_NET *902 0.0138344
*CONN
*I *2780:B1 I *D sg13g2_o21ai_1
*I *2796:B1 I *D sg13g2_o21ai_1
*I *2776:B1 I *D sg13g2_o21ai_1
*I *2800:B1 I *D sg13g2_o21ai_1
*I *3465:X O *D sg13g2_buf_1
*CAP
1 *2780:B1 0.000303359
2 *2796:B1 0
3 *2776:B1 0.000358251
4 *2800:B1 8.56391e-05
5 *3465:X 3.56256e-05
6 *902:40 0.00141964
7 *902:36 0.00177847
8 *902:25 0.000550914
9 *902:14 0.000491225
10 *902:8 0.000304017
11 *2776:B1 *903:48 0.000533279
12 *902:8 *903:48 0.000181192
13 *902:40 *903:48 0
14 *2774:A1 *902:40 0.0002096
15 *2774:B1 *902:40 0
16 *2776:A2 *2776:B1 1.54556e-05
17 *2776:A2 *902:40 0
18 *2777:A1 *2776:B1 0
19 *2797:B1 *902:40 1.54556e-05
20 *2800:A1 *2800:B1 0.000287256
21 *2800:A1 *902:25 0.000425033
22 *418:10 *902:40 0.000339
23 *721:71 *902:8 0.000181192
24 *722:58 *2780:B1 0.00156114
25 *722:58 *2800:B1 0.00039332
26 *722:58 *902:25 0.000710969
27 *722:58 *902:36 0.000286284
28 *723:63 *902:14 0.000500937
29 *729:35 *902:40 0
30 *731:42 *902:40 0
31 *759:54 *902:14 0.000500937
32 *762:35 *902:40 0
33 *769:31 *2800:B1 0
34 *772:8 *2776:B1 0
35 *772:27 *2780:B1 0.00153968
36 *772:27 *902:25 0.000287196
37 *772:27 *902:36 0.000265312
38 *834:81 *902:40 0.000273962
39 *840:14 *902:40 0
*RES
1 *3465:X *902:8 40.8446 
2 *902:8 *902:14 43.3475 
3 *902:14 *2800:B1 41.8334 
4 *902:14 *902:25 3.3166 
5 *902:25 *2776:B1 43.9964 
6 *902:25 *902:36 1.339 
7 *902:36 *902:40 33.5136 
8 *902:40 *2796:B1 20 
9 *902:36 *2780:B1 47.2718 
*END

*D_NET *903 0.0137744
*CONN
*I *3464:A I *D sg13g2_buf_1
*I *3463:A I *D sg13g2_buf_1
*I *3465:A I *D sg13g2_buf_1
*I *3462:A I *D sg13g2_buf_1
*I *3466:X O *D sg13g2_buf_1
*CAP
1 *3464:A 0
2 *3463:A 0
3 *3465:A 2.60062e-05
4 *3462:A 0.000139042
5 *3466:X 0.000163972
6 *903:48 0.00213062
7 *903:25 0.0035738
8 *903:14 0.0025605
9 *903:8 0.00116825
10 *903:8 *1137:50 0
11 *903:14 *1137:50 0
12 *2776:B1 *903:48 0.000533279
13 *2800:A2 *3465:A 4.77425e-05
14 *2954:B1 *903:48 0
15 *2974:B1 *903:48 0
16 *2977:B *903:48 0
17 *3364:A *903:48 0
18 *410:14 *3462:A 0.000240196
19 *420:8 *903:48 0
20 *432:10 *903:25 0
21 *713:10 *903:48 0
22 *713:59 *903:48 0
23 *721:71 *903:14 0
24 *721:71 *903:25 0
25 *721:71 *903:48 0.000710618
26 *723:63 *903:48 0
27 *729:10 *903:48 0.000414198
28 *729:35 *903:48 0
29 *732:37 *903:48 0
30 *733:37 *3465:A 4.77537e-05
31 *752:34 *903:8 0.000216466
32 *752:34 *903:14 0.000955156
33 *766:37 *3462:A 0.000240196
34 *819:66 *903:48 0.000403924
35 *819:87 *903:48 0
36 *828:36 *903:14 2.14736e-05
37 *834:32 *903:48 0
38 *834:49 *903:25 0
39 *834:57 *903:25 0
40 *902:8 *903:48 0.000181192
41 *902:40 *903:48 0
*RES
1 *3466:X *903:8 21.751 
2 *903:8 *903:14 29.4451 
3 *903:14 *3462:A 41.6171 
4 *903:14 *903:25 11.227 
5 *903:25 *3465:A 40.3193 
6 *903:25 *903:48 43.1441 
7 *903:48 *3463:A 20 
8 *903:8 *3464:A 20 
*END

*D_NET *904 0.000571979
*CONN
*I *2759:B2 I *D sg13g2_a22oi_1
*I *3550:X O *D sg13g2_buf_1
*CAP
1 *2759:B2 0.000213565
2 *3550:X 0.000213565
3 *2759:B2 *912:16 0.000144849
4 *2747:B1 *2759:B2 0
5 *397:16 *2759:B2 0
6 *844:62 *2759:B2 0
*RES
1 *3550:X *2759:B2 41.9673 
*END

*D_NET *905 0.0187274
*CONN
*I *2840:B1 I *D sg13g2_o21ai_1
*I *2836:B1 I *D sg13g2_o21ai_1
*I *2828:B1 I *D sg13g2_o21ai_1
*I *2824:B1 I *D sg13g2_o21ai_1
*I *2820:B1 I *D sg13g2_o21ai_1
*I *2848:B1 I *D sg13g2_o21ai_1
*I *2808:B1 I *D sg13g2_o21ai_1
*I *2812:B1 I *D sg13g2_o21ai_1
*I *3467:X O *D sg13g2_buf_1
*CAP
1 *2840:B1 0
2 *2836:B1 0.000335541
3 *2828:B1 0
4 *2824:B1 0
5 *2820:B1 0.000413401
6 *2848:B1 0.000711903
7 *2808:B1 0.000802469
8 *2812:B1 0.00015228
9 *3467:X 0
10 *905:125 0.000476625
11 *905:94 0.000208264
12 *905:81 0.00112522
13 *905:73 0.000859203
14 *905:65 0.00116193
15 *905:50 0.00155084
16 *905:46 0.00104859
17 *905:29 0.00100625
18 *905:27 0.000247392
19 *905:6 0.000399672
20 *2808:B1 *2740:A 3.34019e-05
21 *2808:B1 *979:33 0.00012777
22 *2808:B1 *979:35 6.76184e-05
23 *2808:B1 *1143:48 8.02434e-05
24 *2812:B1 *1135:75 0.00012651
25 *2820:B1 *1139:29 0
26 *2848:B1 *1140:56 0
27 *905:81 *1139:29 0
28 *905:81 *1142:39 0
29 *905:125 *1144:28 0
30 *2808:A1 *2808:B1 0.000177493
31 *2808:A2 *2808:B1 3.08564e-05
32 *2812:A2 *2812:B1 1.54556e-05
33 *2820:A1 *2820:B1 0
34 *2825:A1 *905:81 4.78028e-05
35 *2826:B1 *2848:B1 0.000144805
36 *2828:A2 *905:81 8.00842e-05
37 *2836:A2 *2836:B1 0.000558158
38 *2836:A2 *905:73 0.000436369
39 *2840:A1 *905:125 0
40 *2848:A2 *2848:B1 0.000112426
41 *3179:CLK *2808:B1 0.000339596
42 *3187:D *905:81 0
43 *271:10 *905:65 0
44 *389:20 *905:94 0
45 *389:31 *905:27 0.000710954
46 *389:37 *905:27 0
47 *389:41 *2812:B1 0
48 *392:8 *2808:B1 1.54008e-05
49 *392:8 *905:46 0.000323226
50 *392:8 *905:125 0.000420696
51 *392:12 *905:125 0.000447269
52 *393:31 *2812:B1 0
53 *393:31 *905:27 0.000711784
54 *453:10 *2820:B1 0.000144894
55 *458:14 *905:50 0
56 *459:10 *905:65 0
57 *459:10 *905:81 1.54556e-05
58 *697:301 *905:50 0
59 *697:301 *905:65 0
60 *701:89 *2820:B1 0
61 *702:33 *2820:B1 0
62 *704:68 *905:65 0.000181192
63 *718:36 *2808:B1 0
64 *718:36 *905:46 0
65 *718:36 *905:125 0
66 *719:36 *2848:B1 0
67 *751:29 *2812:B1 3.1684e-05
68 *775:23 *905:73 0.000287256
69 *776:27 *2812:B1 0.000341603
70 *784:25 *905:65 0
71 *831:50 *2848:B1 6.47217e-05
72 *832:23 *905:50 7.51285e-05
73 *832:23 *905:65 0.000212127
74 *832:27 *2848:B1 0.000629358
75 *835:54 *905:73 0
76 *835:89 *905:125 0.000181192
77 *837:21 *2820:B1 0
78 *837:21 *905:81 0
79 *841:33 *905:65 0.000393407
80 *841:58 *905:125 0
81 *841:68 *2812:B1 0
82 *843:125 *2836:B1 0.000225508
83 *843:125 *905:73 0.000436369
84 *843:125 *905:81 0
85 *843:125 *905:94 0
*RES
1 *3467:X *905:6 40 
2 *905:6 *2812:B1 42.2248 
3 *905:6 *905:27 44.5011 
4 *905:27 *905:29 20 
5 *905:29 *2808:B1 28.7041 
6 *905:29 *905:46 2.266 
7 *905:46 *905:50 23.5638 
8 *905:50 *2848:B1 47.3439 
9 *905:50 *905:65 26.0358 
10 *905:65 *905:73 44.2539 
11 *905:73 *905:81 5.047 
12 *905:81 *2820:B1 22.606 
13 *905:81 *905:94 41.8334 
14 *905:94 *2824:B1 20 
15 *905:73 *2828:B1 20 
16 *905:65 *2836:B1 24.0479 
17 *905:46 *905:125 45.7783 
18 *905:125 *2840:B1 20 
*END

*D_NET *906 0.0119067
*CONN
*I *2868:B1 I *D sg13g2_o21ai_1
*I *2852:B1 I *D sg13g2_o21ai_1
*I *2860:B1 I *D sg13g2_o21ai_1
*I *2864:B1 I *D sg13g2_o21ai_1
*I *3468:X O *D sg13g2_buf_1
*CAP
1 *2868:B1 0.00052406
2 *2852:B1 0
3 *2860:B1 5.10268e-05
4 *2864:B1 9.57077e-05
5 *3468:X 0.000556221
6 *906:36 0.00109313
7 *906:21 0.000662201
8 *906:8 0.000694031
9 *2868:B1 *3201:RESET_B 0
10 *2868:B1 *3209:RESET_B 0
11 *906:8 *3205:RESET_B 0
12 *906:8 *1135:85 0.000855964
13 *906:36 *3201:RESET_B 0
14 *2860:A2 *2860:B1 8.00842e-05
15 *2861:B1 *906:8 0
16 *2864:A2 *2864:B1 0.000208688
17 *2864:A2 *906:8 0
18 *2864:A2 *906:21 0.000212958
19 *2864:A2 *906:36 5.30319e-05
20 *2868:A2 *2868:B1 0.000841556
21 *477:10 *2868:B1 0.000144311
22 *486:12 *906:8 0
23 *785:23 *2864:B1 0.000181192
24 *785:23 *906:21 0.00023464
25 *785:23 *906:36 0.00267601
26 *836:10 *906:36 0.00135163
27 *836:12 *906:36 0.00129469
28 *836:45 *2868:B1 1.54285e-05
29 *836:45 *906:36 8.01118e-05
30 *843:125 *2868:B1 0
*RES
1 *3468:X *906:8 45.7268 
2 *906:8 *2864:B1 41.3802 
3 *906:8 *906:21 1.0918 
4 *906:21 *2860:B1 40.5356 
5 *906:21 *906:36 32.9986 
6 *906:36 *2852:B1 20 
7 *906:36 *2868:B1 25.7268 
*END

*D_NET *907 0.0181939
*CONN
*I *2844:B1 I *D sg13g2_o21ai_1
*I *3468:A I *D sg13g2_buf_1
*I *2856:B1 I *D sg13g2_o21ai_1
*I *3467:A I *D sg13g2_buf_1
*I *2816:B1 I *D sg13g2_o21ai_1
*I *2832:B1 I *D sg13g2_o21ai_1
*I *2804:B1 I *D sg13g2_o21ai_1
*I *3469:X O *D sg13g2_buf_1
*CAP
1 *2844:B1 0.000113167
2 *3468:A 0
3 *2856:B1 0
4 *3467:A 0.000993226
5 *2816:B1 4.37077e-05
6 *2832:B1 0.000141637
7 *2804:B1 0
8 *3469:X 0
9 *907:99 0.000875993
10 *907:86 0.000964993
11 *907:82 0.000512665
12 *907:76 0.000929149
13 *907:46 0.00176279
14 *907:31 0.000867498
15 *907:29 0.000888714
16 *907:25 0.00135143
17 *907:12 0.00037486
18 *907:4 0.00122989
19 *3467:A *1129:56 0.000552503
20 *907:25 *1126:52 0
21 *907:25 *1129:56 0
22 *907:29 *1126:52 0.000915502
23 *907:29 *1132:46 0
24 *907:46 *3183:RESET_B 0
25 *907:46 *1129:56 0.000393012
26 *907:46 *1141:33 0.000209728
27 *907:76 *1126:52 0.000424671
28 *907:76 *1132:46 0
29 *907:82 *1126:56 0
30 *907:99 *1136:64 0
31 *2785:A2 *907:12 0.000496807
32 *2812:A2 *3467:A 0
33 *2831:A2 *907:46 0
34 *2832:A2 *2832:B1 1.54008e-05
35 *2844:A1 *2844:B1 0
36 *2856:A2 *907:76 0.000468541
37 *2856:A2 *907:86 0.000144731
38 *2856:A2 *907:99 1.54008e-05
39 *3528:A *2832:B1 0
40 *3528:A *907:46 0.000208946
41 *3616:A *2832:B1 1.54008e-05
42 *21:10 *907:99 0
43 *388:18 *907:12 0.000446501
44 *393:31 *3467:A 0
45 *446:14 *907:25 0.000339608
46 *446:14 *907:46 0
47 *450:10 *2816:B1 8.00842e-05
48 *455:22 *907:12 0.000445584
49 *458:14 *3467:A 0
50 *460:16 *907:29 0.000236081
51 *462:10 *2832:B1 7.98097e-05
52 *473:14 *907:99 0
53 *480:10 *907:86 8.00473e-05
54 *485:32 *907:99 0
55 *703:36 *907:76 0.000500937
56 *703:51 *907:76 6.47219e-05
57 *724:59 *907:82 0
58 *725:56 *2832:B1 0
59 *725:56 *907:46 0
60 *726:52 *907:99 0
61 *748:31 *907:12 0.000496821
62 *751:54 *907:99 0
63 *753:28 *2844:B1 0
64 *753:28 *907:25 0
65 *754:31 *2844:B1 0
66 *831:71 *3467:A 0.000240614
67 *837:29 *2816:B1 8.00842e-05
68 *837:40 *907:76 0.000112519
69 *841:68 *3467:A 8.01612e-05
70 *843:62 *907:46 0
71 *854:59 *907:99 0
*RES
1 *3469:X *907:4 20 
2 *907:4 *907:12 45.4281 
3 *907:12 *2804:B1 20 
4 *907:4 *907:25 47.0967 
5 *907:25 *907:29 24.7998 
6 *907:29 *907:31 20 
7 *907:31 *2832:B1 21.3184 
8 *907:31 *907:46 27.1276 
9 *907:46 *2816:B1 40.5356 
10 *907:46 *3467:A 49.6305 
11 *907:29 *907:76 46.3963 
12 *907:76 *907:82 43.7801 
13 *907:82 *907:86 20.9682 
14 *907:86 *2856:B1 20 
15 *907:86 *907:99 47.8383 
16 *907:99 *3468:A 20 
17 *907:25 *2844:B1 20.9682 
*END

*D_NET *908 0.0230951
*CONN
*I *2784:B1 I *D sg13g2_o21ai_1
*I *2886:B1 I *D sg13g2_o21ai_1
*I *2870:B I *D sg13g2_nand3b_1
*I *2737:A I *D sg13g2_nand2_1
*I *3030:B1 I *D sg13g2_o21ai_1
*I *3018:B1 I *D sg13g2_o21ai_1
*I *2898:B1 I *D sg13g2_o21ai_1
*I *3088:B1 I *D sg13g2_o21ai_1
*I *3470:X O *D sg13g2_buf_1
*CAP
1 *2784:B1 4.5074e-05
2 *2886:B1 0
3 *2870:B 0.000387183
4 *2737:A 0
5 *3030:B1 0
6 *3018:B1 5.10268e-05
7 *2898:B1 0.000236898
8 *3088:B1 0.000492896
9 *3470:X 0.000473474
10 *908:90 0.000197329
11 *908:84 0.00204436
12 *908:69 0.0016274
13 *908:54 0.000337504
14 *908:43 0.000547879
15 *908:37 0.000406606
16 *908:22 0.0010794
17 *908:16 0.00206498
18 *908:10 0.00178246
19 *2898:B1 *1134:27 0
20 *908:16 *1130:48 0.000435719
21 *908:22 *1141:33 0
22 *908:69 *3030:A2 8.00842e-05
23 *908:84 *1143:48 0
24 *908:84 *1145:37 0
25 *908:84 *1147:8 0
26 *2784:A1 *908:10 0.000208901
27 *2784:A2 *2784:B1 1.54008e-05
28 *2784:A2 *908:10 0
29 *2870:C *2870:B 1.54008e-05
30 *2886:A1 *908:43 0.00018387
31 *2886:A2 *908:43 8.00842e-05
32 *2898:A2 *2898:B1 0.000404076
33 *3018:A2 *3018:B1 8.00842e-05
34 *3019:A *908:84 1.54008e-05
35 *3031:B *908:69 1.54008e-05
36 *3031:B *908:84 0.00019291
37 *3089:B *3088:B1 0
38 *3167:CLK *908:10 0.000387605
39 *290:10 *3088:B1 0
40 *426:10 *2784:B1 1.54008e-05
41 *502:10 *908:43 1.54008e-05
42 *697:180 *3088:B1 0
43 *713:80 *908:10 1.54008e-05
44 *713:80 *908:16 0
45 *718:36 *908:84 0
46 *743:21 *908:10 0
47 *743:21 *908:16 0
48 *743:21 *908:22 0.000856255
49 *754:31 *2784:B1 0
50 *754:31 *908:16 0
51 *795:28 *908:16 0.000400239
52 *795:28 *908:37 0.0012088
53 *796:34 *908:16 0.000400753
54 *796:34 *908:37 0.00118637
55 *796:34 *908:43 0.000670315
56 *796:34 *908:54 0.000612747
57 *796:34 *908:69 0.000611866
58 *797:33 *2870:B 0
59 *797:33 *908:84 0
60 *813:49 *908:69 0.000130012
61 *813:51 *908:54 0.000127455
62 *813:51 *908:69 0.000483864
63 *813:53 *908:54 0.000400239
64 *813:55 *908:43 0.000400904
65 *813:55 *908:54 0.000107631
66 *814:31 *908:22 4.77425e-05
67 *814:35 *3088:B1 0.00151427
68 *823:80 *908:84 0
*RES
1 *3470:X *908:10 25.1912 
2 *908:10 *908:16 33.184 
3 *908:16 *908:22 45.7268 
4 *908:22 *3088:B1 47.3748 
5 *908:16 *908:37 25.5414 
6 *908:37 *908:43 23.605 
7 *908:43 *2898:B1 42.6986 
8 *908:43 *908:54 2.8222 
9 *908:54 *3018:B1 40.5356 
10 *908:54 *908:69 23.3578 
11 *908:69 *3030:B1 20 
12 *908:69 *908:84 32.7691 
13 *908:84 *908:90 42.4823 
14 *908:90 *2737:A 40 
15 *908:84 *2870:B 43.6359 
16 *908:37 *2886:B1 20 
17 *908:10 *2784:B1 20.5356 
*END

*D_NET *909 0.0283362
*CONN
*I *3466:A I *D sg13g2_buf_1
*I *3469:A I *D sg13g2_buf_1
*I *3470:A I *D sg13g2_buf_1
*I *3461:A I *D sg13g2_buf_1
*I *3471:X O *D sg13g2_buf_1
*CAP
1 *3466:A 0
2 *3469:A 0
3 *3470:A 0.000288419
4 *3461:A 0
5 *3471:X 0.000153137
6 *909:63 0.000829729
7 *909:55 0.00125837
8 *909:49 0.00323617
9 *909:38 0.00337502
10 *909:26 0.00393684
11 *909:16 0.00315692
12 *909:14 0.000199293
13 *909:10 0.000276449
14 *909:10 *1125:42 0
15 *909:14 *1137:50 0.000192649
16 *909:16 *1137:50 0.000129463
17 *909:26 *1137:50 0.000242408
18 *909:38 *3090:B1 0
19 *909:38 *1128:32 0
20 *909:38 *1129:14 0
21 *909:38 *1129:25 0
22 *909:55 *1132:31 9.68588e-05
23 *909:55 *1132:46 0.000336608
24 *909:63 *1132:31 0.000401424
25 *2758:A1 *909:38 0
26 *2761:A1 *909:38 0
27 *2761:B1 *909:38 8.03692e-05
28 *2784:A2 *3470:A 0.00014444
29 *2785:A2 *909:55 7.99869e-05
30 *2785:A2 *909:63 0.00040118
31 *2802:B1 *909:63 0.000392895
32 *2985:A1 *909:38 4.79124e-05
33 *2987:B1 *909:38 0
34 *3090:A2 *909:38 0.000176591
35 *3092:A1 *909:38 0
36 *3155:CLK *909:38 0
37 *3319:CLK *909:38 0
38 *3321:CLK *909:38 0
39 *389:41 *909:63 0
40 *402:8 *909:26 0.000441805
41 *407:14 *909:10 0.000181192
42 *407:18 *909:14 0.00017634
43 *407:18 *909:16 0.000143861
44 *407:18 *909:26 0.000241668
45 *425:28 *909:55 0
46 *571:62 *909:38 0
47 *571:70 *909:38 4.77425e-05
48 *575:10 *909:38 0
49 *657:10 *909:38 0.000532843
50 *661:20 *909:38 0.000297843
51 *699:14 *909:26 0
52 *699:25 *909:38 0
53 *717:32 *909:49 0
54 *720:43 *909:49 0.00368295
55 *720:43 *909:55 0.00108421
56 *721:28 *909:38 0
57 *721:48 *909:38 0
58 *721:56 *909:38 0
59 *721:77 *3470:A 0.000272747
60 *743:21 *3470:A 0
61 *752:24 *909:38 0.000630531
62 *752:44 *909:10 4.74163e-05
63 *755:29 *909:49 0
64 *766:8 *909:26 0
65 *790:12 *909:26 0.000279386
66 *790:34 *909:38 0
67 *807:76 *909:38 0
68 *807:91 *909:38 0
69 *818:28 *909:38 0
70 *828:40 *909:38 0
71 *828:47 *909:38 0
72 *832:56 *909:63 0.000554272
73 *833:94 *909:10 0
74 *833:111 *909:10 0
75 *843:45 *3470:A 0.000240405
76 *850:8 *909:49 0
77 *854:30 *909:55 0
78 *865:72 *909:38 0
79 *865:78 *909:38 0
80 *885:80 *909:38 0
81 *901:65 *909:49 0
82 *901:121 *909:10 4.78134e-05
*RES
1 *3471:X *909:10 41.6583 
2 *909:10 *909:14 21.4008 
3 *909:14 *909:16 0.9682 
4 *909:16 *909:26 46.489 
5 *909:26 *909:38 33.9318 
6 *909:38 *3461:A 20 
7 *909:16 *909:49 45.3895 
8 *909:49 *909:55 27.9619 
9 *909:55 *909:63 47.004 
10 *909:63 *3470:A 22.8496 
11 *909:55 *3469:A 20 
12 *909:14 *3466:A 20 
*END

*D_NET *910 0.000501071
*CONN
*I *3219:RESET_B I *D sg13g2_dfrbpq_1
*I *3220:L_HI O *D sg13g2_tiehi
*CAP
1 *3219:RESET_B 0.000250536
2 *3220:L_HI 0.000250536
3 *3219:RESET_B *1141:33 0
4 *2884:B1 *3219:RESET_B 0
5 *746:23 *3219:RESET_B 0
*RES
1 *3220:L_HI *3219:RESET_B 42.5338 
*END

*D_NET *911 0.000693503
*CONN
*I *3283:RESET_B I *D sg13g2_dfrbpq_1
*I *3284:L_HI O *D sg13g2_tiehi
*CAP
1 *3283:RESET_B 0.000202632
2 *3284:L_HI 0.000202632
3 *3283:RESET_B *3016:B1 0.000208255
4 *3283:RESET_B *1143:48 0
5 *3283:RESET_B *1144:28 7.99846e-05
6 *697:264 *3283:RESET_B 0
*RES
1 *3284:L_HI *3283:RESET_B 42.1836 
*END

*D_NET *912 0.00264942
*CONN
*I *2763:B2 I *D sg13g2_a22oi_1
*I *3551:X O *D sg13g2_buf_1
*CAP
1 *2763:B2 0.000298526
2 *3551:X 0.000651296
3 *912:16 0.000949823
4 *2763:B2 *946:14 0
5 *912:16 *2787:B2 0
6 *912:16 *935:10 0
7 *2747:B1 *912:16 1.54556e-05
8 *2747:A2 *912:16 0
9 *2747:A1 *912:16 4.77425e-05
10 *2749:A2 *912:16 0
11 *2755:A2 *2763:B2 0.000112426
12 *2759:B2 *912:16 0.000144849
13 *2763:B1 *2763:B2 0
14 *2787:B1 *912:16 0.00012816
15 *2787:A2 *912:16 0
16 *2787:A1 *2763:B2 4.77425e-05
17 *3550:A *912:16 0
18 *64:9 *912:16 0
19 *397:16 *2763:B2 0
20 *397:16 *912:16 0
21 *410:14 *2763:B2 4.77425e-05
22 *428:10 *2763:B2 0.000205655
23 *730:32 *912:16 0
24 *860:12 *912:16 0
*RES
1 *3551:X *912:16 46.5405 
2 *912:16 *2763:B2 43.1827 
*END

*D_NET *913 0.000423477
*CONN
*I *3217:RESET_B I *D sg13g2_dfrbpq_1
*I *3218:L_HI O *D sg13g2_tiehi
*CAP
1 *3217:RESET_B 0.000211738
2 *3218:L_HI 0.000211738
3 *356:22 *3217:RESET_B 0
*RES
1 *3218:L_HI *3217:RESET_B 42.1836 
*END

*D_NET *914 0.000688257
*CONN
*I *3315:RESET_B I *D sg13g2_dfrbpq_1
*I *3316:L_HI O *D sg13g2_tiehi
*CAP
1 *3315:RESET_B 0.000207555
2 *3316:L_HI 0.000207555
3 *3315:RESET_B *1130:27 0
4 *736:32 *3315:RESET_B 0.000273147
*RES
1 *3316:L_HI *3315:RESET_B 42.1836 
*END

*D_NET *915 0.00208502
*CONN
*I *3215:RESET_B I *D sg13g2_dfrbpq_1
*I *3216:L_HI O *D sg13g2_tiehi
*CAP
1 *3215:RESET_B 0.000396995
2 *3216:L_HI 0.000396995
3 s_axil_bvalid *3215:RESET_B 0.000726804
4 *241:14 *3215:RESET_B 0
5 *709:44 *3215:RESET_B 0.000274189
6 *709:52 *3215:RESET_B 0.000290039
*RES
1 *3216:L_HI *3215:RESET_B 45.1294 
*END

*D_NET *916 0.000638622
*CONN
*I *3213:RESET_B I *D sg13g2_dfrbpq_1
*I *3214:L_HI O *D sg13g2_tiehi
*CAP
1 *3213:RESET_B 0.000262986
2 *3214:L_HI 0.000262986
3 *3213:D *3213:RESET_B 0
4 *3213:CLK *3213:RESET_B 0
5 *863:38 *3213:RESET_B 0
6 *885:22 *3213:RESET_B 0.000112651
*RES
1 *3214:L_HI *3213:RESET_B 42.6162 
*END

*D_NET *917 0.000547024
*CONN
*I *3281:RESET_B I *D sg13g2_dfrbpq_1
*I *3282:L_HI O *D sg13g2_tiehi
*CAP
1 *3281:RESET_B 0.000273512
2 *3282:L_HI 0.000273512
3 *2906:A1 *3281:RESET_B 0
4 *378:14 *3281:RESET_B 0
*RES
1 *3282:L_HI *3281:RESET_B 42.6162 
*END

*D_NET *918 0.00114724
*CONN
*I *3211:RESET_B I *D sg13g2_dfrbpq_1
*I *3212:L_HI O *D sg13g2_tiehi
*CAP
1 *3211:RESET_B 0.000348339
2 *3212:L_HI 0.000348339
3 *3211:RESET_B *1139:29 0
4 *2737:B *3211:RESET_B 0
5 *3211:D *3211:RESET_B 0
6 *389:12 *3211:RESET_B 0.000273859
7 *763:32 *3211:RESET_B 0
8 *835:26 *3211:RESET_B 0.000176707
*RES
1 *3212:L_HI *3211:RESET_B 43.826 
*END

*D_NET *919 0.000732291
*CONN
*I *3331:RESET_B I *D sg13g2_dfrbpq_1
*I *3332:L_HI O *D sg13g2_tiehi
*CAP
1 *3331:RESET_B 0.000221568
2 *3332:L_HI 0.000221568
3 *359:32 *3331:RESET_B 0.000273699
4 *360:34 *3331:RESET_B 1.54556e-05
*RES
1 *3332:L_HI *3331:RESET_B 42.1836 
*END

*D_NET *920 0.000810448
*CONN
*I *3209:RESET_B I *D sg13g2_dfrbpq_1
*I *3210:L_HI O *D sg13g2_tiehi
*CAP
1 *3209:RESET_B 0.000405224
2 *3210:L_HI 0.000405224
3 *2868:B1 *3209:RESET_B 0
4 *2868:A1 *3209:RESET_B 0
5 *2869:A1 *3209:RESET_B 0
6 *3677:A *3209:RESET_B 0
7 *843:125 *3209:RESET_B 0
*RES
1 *3210:L_HI *3209:RESET_B 43.8522 
*END

*D_NET *921 0.000571645
*CONN
*I *3279:RESET_B I *D sg13g2_dfrbpq_1
*I *3280:L_HI O *D sg13g2_tiehi
*CAP
1 *3279:RESET_B 0.000217835
2 *3280:L_HI 0.000217835
3 *724:29 *3279:RESET_B 0.000135974
4 *885:47 *3279:RESET_B 0
*RES
1 *3280:L_HI *3279:RESET_B 42.2866 
*END

*D_NET *922 0.000769954
*CONN
*I *3207:RESET_B I *D sg13g2_dfrbpq_1
*I *3208:L_HI O *D sg13g2_tiehi
*CAP
1 *3207:RESET_B 0.0002268
2 *3208:L_HI 0.0002268
3 *3207:RESET_B *1131:31 0.000240957
4 *3207:D *3207:RESET_B 7.53965e-05
5 *751:39 *3207:RESET_B 0
6 *751:54 *3207:RESET_B 0
*RES
1 *3208:L_HI *3207:RESET_B 42.4308 
*END

*D_NET *923 0.00353591
*CONN
*I *2767:B2 I *D sg13g2_a22oi_1
*I *3552:X O *D sg13g2_buf_1
*CAP
1 *2767:B2 0
2 *3552:X 0.000628435
3 *923:12 0.000628435
4 *923:12 *935:10 0.000722028
5 *923:12 *1094:12 0
6 *64:9 *923:12 0.000181192
7 *727:14 *923:12 0
8 *755:54 *923:12 0.00092722
9 *760:12 *923:12 0.000448602
10 *893:18 *923:12 0
*RES
1 *3552:X *923:12 48.9301 
2 *923:12 *2767:B2 40 
*END

*D_NET *924 0.000463304
*CONN
*I *3313:RESET_B I *D sg13g2_dfrbpq_1
*I *3314:L_HI O *D sg13g2_tiehi
*CAP
1 *3313:RESET_B 0.000231652
2 *3314:L_HI 0.000231652
3 *2968:B1 *3313:RESET_B 0
4 *3081:B *3313:RESET_B 0
5 *3:30 *3313:RESET_B 0
*RES
1 *3314:L_HI *3313:RESET_B 42.1836 
*END

*D_NET *925 0.00180936
*CONN
*I *3205:RESET_B I *D sg13g2_dfrbpq_1
*I *3206:L_HI O *D sg13g2_tiehi
*CAP
1 *3205:RESET_B 0.000224431
2 *3206:L_HI 0.000260206
3 *925:8 0.000484637
4 *2861:B1 *3205:RESET_B 0
5 *3205:CLK *925:8 0
6 *486:12 *3205:RESET_B 0
7 *488:20 *925:8 0.000711927
8 *791:21 *925:8 0.00012816
9 *906:8 *3205:RESET_B 0
*RES
1 *3206:L_HI *925:8 43.3166 
2 *925:8 *3205:RESET_B 41.8334 
*END

*D_NET *926 0.000793785
*CONN
*I *3277:RESET_B I *D sg13g2_dfrbpq_1
*I *3278:L_HI O *D sg13g2_tiehi
*CAP
1 *3277:RESET_B 0.00022724
2 *3278:L_HI 0.00022724
3 *3277:D *3277:RESET_B 0
4 *352:16 *3277:RESET_B 0.000339306
5 *722:35 *3277:RESET_B 0
*RES
1 *3278:L_HI *3277:RESET_B 42.6162 
*END

*D_NET *927 0.000529447
*CONN
*I *3203:RESET_B I *D sg13g2_dfrbpq_1
*I *3204:L_HI O *D sg13g2_tiehi
*CAP
1 *3203:RESET_B 0.000264723
2 *3204:L_HI 0.000264723
3 *3616:A *3203:RESET_B 0
4 *720:53 *3203:RESET_B 0
5 *726:52 *3203:RESET_B 0
*RES
1 *3204:L_HI *3203:RESET_B 42.6162 
*END

*D_NET *928 0.00135913
*CONN
*I *3339:RESET_B I *D sg13g2_dfrbpq_1
*I *3340:L_HI O *D sg13g2_tiehi
*CAP
1 *3339:RESET_B 0.000365339
2 *3340:L_HI 0.000365339
3 *3131:A1 *3339:RESET_B 0
4 *3131:A2 *3339:RESET_B 8.03089e-05
5 *359:14 *3339:RESET_B 8.0216e-05
6 *359:28 *3339:RESET_B 0.00046793
7 *687:10 *3339:RESET_B 0
8 *722:14 *3339:RESET_B 0
9 *803:30 *3339:RESET_B 0
10 *817:17 *3339:RESET_B 0
*RES
1 *3340:L_HI *3339:RESET_B 43.914 
*END

*D_NET *929 0.000882259
*CONN
*I *3201:RESET_B I *D sg13g2_dfrbpq_1
*I *3202:L_HI O *D sg13g2_tiehi
*CAP
1 *3201:RESET_B 0.000271883
2 *3202:L_HI 0.000271883
3 *2868:B1 *3201:RESET_B 0
4 *477:10 *3201:RESET_B 0
5 *843:125 *3201:RESET_B 0.000338493
6 *906:36 *3201:RESET_B 0
*RES
1 *3202:L_HI *3201:RESET_B 42.8634 
*END

*D_NET *930 0.00116433
*CONN
*I *3275:RESET_B I *D sg13g2_dfrbpq_1
*I *3276:L_HI O *D sg13g2_tiehi
*CAP
1 *3275:RESET_B 0.000186108
2 *3276:L_HI 0.000235289
3 *930:8 0.000421397
4 *3445:A *3275:RESET_B 0.000273798
5 *3:22 *930:8 0
6 *354:24 *3275:RESET_B 4.77425e-05
7 *889:76 *930:8 0
*RES
1 *3276:L_HI *930:8 42.0806 
2 *930:8 *3275:RESET_B 41.8334 
*END

*D_NET *931 0.000764958
*CONN
*I *3199:RESET_B I *D sg13g2_dfrbpq_1
*I *3200:L_HI O *D sg13g2_tiehi
*CAP
1 *3199:RESET_B 0.000213154
2 *3200:L_HI 0.000213154
3 *3199:RESET_B *1148:37 0
4 *719:36 *3199:RESET_B 0.000338651
*RES
1 *3200:L_HI *3199:RESET_B 42.266 
*END

*D_NET *932 0.00056603
*CONN
*I *3311:RESET_B I *D sg13g2_dfrbpq_1
*I *3312:L_HI O *D sg13g2_tiehi
*CAP
1 *3311:RESET_B 0.000247485
2 *3312:L_HI 0.000247485
3 *373:24 *3311:RESET_B 0
4 *376:14 *3311:RESET_B 7.10607e-05
*RES
1 *3312:L_HI *3311:RESET_B 42.5338 
*END

*D_NET *933 0.00144046
*CONN
*I *3197:RESET_B I *D sg13g2_dfrbpq_1
*I *3198:L_HI O *D sg13g2_tiehi
*CAP
1 *3197:RESET_B 0.000528319
2 *3198:L_HI 0.000528319
3 *2845:A1 *3197:RESET_B 1.54008e-05
4 *2845:B1 *3197:RESET_B 0
5 *3634:A *3197:RESET_B 0
6 *3637:A *3197:RESET_B 0.000218116
7 *425:28 *3197:RESET_B 7.0221e-05
8 *748:39 *3197:RESET_B 8.00842e-05
9 *753:28 *3197:RESET_B 0
*RES
1 *3198:L_HI *3197:RESET_B 45.2542 
*END

*D_NET *934 0.00101591
*CONN
*I *2787:B2 I *D sg13g2_a22oi_1
*I *3553:X O *D sg13g2_buf_1
*CAP
1 *2787:B2 0.000403092
2 *3553:X 0.000403092
3 *2787:B2 *946:14 0.000209725
4 *2787:B2 *1094:12 0
5 *2787:B1 *2787:B2 0
6 *3550:A *2787:B2 0
7 *3555:A *2787:B2 0
8 *397:16 *2787:B2 0
9 *893:18 *2787:B2 0
10 *912:16 *2787:B2 0
*RES
1 *3553:X *2787:B2 43.826 
*END

*D_NET *935 0.00249353
*CONN
*I *2770:A1 I *D sg13g2_a21oi_1
*I *3554:X O *D sg13g2_buf_1
*CAP
1 *2770:A1 0.00027092
2 *3554:X 0.000502823
3 *935:10 0.000773744
4 *2770:A1 *1045:20 0.000208615
5 *2770:A1 *1116:8 0
6 *935:10 *957:8 0
7 *2770:A2 *2770:A1 1.54008e-05
8 *3550:A *935:10 0
9 *3586:A *2770:A1 0
10 *397:16 *935:10 0
11 *912:16 *935:10 0
12 *923:12 *935:10 0.000722028
*RES
1 *3554:X *935:10 45.768 
2 *935:10 *2770:A1 42.4823 
*END

*D_NET *936 0.000582964
*CONN
*I *3273:RESET_B I *D sg13g2_dfrbpq_1
*I *3274:L_HI O *D sg13g2_tiehi
*CAP
1 *3273:RESET_B 0.000251327
2 *3274:L_HI 0.000251327
3 *2990:B *3273:RESET_B 0
4 *3269:CLK *3273:RESET_B 0
5 *580:22 *3273:RESET_B 8.03091e-05
*RES
1 *3274:L_HI *3273:RESET_B 42.1836 
*END

*D_NET *937 0.000574285
*CONN
*I *3195:RESET_B I *D sg13g2_dfrbpq_1
*I *3196:L_HI O *D sg13g2_tiehi
*CAP
1 *3195:RESET_B 0.000247054
2 *3196:L_HI 0.000247054
3 *3195:RESET_B *1135:85 0
4 *831:71 *3195:RESET_B 8.01773e-05
5 *841:58 *3195:RESET_B 0
6 *841:68 *3195:RESET_B 0
*RES
1 *3196:L_HI *3195:RESET_B 42.4308 
*END

*D_NET *938 0.000471284
*CONN
*I *3329:RESET_B I *D sg13g2_dfrbpq_1
*I *3330:L_HI O *D sg13g2_tiehi
*CAP
1 *3329:RESET_B 0.000235642
2 *3330:L_HI 0.000235642
3 *890:14 *3329:RESET_B 0
*RES
1 *3330:L_HI *3329:RESET_B 42.6162 
*END

*D_NET *939 0.000614929
*CONN
*I *3193:RESET_B I *D sg13g2_dfrbpq_1
*I *3194:L_HI O *D sg13g2_tiehi
*CAP
1 *3193:RESET_B 0.000307465
2 *3194:L_HI 0.000307465
3 *2836:A1 *3193:RESET_B 0
4 *2836:A2 *3193:RESET_B 0
5 *837:119 *3193:RESET_B 0
*RES
1 *3194:L_HI *3193:RESET_B 42.9252 
*END

*D_NET *940 0.000863228
*CONN
*I *3271:RESET_B I *D sg13g2_dfrbpq_1
*I *3272:L_HI O *D sg13g2_tiehi
*CAP
1 *3271:RESET_B 0.000189635
2 *3272:L_HI 0.000189635
3 *3077:A *3271:RESET_B 0
4 *546:12 *3271:RESET_B 0.00027432
5 *818:87 *3271:RESET_B 0.000209637
*RES
1 *3272:L_HI *3271:RESET_B 42.1836 
*END

*D_NET *941 0.00095422
*CONN
*I *3191:RESET_B I *D sg13g2_dfrbpq_1
*I *3192:L_HI O *D sg13g2_tiehi
*CAP
1 *3191:RESET_B 0.000251909
2 *3192:L_HI 0.000251909
3 *720:53 *3191:RESET_B 0.000112289
4 *723:102 *3191:RESET_B 0
5 *743:29 *3191:RESET_B 0.000338113
*RES
1 *3192:L_HI *3191:RESET_B 42.6162 
*END

*D_NET *942 0.000461307
*CONN
*I *3309:RESET_B I *D sg13g2_dfrbpq_1
*I *3310:L_HI O *D sg13g2_tiehi
*CAP
1 *3309:RESET_B 0.000230654
2 *3310:L_HI 0.000230654
3 *697:188 *3309:RESET_B 0
4 *708:8 *3309:RESET_B 0
5 *708:19 *3309:RESET_B 0
*RES
1 *3310:L_HI *3309:RESET_B 41.9698 
*END

*D_NET *943 0.000474757
*CONN
*I *3189:RESET_B I *D sg13g2_dfrbpq_1
*I *3190:L_HI O *D sg13g2_tiehi
*CAP
1 *3189:RESET_B 0.000237378
2 *3190:L_HI 0.000237378
3 *3189:RESET_B *1139:54 0
4 *3189:RESET_B *1142:39 0
5 *831:27 *3189:RESET_B 0
*RES
1 *3190:L_HI *3189:RESET_B 42.1836 
*END

*D_NET *944 0.000477127
*CONN
*I *3269:RESET_B I *D sg13g2_dfrbpq_1
*I *3270:L_HI O *D sg13g2_tiehi
*CAP
1 *3269:RESET_B 0.000238563
2 *3270:L_HI 0.000238563
*RES
1 *3270:L_HI *3269:RESET_B 42.6162 
*END

*D_NET *945 0.000727835
*CONN
*I *3187:RESET_B I *D sg13g2_dfrbpq_1
*I *3188:L_HI O *D sg13g2_tiehi
*CAP
1 *3187:RESET_B 0.000283721
2 *3188:L_HI 0.000283721
3 *2836:A2 *3187:RESET_B 0.000144993
4 *456:12 *3187:RESET_B 1.54008e-05
5 *835:52 *3187:RESET_B 0
6 *837:21 *3187:RESET_B 0
7 *837:119 *3187:RESET_B 0
*RES
1 *3188:L_HI *3187:RESET_B 42.6162 
*END

*D_NET *946 0.00715766
*CONN
*I *2775:B2 I *D sg13g2_a22oi_1
*I *3555:X O *D sg13g2_buf_1
*CAP
1 *2775:B2 0
2 *3555:X 0.000417846
3 *946:30 0.000132352
4 *946:20 0.00108472
5 *946:14 0.00137021
6 *946:14 *1094:12 0
7 *2763:B2 *946:14 0
8 *2770:B1 *946:20 0.000128293
9 *2775:A2 *946:30 0
10 *2787:B1 *946:14 0.000388228
11 *2787:B2 *946:14 0.000209725
12 *2787:A1 *946:14 0
13 *2794:B1 *946:20 0.000159741
14 *2858:B1 *946:20 0.00026335
15 *3555:A *946:14 0
16 *413:10 *946:20 0
17 *419:14 *946:30 0
18 *728:48 *946:20 0
19 *730:32 *946:14 0
20 *730:65 *946:14 0
21 *730:65 *946:20 0.00160952
22 *761:54 *946:20 0.000126354
23 *782:16 *946:20 0
24 *804:18 *946:20 0
25 *830:51 *946:20 0.00049999
26 *845:61 *946:20 0.000654933
27 *848:43 *946:30 0.000112394
*RES
1 *3555:X *946:14 44.6453 
2 *946:14 *946:20 32.9368 
3 *946:20 *946:30 41.3133 
4 *946:30 *2775:B2 20 
*END

*D_NET *947 0.00104413
*CONN
*I *3343:RESET_B I *D sg13g2_dfrbpq_1
*I *3344:L_HI O *D sg13g2_tiehi
*CAP
1 *3343:RESET_B 0.000119766
2 *3344:L_HI 0.000257885
3 *947:12 0.000377651
4 *3009:A2 *3343:RESET_B 0.000176405
5 *3142:B *3343:RESET_B 0
6 *595:14 *947:12 0
7 *724:8 *947:12 0
8 *724:29 *3343:RESET_B 0
9 *805:54 *947:12 0.000112422
10 *805:60 *947:12 0
11 *856:108 *947:12 0
*RES
1 *3344:L_HI *947:12 42.3793 
2 *947:12 *3343:RESET_B 41.1845 
*END

*D_NET *948 0.00149404
*CONN
*I *3185:RESET_B I *D sg13g2_dfrbpq_1
*I *3186:L_HI O *D sg13g2_tiehi
*CAP
1 *3185:RESET_B 0.000415802
2 *3186:L_HI 0.000415802
3 *3185:RESET_B *1136:31 0
4 *3185:RESET_B *1142:39 0.000662441
*RES
1 *3186:L_HI *3185:RESET_B 44.429 
*END

*D_NET *949 0.00033578
*CONN
*I *3267:RESET_B I *D sg13g2_dfrbpq_1
*I *3268:L_HI O *D sg13g2_tiehi
*CAP
1 *3267:RESET_B 0.00016789
2 *3268:L_HI 0.00016789
*RES
1 *3268:L_HI *3267:RESET_B 41.8334 
*END

*D_NET *950 0.0014135
*CONN
*I *3183:RESET_B I *D sg13g2_dfrbpq_1
*I *3184:L_HI O *D sg13g2_tiehi
*CAP
1 *3183:RESET_B 0.000525935
2 *3184:L_HI 0.000525935
3 *3183:RESET_B *1141:33 0
4 *3528:A *3183:RESET_B 0.000339459
5 *726:44 *3183:RESET_B 2.21754e-05
6 *907:46 *3183:RESET_B 0
*RES
1 *3184:L_HI *3183:RESET_B 44.7792 
*END

*D_NET *951 0.00126637
*CONN
*I *3307:RESET_B I *D sg13g2_dfrbpq_1
*I *3308:L_HI O *D sg13g2_tiehi
*CAP
1 *3307:RESET_B 0.000500941
2 *3308:L_HI 0.000500941
3 *3307:RESET_B *3311:D 0.000264488
4 *373:24 *3307:RESET_B 0
5 *376:14 *3307:RESET_B 0
6 *709:8 *3307:RESET_B 0
7 *709:14 *3307:RESET_B 0
*RES
1 *3308:L_HI *3307:RESET_B 44.7254 
*END

*D_NET *952 0.000840464
*CONN
*I *3181:RESET_B I *D sg13g2_dfrbpq_1
*I *3182:L_HI O *D sg13g2_tiehi
*CAP
1 *3181:RESET_B 0.000251555
2 *3182:L_HI 0.000251555
3 *3181:RESET_B *1133:45 0.000337353
4 *751:29 *3181:RESET_B 0
*RES
1 *3182:L_HI *3181:RESET_B 42.6162 
*END

*D_NET *953 0.00047832
*CONN
*I *3265:RESET_B I *D sg13g2_dfrbpq_1
*I *3266:L_HI O *D sg13g2_tiehi
*CAP
1 *3265:RESET_B 0.00023916
2 *3266:L_HI 0.00023916
3 *307:14 *3265:RESET_B 0
4 *580:22 *3265:RESET_B 0
*RES
1 *3266:L_HI *3265:RESET_B 42.6162 
*END

*D_NET *954 0.000793048
*CONN
*I *3179:RESET_B I *D sg13g2_dfrbpq_1
*I *3180:L_HI O *D sg13g2_tiehi
*CAP
1 *3179:RESET_B 0.00022674
2 *3180:L_HI 0.00022674
3 *3179:RESET_B *1144:28 0.000339569
4 *697:283 *3179:RESET_B 0
*RES
1 *3180:L_HI *3179:RESET_B 42.266 
*END

*D_NET *955 0.00092915
*CONN
*I *3327:RESET_B I *D sg13g2_dfrbpq_1
*I *3328:L_HI O *D sg13g2_tiehi
*CAP
1 *3327:RESET_B 0.000245363
2 *3328:L_HI 0.000245363
3 *3109:A *3327:RESET_B 0
4 *710:83 *3327:RESET_B 7.9841e-05
5 *748:31 *3327:RESET_B 0.000358582
*RES
1 *3328:L_HI *3327:RESET_B 42.6162 
*END

*D_NET *956 0.00150469
*CONN
*I *3177:RESET_B I *D sg13g2_dfrbpq_1
*I *3178:L_HI O *D sg13g2_tiehi
*CAP
1 *3177:RESET_B 0.000528373
2 *3178:L_HI 0.000528373
3 *3177:RESET_B *3177:D 0.000240031
4 *2805:A2 *3177:RESET_B 0
5 *452:10 *3177:RESET_B 0.000207912
6 *744:41 *3177:RESET_B 0
*RES
1 *3178:L_HI *3177:RESET_B 44.7792 
*END

*D_NET *957 0.00701152
*CONN
*I *2779:B2 I *D sg13g2_a22oi_1
*I *3556:X O *D sg13g2_buf_1
*CAP
1 *2779:B2 0
2 *3556:X 0.000863414
3 *957:20 0.00112012
4 *957:8 0.00198354
5 *3640:A *957:20 0
6 *3647:A *957:20 4.75166e-05
7 *3649:A *957:20 0
8 *42:13 *957:8 0.000616457
9 *65:9 *957:8 0.000399863
10 *93:8 *957:20 0.000180535
11 *740:41 *957:8 2.25618e-05
12 *749:12 *957:8 0
13 *749:12 *957:20 0.00110071
14 *749:22 *957:20 0
15 *771:8 *957:8 0.000235998
16 *851:73 *957:20 4.77425e-05
17 *851:82 *957:20 4.77425e-05
18 *893:8 *957:8 0.000345318
19 *935:10 *957:8 0
*RES
1 *3556:X *957:8 49.7438 
2 *957:8 *957:20 31.3609 
3 *957:20 *2779:B2 20 
*END

*D_NET *958 0.00183068
*CONN
*I *3263:RESET_B I *D sg13g2_dfrbpq_1
*I *3264:L_HI O *D sg13g2_tiehi
*CAP
1 *3263:RESET_B 0
2 *3264:L_HI 0.00033804
3 *958:10 0.00033804
4 *2974:B1 *958:10 0
5 *3263:CLK *958:10 8.0216e-05
6 *306:10 *958:10 0.000287759
7 *729:35 *958:10 0.00033936
8 *769:31 *958:10 0.00044727
*RES
1 *3264:L_HI *958:10 44.3466 
2 *958:10 *3263:RESET_B 40 
*END

*D_NET *959 0.000855757
*CONN
*I *3175:RESET_B I *D sg13g2_dfrbpq_1
*I *3176:L_HI O *D sg13g2_tiehi
*CAP
1 *3175:RESET_B 0.000258225
2 *3176:L_HI 0.000258225
3 *3175:RESET_B *1131:14 0
4 *2801:B1 *3175:RESET_B 0
5 *3175:D *3175:RESET_B 0
6 *724:43 *3175:RESET_B 0.000339306
*RES
1 *3176:L_HI *3175:RESET_B 42.6162 
*END

*D_NET *960 0.00083159
*CONN
*I *3305:RESET_B I *D sg13g2_dfrbpq_1
*I *3306:L_HI O *D sg13g2_tiehi
*CAP
1 *3305:RESET_B 0.000222205
2 *3306:L_HI 0.000222205
3 *3303:CLK *3305:RESET_B 4.77425e-05
4 *376:14 *3305:RESET_B 0.000339437
5 *709:14 *3305:RESET_B 0
*RES
1 *3306:L_HI *3305:RESET_B 42.6162 
*END

*D_NET *961 0.000938438
*CONN
*I *3173:RESET_B I *D sg13g2_dfrbpq_1
*I *3174:L_HI O *D sg13g2_tiehi
*CAP
1 *3173:RESET_B 6.34193e-05
2 *3174:L_HI 6.47587e-05
3 *961:8 0.000128178
4 *2766:A1 *961:8 0.000128247
5 *723:102 *961:8 0.000212543
6 *793:14 *961:8 0.000341292
*RES
1 *3174:L_HI *961:8 41.5862 
2 *961:8 *3173:RESET_B 40.5356 
*END

*D_NET *962 0.000844225
*CONN
*I *3261:RESET_B I *D sg13g2_dfrbpq_1
*I *3262:L_HI O *D sg13g2_tiehi
*CAP
1 *3261:RESET_B 6.51537e-05
2 *3262:L_HI 0.00018483
3 *962:10 0.000249984
4 *3104:B1 *3261:RESET_B 0
5 *305:12 *962:10 0.000183935
6 *806:66 *3261:RESET_B 4.77537e-05
7 *808:46 *962:10 0.000112569
*RES
1 *3262:L_HI *962:10 42.0909 
2 *962:10 *3261:RESET_B 40.6695 
*END

*D_NET *963 0.00233326
*CONN
*I *3171:RESET_B I *D sg13g2_dfrbpq_1
*I *3172:L_HI O *D sg13g2_tiehi
*CAP
1 *3171:RESET_B 0.00042961
2 *3172:L_HI 9.89579e-05
3 *963:8 0.000528568
4 *963:8 *1116:12 0.000446439
5 *2791:B1 *3171:RESET_B 0
6 *720:35 *3171:RESET_B 0
7 *720:43 *963:8 0
8 *731:34 *3171:RESET_B 0
9 *755:23 *3171:RESET_B 0.000436369
10 *758:57 *3171:RESET_B 0
11 *794:16 *3171:RESET_B 0
12 *901:65 *963:8 0.00039332
*RES
1 *3172:L_HI *963:8 42.0806 
2 *963:8 *3171:RESET_B 44.429 
*END

*D_NET *964 0.00039383
*CONN
*I *3337:RESET_B I *D sg13g2_dfrbpq_1
*I *3338:L_HI O *D sg13g2_tiehi
*CAP
1 *3337:RESET_B 0.000196915
2 *3338:L_HI 0.000196915
*RES
1 *3338:L_HI *3337:RESET_B 42.1836 
*END

*D_NET *965 0.00142578
*CONN
*I *3169:RESET_B I *D sg13g2_dfrbpq_1
*I *3170:L_HI O *D sg13g2_tiehi
*CAP
1 *3169:RESET_B 0.0003747
2 *3170:L_HI 0.0003747
3 *2786:A2 *3169:RESET_B 0.000176553
4 *752:34 *3169:RESET_B 0
5 *790:26 *3169:RESET_B 0.000402682
6 *790:34 *3169:RESET_B 0
7 *795:26 *3169:RESET_B 0
8 *839:44 *3169:RESET_B 9.7141e-05
*RES
1 *3170:L_HI *3169:RESET_B 43.914 
*END

*D_NET *966 0.000851094
*CONN
*I *3259:RESET_B I *D sg13g2_dfrbpq_1
*I *3260:L_HI O *D sg13g2_tiehi
*CAP
1 *3259:RESET_B 0.000255818
2 *3260:L_HI 0.000255818
3 *362:32 *3259:RESET_B 0.000339459
4 *761:34 *3259:RESET_B 0
*RES
1 *3260:L_HI *3259:RESET_B 42.6162 
*END

*D_NET *967 0.00107458
*CONN
*I *3167:RESET_B I *D sg13g2_dfrbpq_1
*I *3168:L_HI O *D sg13g2_tiehi
*CAP
1 *3167:RESET_B 0.000230458
2 *3168:L_HI 0.000230458
3 *3167:RESET_B *1126:52 0.000274491
4 *2782:A2 *3167:RESET_B 0.000339174
*RES
1 *3168:L_HI *3167:RESET_B 42.6162 
*END

*D_NET *968 0.00443112
*CONN
*I *3471:A I *D sg13g2_buf_1
*I *3557:X O *D sg13g2_buf_1
*CAP
1 *3471:A 0
2 *3557:X 0.000497678
3 *968:12 0.00157778
4 *968:8 0.00207546
5 *968:12 *1125:27 0.000124547
6 *968:12 *1125:42 0.000155653
7 *248:8 *968:12 0
8 *394:10 *968:12 0
9 *396:10 *968:12 0
10 *728:31 *968:12 0
*RES
1 *3557:X *968:8 45.5105 
2 *968:8 *968:12 37.9014 
3 *968:12 *3471:A 20 
*END

*D_NET *969 0.00177696
*CONN
*I *3303:RESET_B I *D sg13g2_dfrbpq_1
*I *3304:L_HI O *D sg13g2_tiehi
*CAP
1 *3303:RESET_B 0.000421664
2 *3304:L_HI 0.000421664
3 *3303:RESET_B *1064:10 0
4 *3059:A2 *3303:RESET_B 0
5 *3060:B *3303:RESET_B 0
6 *3396:A *3303:RESET_B 9.72884e-05
7 *492:16 *3303:RESET_B 0.000466257
8 *811:8 *3303:RESET_B 0
9 *825:10 *3303:RESET_B 0.000370089
*RES
1 *3304:L_HI *3303:RESET_B 44.5064 
*END

*D_NET *970 0.00113911
*CONN
*I *3165:RESET_B I *D sg13g2_dfrbpq_1
*I *3166:L_HI O *D sg13g2_tiehi
*CAP
1 *3165:RESET_B 0.000132656
2 *3166:L_HI 0.000252449
3 *970:10 0.000385104
4 *970:10 *1128:49 0
5 *970:10 *1130:35 0.000112422
6 *2781:B1 *3165:RESET_B 7.97013e-05
7 *3082:B1 *3165:RESET_B 0
8 *3165:D *970:10 0
9 *721:71 *970:10 0
10 *736:32 *3165:RESET_B 0.000176781
*RES
1 *3166:L_HI *970:10 42.0909 
2 *970:10 *3165:RESET_B 41.5347 
*END

*D_NET *971 0.000487951
*CONN
*I *3257:RESET_B I *D sg13g2_dfrbpq_1
*I *3258:L_HI O *D sg13g2_tiehi
*CAP
1 *3257:RESET_B 0.000243976
2 *3258:L_HI 0.000243976
3 *722:35 *3257:RESET_B 0
4 *766:45 *3257:RESET_B 0
*RES
1 *3258:L_HI *3257:RESET_B 42.1836 
*END

*D_NET *972 0.00126389
*CONN
*I *3163:RESET_B I *D sg13g2_dfrbpq_1
*I *3164:L_HI O *D sg13g2_tiehi
*CAP
1 *3163:RESET_B 0.000176499
2 *3164:L_HI 8.24021e-05
3 *972:10 0.000258901
4 *972:10 *1129:56 0.000234792
5 *419:14 *3163:RESET_B 0.000263095
6 *700:8 *972:10 0.000157588
7 *700:12 *972:10 7.52158e-05
8 *700:36 *972:10 1.54008e-05
9 *834:73 *3163:RESET_B 0
*RES
1 *3164:L_HI *972:10 41.4111 
2 *972:10 *3163:RESET_B 41.9673 
*END

*D_NET *973 0.00077386
*CONN
*I *3325:RESET_B I *D sg13g2_dfrbpq_1
*I *3326:L_HI O *D sg13g2_tiehi
*CAP
1 *3325:RESET_B 0.000217089
2 *3326:L_HI 0.000217089
3 *3325:RESET_B *1129:33 0.000339683
4 *3325:D *3325:RESET_B 0
5 *758:57 *3325:RESET_B 0
*RES
1 *3326:L_HI *3325:RESET_B 42.6162 
*END

*D_NET *974 0.000800219
*CONN
*I *3161:RESET_B I *D sg13g2_dfrbpq_1
*I *3162:L_HI O *D sg13g2_tiehi
*CAP
1 *3161:RESET_B 0.00013965
2 *3162:L_HI 0.00013965
3 *2773:B1 *3161:RESET_B 0.00026046
4 *716:12 *3161:RESET_B 0.00026046
*RES
1 *3162:L_HI *3161:RESET_B 41.7407 
*END

*D_NET *975 0.000717606
*CONN
*I *3255:RESET_B I *D sg13g2_dfrbpq_1
*I *3256:L_HI O *D sg13g2_tiehi
*CAP
1 *3255:RESET_B 0.000286241
2 *3256:L_HI 0.000286241
3 *3255:RESET_B *1137:50 0.000145124
4 *757:47 *3255:RESET_B 0
*RES
1 *3256:L_HI *3255:RESET_B 42.6162 
*END

*D_NET *976 0.0010294
*CONN
*I *3159:RESET_B I *D sg13g2_dfrbpq_1
*I *3160:L_HI O *D sg13g2_tiehi
*CAP
1 *3159:RESET_B 0.000224683
2 *3160:L_HI 0.000224683
3 *392:26 *3159:RESET_B 0.00024139
4 *798:22 *3159:RESET_B 0.000338646
5 *830:33 *3159:RESET_B 0
*RES
1 *3160:L_HI *3159:RESET_B 42.6162 
*END

*D_NET *977 0.000846827
*CONN
*I *3301:RESET_B I *D sg13g2_dfrbpq_1
*I *3302:L_HI O *D sg13g2_tiehi
*CAP
1 *3301:RESET_B 0.000418197
2 *3302:L_HI 0.000418197
3 *365:22 *3301:RESET_B 1.04325e-05
4 *821:74 *3301:RESET_B 0
5 *894:50 *3301:RESET_B 0
*RES
1 *3302:L_HI *3301:RESET_B 43.9835 
*END

*D_NET *978 0.000453859
*CONN
*I *3157:RESET_B I *D sg13g2_dfrbpq_1
*I *3158:L_HI O *D sg13g2_tiehi
*CAP
1 *3157:RESET_B 6.06137e-05
2 *3158:L_HI 0.000166316
3 *978:8 0.000226929
4 *253:8 *978:8 0
5 *259:10 *978:8 0
6 *410:14 *3157:RESET_B 0
7 *757:53 *3157:RESET_B 0
*RES
1 *3158:L_HI *978:8 41.5862 
2 *978:8 *3157:RESET_B 40.5356 
*END

*D_NET *979 0.0211585
*CONN
*I *2740:A I *D sg13g2_nor2b_1
*I *2739:A I *D sg13g2_nor2_1
*I *2741:B_N I *D sg13g2_nor2b_1
*I *3558:X O *D sg13g2_buf_1
*CAP
1 *2740:A 1.56943e-05
2 *2739:A 5.61606e-05
3 *2741:B_N 0
4 *3558:X 0
5 *979:35 0.000103516
6 *979:33 0.00092392
7 *979:16 0
8 *979:12 0.00611719
9 *979:10 0.00614793
10 *979:6 0.000922995
11 *979:10 *990:14 0.00211248
12 *979:12 *990:16 0
13 *979:12 *990:31 0
14 *979:12 *1062:14 0
15 *979:12 *1076:20 0.000342416
16 *979:12 *1140:23 0.00323377
17 *979:12 *1146:21 0
18 *979:33 *990:31 0
19 *2808:B1 *2740:A 3.34019e-05
20 *2808:B1 *979:33 0.00012777
21 *2808:B1 *979:35 6.76184e-05
22 *2808:A2 *979:33 0
23 *455:26 *979:33 0
24 *493:48 *979:12 0
25 *765:8 *979:10 0
26 *765:18 *979:10 0
27 *773:23 *979:33 0.000922032
28 *775:8 *2739:A 3.15716e-05
*RES
1 *3558:X *979:6 40 
2 *979:6 *979:10 30.9798 
3 *979:10 *979:12 56.341 
4 *979:12 *979:16 40 
5 *979:16 *2741:B_N 20 
6 *979:12 *979:33 49.8082 
7 *979:33 *979:35 0.42745 
8 *979:35 *2739:A 20.8111 
9 *979:35 *2740:A 20.3167 
*END

*D_NET *980 0.000850703
*CONN
*I *3253:RESET_B I *D sg13g2_dfrbpq_1
*I *3254:L_HI O *D sg13g2_tiehi
*CAP
1 *3253:RESET_B 0.000255606
2 *3254:L_HI 0.000255606
3 *733:37 *3253:RESET_B 0.000339491
4 *761:50 *3253:RESET_B 0
*RES
1 *3254:L_HI *3253:RESET_B 42.6162 
*END

*D_NET *981 0.000464862
*CONN
*I *3155:RESET_B I *D sg13g2_dfrbpq_1
*I *3156:L_HI O *D sg13g2_tiehi
*CAP
1 *3155:RESET_B 0.000232431
2 *3156:L_HI 0.000232431
3 *3155:D *3155:RESET_B 0
*RES
1 *3156:L_HI *3155:RESET_B 42.6162 
*END

*D_NET *982 0.00288489
*CONN
*I *3345:RESET_B I *D sg13g2_dfrbpq_1
*I *3346:L_HI O *D sg13g2_tiehi
*CAP
1 *3345:RESET_B 0.000244384
2 *3346:L_HI 0.000502666
3 *982:10 0.00074705
4 *3345:RESET_B *2877:B 0
5 *3345:RESET_B *3565:A 0.000306701
6 *982:10 *1025:12 0
7 *982:10 *1124:14 0.000130011
8 *3686:A *982:10 0
9 *241:14 *982:10 0.000209632
10 *495:8 *982:10 0.000614396
11 *709:44 *982:10 0
12 *765:25 *3345:RESET_B 0
13 *765:33 *982:10 0.000130055
*RES
1 *3346:L_HI *982:10 46.077 
2 *982:10 *3345:RESET_B 42.6162 
*END

*D_NET *983 0.00047435
*CONN
*I *3153:RESET_B I *D sg13g2_dfrbpq_1
*I *3154:L_HI O *D sg13g2_tiehi
*CAP
1 *3153:RESET_B 0.000237175
2 *3154:L_HI 0.000237175
3 *2757:A1 *3153:RESET_B 0
4 *410:14 *3153:RESET_B 0
5 *755:35 *3153:RESET_B 0
6 *766:37 *3153:RESET_B 0
*RES
1 *3154:L_HI *3153:RESET_B 41.8334 
*END

*D_NET *984 0.000852797
*CONN
*I *3251:RESET_B I *D sg13g2_dfrbpq_1
*I *3252:L_HI O *D sg13g2_tiehi
*CAP
1 *3251:RESET_B 0.000221189
2 *3252:L_HI 0.000221189
3 *724:43 *3251:RESET_B 0.000265469
4 *733:37 *3251:RESET_B 0
5 *798:22 *3251:RESET_B 0.000144949
*RES
1 *3252:L_HI *3251:RESET_B 42.781 
*END

*D_NET *985 0.000460298
*CONN
*I *3151:RESET_B I *D sg13g2_dfrbpq_1
*I *3152:L_HI O *D sg13g2_tiehi
*CAP
1 *3151:RESET_B 0.000230149
2 *3152:L_HI 0.000230149
3 *3155:CLK *3151:RESET_B 0
4 *699:25 *3151:RESET_B 0
*RES
1 *3152:L_HI *3151:RESET_B 42.6162 
*END

*D_NET *986 0.000730749
*CONN
*I *3299:RESET_B I *D sg13g2_dfrbpq_1
*I *3300:L_HI O *D sg13g2_tiehi
*CAP
1 *3299:RESET_B 0.000365375
2 *3300:L_HI 0.000365375
3 *3299:RESET_B *3049:B1 0
4 *3299:RESET_B *1134:21 0
5 *3299:RESET_B *1135:12 0
6 *621:37 *3299:RESET_B 0
7 *708:44 *3299:RESET_B 0
*RES
1 *3300:L_HI *3299:RESET_B 43.8522 
*END

*D_NET *987 0.000440396
*CONN
*I *3149:RESET_B I *D sg13g2_dfrbpq_1
*I *3150:L_HI O *D sg13g2_tiehi
*CAP
1 *3149:RESET_B 0.000220198
2 *3150:L_HI 0.000220198
3 *3149:CLK *3149:RESET_B 0
*RES
1 *3150:L_HI *3149:RESET_B 42.1836 
*END

*D_NET *988 0.00132511
*CONN
*I *3249:RESET_B I *D sg13g2_dfrbpq_1
*I *3250:L_HI O *D sg13g2_tiehi
*CAP
1 *3249:RESET_B 0.000396653
2 *3250:L_HI 0.000396653
3 *357:28 *3249:RESET_B 0
4 *707:8 *3249:RESET_B 0
5 *724:43 *3249:RESET_B 0.0005318
*RES
1 *3250:L_HI *3249:RESET_B 43.914 
*END

*D_NET *989 0.000526251
*CONN
*I *3147:RESET_B I *D sg13g2_dfrbpq_1
*I *3148:L_HI O *D sg13g2_tiehi
*CAP
1 *3147:RESET_B 0.000263125
2 *3148:L_HI 0.000263125
3 *3147:D *3147:RESET_B 0
*RES
1 *3148:L_HI *3147:RESET_B 42.6162 
*END

*D_NET *990 0.0196477
*CONN
*I *2740:B_N I *D sg13g2_nor2b_1
*I *2739:B I *D sg13g2_nor2_1
*I *2741:A I *D sg13g2_nor2b_1
*I *3559:X O *D sg13g2_buf_1
*CAP
1 *2740:B_N 0
2 *2739:B 0.000167581
3 *2741:A 0
4 *3559:X 0.000185895
5 *990:31 0.000919001
6 *990:20 0
7 *990:16 0.00585182
8 *990:14 0.00580879
9 *990:10 0.000894291
10 *990:14 *1024:8 0
11 *990:16 *1123:16 0
12 *990:16 *1140:23 0
13 *2812:A1 *2739:B 7.52149e-05
14 *2873:C *990:14 0
15 *493:12 *990:14 0.000210627
16 *493:20 *990:14 7.34889e-05
17 *493:48 *990:16 0.00192108
18 *714:20 *990:14 0.000503757
19 *714:58 *990:16 0
20 *775:23 *2739:B 0.000318694
21 *775:23 *990:31 0.000604974
22 *835:56 *2739:B 0
23 *835:56 *990:31 0
24 *835:64 *2739:B 0
25 *979:10 *990:14 0.00211248
26 *979:12 *990:16 0
27 *979:12 *990:31 0
28 *979:33 *990:31 0
*RES
1 *3559:X *990:10 42.3072 
2 *990:10 *990:14 30.4854 
3 *990:14 *990:16 56.1247 
4 *990:16 *990:20 40 
5 *990:20 *2741:A 20 
6 *990:16 *990:31 28.549 
7 *990:31 *2739:B 41.8334 
8 *990:31 *2740:B_N 40 
*END

*D_NET *991 0.000480695
*CONN
*I *3323:RESET_B I *D sg13g2_dfrbpq_1
*I *3324:L_HI O *D sg13g2_tiehi
*CAP
1 *3323:RESET_B 0.000240348
2 *3324:L_HI 0.000240348
3 *3106:A1 *3323:RESET_B 0
4 *3109:B *3323:RESET_B 0
*RES
1 *3324:L_HI *3323:RESET_B 42.2866 
*END

*D_NET *992 0.000620486
*CONN
*I *3247:RESET_B I *D sg13g2_dfrbpq_1
*I *3248:L_HI O *D sg13g2_tiehi
*CAP
1 *3247:RESET_B 0.000310243
2 *3248:L_HI 0.000310243
3 *3:30 *3247:RESET_B 0
4 *358:14 *3247:RESET_B 0
*RES
1 *3248:L_HI *3247:RESET_B 42.6162 
*END

*D_NET *993 0.000626113
*CONN
*I *3297:RESET_B I *D sg13g2_dfrbpq_1
*I *3298:L_HI O *D sg13g2_tiehi
*CAP
1 *3297:RESET_B 0.000241417
2 *3298:L_HI 0.000241417
3 *3297:RESET_B *1036:12 0
4 *3297:RESET_B *1042:14 0.000143278
5 *3477:A *3297:RESET_B 0
*RES
1 *3298:L_HI *3297:RESET_B 42.1836 
*END

*D_NET *994 0.000491925
*CONN
*I *3245:RESET_B I *D sg13g2_dfrbpq_1
*I *3246:L_HI O *D sg13g2_tiehi
*CAP
1 *3245:RESET_B 0.000245962
2 *3246:L_HI 0.000245962
3 *861:59 *3245:RESET_B 0
4 *883:100 *3245:RESET_B 0
*RES
1 *3246:L_HI *3245:RESET_B 42.2866 
*END

*D_NET *995 0.000488414
*CONN
*I *3335:RESET_B I *D sg13g2_dfrbpq_1
*I *3336:L_HI O *D sg13g2_tiehi
*CAP
1 *3335:RESET_B 0.000244207
2 *3336:L_HI 0.000244207
3 *3125:B1 *3335:RESET_B 0
4 *866:52 *3335:RESET_B 0
*RES
1 *3336:L_HI *3335:RESET_B 42.1836 
*END

*D_NET *996 0.00062313
*CONN
*I *3243:RESET_B I *D sg13g2_dfrbpq_1
*I *3244:L_HI O *D sg13g2_tiehi
*CAP
1 *3243:RESET_B 8.1307e-05
2 *3244:L_HI 0.000230258
3 *996:10 0.000311565
4 *3:30 *3243:RESET_B 0
5 *3:30 *996:10 0
6 *296:8 *996:10 0
7 *358:14 *3243:RESET_B 0
8 *759:10 *996:10 0
*RES
1 *3244:L_HI *996:10 42.2763 
2 *996:10 *3243:RESET_B 40.7519 
*END

*D_NET *997 0.000701107
*CONN
*I *3295:RESET_B I *D sg13g2_dfrbpq_1
*I *3296:L_HI O *D sg13g2_tiehi
*CAP
1 *3295:RESET_B 0.000213169
2 *3296:L_HI 0.000213169
3 *3295:RESET_B *1139:25 0.000274769
4 *3295:RESET_B *1142:39 0
*RES
1 *3296:L_HI *3295:RESET_B 42.1836 
*END

*D_NET *998 0.000764356
*CONN
*I *3241:RESET_B I *D sg13g2_dfrbpq_1
*I *3242:L_HI O *D sg13g2_tiehi
*CAP
1 *3241:RESET_B 0.000341993
2 *3242:L_HI 0.000341993
3 *3241:RESET_B *3237:RESET_B 0
4 *3237:D *3241:RESET_B 8.03692e-05
5 *358:14 *3241:RESET_B 0
*RES
1 *3242:L_HI *3241:RESET_B 44.0582 
*END

*D_NET *999 0.000421496
*CONN
*I *3321:RESET_B I *D sg13g2_dfrbpq_1
*I *3322:L_HI O *D sg13g2_tiehi
*CAP
1 *3321:RESET_B 0.000210748
2 *3322:L_HI 0.000210748
3 *3093:B *3321:RESET_B 0
4 *3321:D *3321:RESET_B 0
*RES
1 *3322:L_HI *3321:RESET_B 42.2866 
*END

*D_NET *1000 0.000356973
*CONN
*I *3239:RESET_B I *D sg13g2_dfrbpq_1
*I *3240:L_HI O *D sg13g2_tiehi
*CAP
1 *3239:RESET_B 0.000178487
2 *3240:L_HI 0.000178487
3 *3239:RESET_B *3595:A 0
4 *2920:A *3239:RESET_B 0
5 *2928:A *3239:RESET_B 0
6 *3239:D *3239:RESET_B 0
*RES
1 *3240:L_HI *3239:RESET_B 42.1218 
*END

*D_NET *1001 0.00411933
*CONN
*I *2735:B_N I *D sg13g2_nor2b_1
*I *2736:B I *D sg13g2_nand2b_1
*I *3560:X O *D sg13g2_buf_1
*CAP
1 *2735:B_N 0
2 *2736:B 9.91778e-05
3 *3560:X 0.00151691
4 *1001:12 0.000152361
5 *1001:8 0.00157009
6 s_axil_arready *1001:8 0
7 s_axil_rdata[0] *1001:8 0
8 s_axil_rdata[5] *1001:8 0
9 s_axil_rdata[6] *1001:8 0
10 s_axil_rdata[8] *1001:8 0
11 s_axil_rdata[9] *1001:8 0
12 *3664:A *1001:8 0
13 *3678:A *1001:8 0
14 *3682:A *1001:8 0
15 *375:18 *1001:8 0
16 *702:46 *1001:8 0
17 *702:59 *1001:8 0
18 *718:14 *1001:8 4.78356e-05
19 *719:10 *1001:8 0
20 *763:26 *1001:8 0
21 *800:22 *2736:B 0.000342035
22 *800:22 *1001:12 0.000181279
23 *801:25 *1001:8 0.000209637
*RES
1 *3560:X *1001:8 35.3779 
2 *1001:8 *1001:12 20.8446 
3 *1001:12 *2736:B 41.5862 
4 *1001:12 *2735:B_N 40 
*END

*D_NET *1002 0.000647515
*CONN
*I *3293:RESET_B I *D sg13g2_dfrbpq_1
*I *3294:L_HI O *D sg13g2_tiehi
*CAP
1 *3293:RESET_B 0.000186466
2 *3294:L_HI 0.000186466
3 *3293:RESET_B *1142:39 0.000274583
4 *702:67 *3293:RESET_B 0
*RES
1 *3294:L_HI *3293:RESET_B 42.1836 
*END

*D_NET *1003 0.000703598
*CONN
*I *3237:RESET_B I *D sg13g2_dfrbpq_1
*I *3238:L_HI O *D sg13g2_tiehi
*CAP
1 *3237:RESET_B 0.000214834
2 *3238:L_HI 0.000214834
3 *3237:D *3237:RESET_B 0
4 *3241:RESET_B *3237:RESET_B 0
5 *358:14 *3237:RESET_B 0.000273929
*RES
1 *3238:L_HI *3237:RESET_B 42.4308 
*END

*D_NET *1004 0.000482515
*CONN
*I *3341:RESET_B I *D sg13g2_dfrbpq_1
*I *3342:L_HI O *D sg13g2_tiehi
*CAP
1 *3341:RESET_B 0.000241258
2 *3342:L_HI 0.000241258
3 *805:24 *3341:RESET_B 0
4 *881:122 *3341:RESET_B 0
*RES
1 *3342:L_HI *3341:RESET_B 42.1836 
*END

*D_NET *1005 0.00042827
*CONN
*I *3235:RESET_B I *D sg13g2_dfrbpq_1
*I *3236:L_HI O *D sg13g2_tiehi
*CAP
1 *3235:RESET_B 0.000214135
2 *3236:L_HI 0.000214135
3 *3235:RESET_B *3233:RESET_B 0
4 *3235:RESET_B *1117:14 0
5 *3235:CLK *3235:RESET_B 0
6 *358:14 *3235:RESET_B 0
*RES
1 *3236:L_HI *3235:RESET_B 42.1836 
*END

*D_NET *1006 0.000462141
*CONN
*I *3291:RESET_B I *D sg13g2_dfrbpq_1
*I *3292:L_HI O *D sg13g2_tiehi
*CAP
1 *3291:RESET_B 0.00022337
2 *3292:L_HI 0.00022337
3 *375:18 *3291:RESET_B 0
4 *711:68 *3291:RESET_B 1.54008e-05
*RES
1 *3292:L_HI *3291:RESET_B 42.4308 
*END

*D_NET *1007 0.000583743
*CONN
*I *3233:RESET_B I *D sg13g2_dfrbpq_1
*I *3234:L_HI O *D sg13g2_tiehi
*CAP
1 *3233:RESET_B 0.000291872
2 *3234:L_HI 0.000291872
3 *3233:RESET_B *2709:A 0
4 *3233:RESET_B *1117:14 0
5 *3233:RESET_B *1118:12 0
6 *3235:RESET_B *3233:RESET_B 0
7 *764:23 *3233:RESET_B 0
*RES
1 *3234:L_HI *3233:RESET_B 42.6162 
*END

*D_NET *1008 0.000398786
*CONN
*I *3319:RESET_B I *D sg13g2_dfrbpq_1
*I *3320:L_HI O *D sg13g2_tiehi
*CAP
1 *3319:RESET_B 0.000199393
2 *3320:L_HI 0.000199393
*RES
1 *3320:L_HI *3319:RESET_B 42.1836 
*END

*D_NET *1009 0.000850691
*CONN
*I *3231:RESET_B I *D sg13g2_dfrbpq_1
*I *3232:L_HI O *D sg13g2_tiehi
*CAP
1 *3231:RESET_B 0.000233139
2 *3232:L_HI 0.000233139
3 *356:22 *3231:RESET_B 0
4 *748:31 *3231:RESET_B 0
5 *822:54 *3231:RESET_B 0.000240054
6 *861:69 *3231:RESET_B 0.000144358
*RES
1 *3232:L_HI *3231:RESET_B 42.6162 
*END

*D_NET *1010 0.00125505
*CONN
*I *3289:RESET_B I *D sg13g2_dfrbpq_1
*I *3290:L_HI O *D sg13g2_tiehi
*CAP
1 *3289:RESET_B 0.000406303
2 *3290:L_HI 0.000406303
3 *3289:RESET_B *1144:10 0.000111016
4 *3289:RESET_B *1147:20 0.000283621
5 *719:30 *3289:RESET_B 0
6 *823:80 *3289:RESET_B 4.78028e-05
*RES
1 *3290:L_HI *3289:RESET_B 44.017 
*END

*D_NET *1011 0.00183824
*CONN
*I *3229:RESET_B I *D sg13g2_dfrbpq_1
*I *3230:L_HI O *D sg13g2_tiehi
*CAP
1 *3229:RESET_B 0.000203591
2 *3230:L_HI 0.000362399
3 *1011:8 0.00056599
4 *3229:RESET_B *1135:46 0.000338377
5 *3229:CLK *1011:8 0
6 *515:8 *1011:8 0.000287672
7 *711:37 *3229:RESET_B 8.0216e-05
8 *778:29 *1011:8 0
9 *822:78 *3229:RESET_B 0
10 *822:95 *3229:RESET_B 0
11 *898:97 *1011:8 0
*RES
1 *3230:L_HI *1011:8 43.3166 
2 *1011:8 *3229:RESET_B 42.266 
*END

*D_NET *1012 0.00499446
*CONN
*I *3453:A I *D sg13g2_buf_1
*I *3561:X O *D sg13g2_buf_1
*CAP
1 *3453:A 0
2 *3561:X 8.11822e-05
3 *1012:18 0.00164034
4 *1012:8 0.00172152
5 *1012:18 *1023:8 0
6 *1012:18 *1023:12 0
7 *1012:18 *1079:28 0
8 *1012:18 *1097:14 0
9 *1012:18 *1109:14 0.000145157
10 *1012:18 *1113:14 0.000395371
11 *2731:A *1012:18 0
12 *3134:B *1012:18 0
13 *351:10 *1012:18 0
14 *353:8 *1012:18 0
15 *354:24 *1012:18 0.000176501
16 *355:12 *1012:18 0
17 *803:30 *1012:18 0.000240548
18 *803:38 *1012:18 0
19 *862:10 *1012:18 0.000240536
20 *866:96 *1012:18 0.000353303
21 *890:36 *1012:18 0
*RES
1 *3561:X *1012:8 40.7519 
2 *1012:8 *1012:18 38.7357 
3 *1012:18 *3453:A 20 
*END

*D_NET *1013 0.000587664
*CONN
*I *3333:RESET_B I *D sg13g2_dfrbpq_1
*I *3334:L_HI O *D sg13g2_tiehi
*CAP
1 *3333:RESET_B 0.000156447
2 *3334:L_HI 0.000156447
3 *3333:D *3333:RESET_B 0
4 *890:26 *3333:RESET_B 0.000274769
*RES
1 *3334:L_HI *3333:RESET_B 41.8334 
*END

*D_NET *1014 0.000543737
*CONN
*I *3227:RESET_B I *D sg13g2_dfrbpq_1
*I *3228:L_HI O *D sg13g2_tiehi
*CAP
1 *3227:RESET_B 0.000271869
2 *3228:L_HI 0.000271869
3 *2903:B *3227:RESET_B 0
4 *3227:D *3227:RESET_B 0
5 *697:264 *3227:RESET_B 0
*RES
1 *3228:L_HI *3227:RESET_B 42.6162 
*END

*D_NET *1015 0.000652261
*CONN
*I *3287:RESET_B I *D sg13g2_dfrbpq_1
*I *3288:L_HI O *D sg13g2_tiehi
*CAP
1 *3287:RESET_B 0.000188877
2 *3288:L_HI 0.000188877
3 *3287:RESET_B *3285:RESET_B 0
4 *3287:RESET_B *1142:39 0.000274507
*RES
1 *3288:L_HI *3287:RESET_B 42.1836 
*END

*D_NET *1016 0.00231946
*CONN
*I *3225:RESET_B I *D sg13g2_dfrbpq_1
*I *3226:L_HI O *D sg13g2_tiehi
*CAP
1 *3225:RESET_B 0.00025025
2 *3226:L_HI 0.000142029
3 *1016:8 0.000392279
4 *3225:RESET_B *1134:27 0
5 *388:14 *3225:RESET_B 0
6 *769:31 *1016:8 0.00076745
7 *770:28 *1016:8 0.00076745
*RES
1 *3226:L_HI *1016:8 43.5638 
2 *1016:8 *3225:RESET_B 42.266 
*END

*D_NET *1017 0.000823078
*CONN
*I *3317:RESET_B I *D sg13g2_dfrbpq_1
*I *3318:L_HI O *D sg13g2_tiehi
*CAP
1 *3317:RESET_B 0.000241952
2 *3318:L_HI 0.000241952
3 *3317:RESET_B *1126:29 0.000339174
4 *748:31 *3317:RESET_B 0
*RES
1 *3318:L_HI *3317:RESET_B 42.6162 
*END

*D_NET *1018 0.00047053
*CONN
*I *3223:RESET_B I *D sg13g2_dfrbpq_1
*I *3224:L_HI O *D sg13g2_tiehi
*CAP
1 *3223:RESET_B 0.000235265
2 *3224:L_HI 0.000235265
3 *356:22 *3223:RESET_B 0
4 *861:59 *3223:RESET_B 0
*RES
1 *3224:L_HI *3223:RESET_B 42.1836 
*END

*D_NET *1019 0.000757473
*CONN
*I *3285:RESET_B I *D sg13g2_dfrbpq_1
*I *3286:L_HI O *D sg13g2_tiehi
*CAP
1 *3285:RESET_B 0.000378737
2 *3286:L_HI 0.000378737
3 *3285:RESET_B *1142:39 0
4 *3285:CLK *3285:RESET_B 0
5 *3287:RESET_B *3285:RESET_B 0
6 *711:68 *3285:RESET_B 0
*RES
1 *3286:L_HI *3285:RESET_B 44.1612 
*END

*D_NET *1020 0.00169351
*CONN
*I *3221:RESET_B I *D sg13g2_dfrbpq_1
*I *3222:L_HI O *D sg13g2_tiehi
*CAP
1 *3221:RESET_B 0.00023511
2 *3222:L_HI 0.000361078
3 *1020:8 0.000596187
4 *3221:RESET_B *1134:27 0
5 *3221:RESET_B *1135:32 0
6 *285:10 *1020:8 0.000501132
7 *508:10 *1020:8 0
8 *883:100 *1020:8 0
*RES
1 *3222:L_HI *1020:8 43.5638 
2 *1020:8 *3221:RESET_B 42.266 
*END

*D_NET *1021 0.000555615
*CONN
*I *3145:RESET_B I *D sg13g2_dfrbpq_1
*I *3146:L_HI O *D sg13g2_tiehi
*CAP
1 *3145:RESET_B 0.000257787
2 *3146:L_HI 0.000257787
3 *3145:RESET_B *1139:29 0
4 *2870:C *3145:RESET_B 0
5 *2871:B *3145:RESET_B 2.46413e-05
6 *3145:D *3145:RESET_B 0
7 *702:59 *3145:RESET_B 0
8 *702:67 *3145:RESET_B 1.54008e-05
9 *763:32 *3145:RESET_B 0
*RES
1 *3146:L_HI *3145:RESET_B 42.7192 
*END

*D_NET *1022 0.00134122
*CONN
*I *3565:A I *D sg13g2_buf_1
*I *3472:X O *D sg13g2_dlygate4sd3_1
*CAP
1 *3565:A 0.000517261
2 *3472:X 0.000517261
3 *3565:A *3345:D 0
4 *3345:RESET_B *3565:A 0.000306701
5 *3527:A *3565:A 0
6 *3558:A *3565:A 0
7 *171:8 *3565:A 0
8 *375:14 *3565:A 0
9 *765:12 *3565:A 0
*RES
1 *3472:X *3565:A 45.2942 
*END

*D_NET *1023 0.01474
*CONN
*I *3447:A I *D sg13g2_buf_1
*I *3044:A I *D sg13g2_nor3_1
*I *3562:X O *D sg13g2_buf_1
*CAP
1 *3447:A 7.4932e-05
2 *3044:A 8.95557e-05
3 *3562:X 0.000730812
4 *1023:34 0.000358544
5 *1023:28 0.00113131
6 *1023:18 0.00425013
7 *1023:14 0.00338781
8 *1023:12 0.000339654
9 *1023:8 0.000995533
10 *3044:A *2717:A 0
11 *1023:12 *1057:12 0
12 *1023:12 *1113:14 0
13 *1023:18 *1079:28 0
14 *1023:18 *1097:14 0
15 *1023:18 *1112:18 0
16 *1023:18 *1114:14 0
17 *1023:28 *1091:10 0.000615031
18 *2730:A *1023:12 0
19 *3000:A *1023:18 0.000720256
20 *3438:A *3447:A 0.000129367
21 *3438:A *1023:12 0.000112349
22 *350:10 *1023:18 0.000160758
23 *351:10 *3447:A 0.000144632
24 *351:10 *1023:12 0.000144009
25 *353:8 *1023:18 0
26 *358:10 *1023:18 0
27 *370:10 *3044:A 0
28 *526:12 *1023:18 4.80489e-05
29 *708:82 *1023:28 0
30 *821:34 *1023:18 0
31 *857:12 *1023:28 0.00018387
32 *863:22 *1023:18 0.000184723
33 *867:68 *1023:28 0.00018387
34 *867:88 *3044:A 0.000144493
35 *873:39 *1023:18 0
36 *873:51 *1023:28 0
37 *885:10 *1023:18 0
38 *890:36 *1023:18 0.000610285
39 *1012:18 *1023:8 0
40 *1012:18 *1023:12 0
*RES
1 *3562:X *1023:8 48.2606 
2 *1023:8 *1023:12 22.6986 
3 *1023:12 *1023:14 20 
4 *1023:14 *1023:18 32.3111 
5 *1023:18 *1023:28 48.343 
6 *1023:28 *1023:34 43.1312 
7 *1023:34 *3044:A 40.9682 
8 *1023:12 *3447:A 20.9682 
*END

*D_NET *1024 0.00149728
*CONN
*I *3345:D I *D sg13g2_dfrbpq_1
*I *3473:X O *D sg13g2_dlygate4sd3_1
*CAP
1 *3345:D 0.000187057
2 *3473:X 0.000469645
3 *1024:8 0.000656702
4 *3345:D *3559:A 0
5 *3565:A *3345:D 0
6 *491:10 *1024:8 0.000183877
7 *990:14 *1024:8 0
*RES
1 *3473:X *1024:8 44.5526 
2 *1024:8 *3345:D 41.6171 
*END

*D_NET *1025 0.00290692
*CONN
*I *3605:A I *D sg13g2_buf_1
*I *3474:X O *D sg13g2_dlygate4sd3_1
*CAP
1 *3605:A 0
2 *3474:X 0.00109939
3 *1025:12 0.00109939
4 *1025:12 *2722:A 0.000498549
5 *1025:12 *1124:14 0
6 *3144:B *1025:12 0
7 *3215:D *1025:12 0
8 *3507:A *1025:12 0
9 *3686:A *1025:12 0
10 *241:14 *1025:12 0.000209593
11 *709:44 *1025:12 0
12 *982:10 *1025:12 0
*RES
1 *3474:X *1025:12 31.227 
2 *1025:12 *3605:A 20 
*END

*D_NET *1026 0.000858017
*CONN
*I *2878:A I *D sg13g2_and3_1
*I *3475:X O *D sg13g2_dlygate4sd3_1
*CAP
1 *2878:A 0.000296099
2 *3475:X 0.000296099
3 *2878:A *1049:14 0
4 *2878:C *2878:A 4.78359e-05
5 *3143:A2 *2878:A 0
6 *282:12 *2878:A 7.92265e-05
7 *714:39 *2878:A 0.000138756
*RES
1 *3475:X *2878:A 42.9973 
*END

*D_NET *1027 0.00251851
*CONN
*I *3573:A I *D sg13g2_buf_1
*I *3476:X O *D sg13g2_dlygate4sd3_1
*CAP
1 *3573:A 0.000437129
2 *3476:X 0.000295877
3 *1027:14 0.000733006
4 *3573:A *1074:18 0
5 *1027:14 *3574:A 0
6 *1027:14 *1074:18 0
7 *1027:14 *1077:8 4.79124e-05
8 *3046:B *1027:14 0
9 *3046:D *1027:14 0
10 *368:16 *1027:14 7.93167e-05
11 *370:10 *3573:A 0
12 *370:24 *3573:A 0.000111386
13 *370:24 *1027:14 8.00842e-05
14 *867:68 *3573:A 0
15 *876:22 *1027:14 0.000126063
16 *886:16 *3573:A 0.00014391
17 *886:16 *1027:14 0.000126131
18 *886:24 *3573:A 0
19 *886:35 *3573:A 0.000337693
*RES
1 *3476:X *1027:14 43.3295 
2 *1027:14 *3573:A 44.3543 
*END

*D_NET *1028 0.000400395
*CONN
*I *3297:D I *D sg13g2_dfrbpq_1
*I *3477:X O *D sg13g2_dlygate4sd3_1
*CAP
1 *3297:D 0.000127996
2 *3477:X 0.000127996
3 *3297:D *1036:12 0
4 *371:10 *3297:D 0
5 *821:34 *3297:D 0.000144403
*RES
1 *3477:X *3297:D 41.1845 
*END

*D_NET *1029 0.00285382
*CONN
*I *3574:A I *D sg13g2_buf_1
*I *3478:X O *D sg13g2_dlygate4sd3_1
*CAP
1 *3574:A 0.000898533
2 *3478:X 0.000160114
3 *1029:8 0.00105865
4 *3574:A *3576:A 0
5 *3574:A *1077:8 0
6 *1029:8 *1081:8 0
7 *1029:8 *1090:10 0
8 *3046:B *3574:A 0
9 *3046:C *3574:A 1.54556e-05
10 *3450:A *3574:A 0.000144658
11 *217:9 *1029:8 0
12 *219:9 *3574:A 0
13 *368:6 *3574:A 0
14 *368:16 *3574:A 0
15 *623:10 *3574:A 1.674e-05
16 *626:10 *3574:A 0.000240536
17 *876:16 *3574:A 0.000143171
18 *876:68 *3574:A 0.000112558
19 *889:35 *3574:A 6.34045e-05
20 *1027:14 *3574:A 0
*RES
1 *3478:X *1029:8 41.5862 
2 *1029:8 *3574:A 48.8271 
*END

*D_NET *1030 0.000740553
*CONN
*I *3299:D I *D sg13g2_dfrbpq_1
*I *3479:X O *D sg13g2_dlygate4sd3_1
*CAP
1 *3299:D 0.000128139
2 *3479:X 0.000128139
3 *2930:C *3299:D 0.000242138
4 *621:37 *3299:D 0.000242138
*RES
1 *3479:X *3299:D 41.6171 
*END

*D_NET *1031 0.000862814
*CONN
*I *3577:A I *D sg13g2_buf_1
*I *3480:X O *D sg13g2_dlygate4sd3_1
*CAP
1 *3577:A 0
2 *3480:X 6.0864e-05
3 *1031:14 0.000347023
4 *1031:8 0.000407887
5 *3047:A1 *1031:8 4.70394e-05
6 *368:16 *1031:8 0
*RES
1 *3480:X *1031:8 40.5356 
2 *1031:8 *1031:14 43.1312 
3 *1031:14 *3577:A 40 
*END

*D_NET *1032 0.000636634
*CONN
*I *3303:D I *D sg13g2_dfrbpq_1
*I *3481:X O *D sg13g2_dlygate4sd3_1
*CAP
1 *3303:D 0.000157837
2 *3481:X 0.000157837
3 *3303:D *2721:A 0.000176334
4 *3491:A *3303:D 0.000144624
*RES
1 *3481:X *3303:D 41.6171 
*END

*D_NET *1033 0.00135283
*CONN
*I *3595:A I *D sg13g2_buf_1
*I *3482:X O *D sg13g2_dlygate4sd3_1
*CAP
1 *3595:A 0.000459263
2 *3482:X 0.000459263
3 *3595:A *1072:10 0.000144767
4 *3595:A *1114:8 0
5 *3239:RESET_B *3595:A 0
6 *3239:D *3595:A 4.78192e-05
7 *3496:A *3595:A 0.000241715
8 *3516:A *3595:A 0
9 *358:14 *3595:A 0
*RES
1 *3482:X *3595:A 45.356 
*END

*D_NET *1034 0.0149181
*CONN
*I *2872:B I *D sg13g2_nand2_1
*I *2874:D I *D sg13g2_nand4_1
*I *2876:A2 I *D sg13g2_a21o_1
*I *3563:X O *D sg13g2_buf_1
*CAP
1 *2872:B 0.000774044
2 *2874:D 0
3 *2876:A2 0
4 *3563:X 0
5 *1034:37 0.000341095
6 *1034:20 0.000357768
7 *1034:16 0.00129599
8 *1034:8 0.00411211
9 *1034:6 0.00360684
10 *2872:B *1062:8 0
11 *2872:B *1124:26 0.00129987
12 *1034:8 *1047:8 0
13 *1034:8 *1050:10 0
14 *1034:8 *1054:8 0
15 *1034:8 *1057:12 0
16 *1034:8 *1090:16 0
17 *1034:8 *1109:14 0
18 *1034:8 *1113:14 0
19 *1034:16 *3588:A 0
20 *1034:16 *3589:A 0
21 *1034:20 *3589:A 2.52757e-05
22 *1034:37 *3589:A 0.000344886
23 *1034:37 *3592:A 4.78192e-05
24 *1034:37 *1107:8 0.000176083
25 *1034:37 *1124:26 8.0342e-05
26 *1034:37 *1124:45 0.000208756
27 *3500:A *1034:16 8.02434e-05
28 *3510:A *1034:16 0
29 *3511:A *1034:16 0
30 *213:9 *1034:8 0
31 *217:9 *1034:8 0
32 *221:9 *1034:8 0
33 *225:13 *1034:8 0
34 *227:9 *1034:8 0.00151322
35 *375:8 *2872:B 0
36 *491:10 *2872:B 0.000144673
37 *493:20 *1034:16 0
38 *709:44 *2872:B 0.000323603
39 *709:52 *2872:B 0.000112422
40 *765:18 *2872:B 0
41 *895:100 *1034:37 7.30101e-05
*RES
1 *3563:X *1034:6 40 
2 *1034:6 *1034:8 37.6774 
3 *1034:8 *1034:16 45.1191 
4 *1034:16 *1034:20 20.17 
5 *1034:20 *2876:A2 20 
6 *1034:20 *1034:37 43.8985 
7 *1034:37 *2874:D 20 
8 *1034:16 *2872:B 49.6923 
*END

*D_NET *1035 0.00132974
*CONN
*I *3133:A2 I *D sg13g2_o21ai_1
*I *3483:X O *D sg13g2_dlygate4sd3_1
*CAP
1 *3133:A2 0
2 *3483:X 0.000110369
3 *1035:8 0.000110369
4 *3132:B *1035:8 0.000215371
5 *862:10 *1035:8 0.000340762
6 *885:10 *1035:8 0.000552866
*RES
1 *3483:X *1035:8 42.575 
2 *1035:8 *3133:A2 40 
*END

*D_NET *1036 0.00341017
*CONN
*I *3576:A I *D sg13g2_buf_1
*I *3484:X O *D sg13g2_dlygate4sd3_1
*CAP
1 *3576:A 0.000277713
2 *3484:X 0.000960965
3 *1036:12 0.00123868
4 *1036:12 *2718:A 0
5 *1036:12 *1042:14 0
6 *1036:12 *1133:20 2.25618e-05
7 *3047:A1 *3576:A 0
8 *3047:A2 *3576:A 0
9 *3297:RESET_B *1036:12 0
10 *3297:D *1036:12 0
11 *3477:A *1036:12 0
12 *3574:A *3576:A 0
13 *368:6 *3576:A 0
14 *623:10 *3576:A 0.000112634
15 *624:10 *3576:A 0
16 *708:82 *1036:12 0
17 *811:26 *1036:12 7.30101e-05
18 *821:34 *1036:12 0
19 *868:29 *1036:12 0.00049286
20 *876:10 *1036:12 0
21 *894:96 *1036:12 0.000231749
*RES
1 *3484:X *1036:12 49.2082 
2 *1036:12 *3576:A 42.1313 
*END

*D_NET *1037 0.0012505
*CONN
*I *3055:A2 I *D sg13g2_o21ai_1
*I *3485:X O *D sg13g2_dlygate4sd3_1
*CAP
1 *3055:A2 0
2 *3485:X 0.000257833
3 *1037:8 0.000257833
4 *1037:8 *1038:8 0
5 *325:8 *1037:8 0
6 *628:8 *1037:8 0
7 *629:14 *1037:8 0.000554297
8 *867:102 *1037:8 0.000180537
9 *894:50 *1037:8 0
*RES
1 *3485:X *1037:8 43.3166 
2 *1037:8 *3055:A2 40 
*END

*D_NET *1038 0.000768473
*CONN
*I *3301:D I *D sg13g2_dfrbpq_1
*I *3486:X O *D sg13g2_dlygate4sd3_1
*CAP
1 *3301:D 0.000118063
2 *3486:X 0.000177389
3 *1038:8 0.000295452
4 *3486:A *3301:D 0.000177569
5 *365:22 *3301:D 0
6 *1037:8 *1038:8 0
*RES
1 *3486:X *1038:8 41.5862 
2 *1038:8 *3301:D 41.1845 
*END

*D_NET *1039 0.00392608
*CONN
*I *3581:A I *D sg13g2_buf_1
*I *3487:X O *D sg13g2_dlygate4sd3_1
*CAP
1 *3581:A 0.000807756
2 *3487:X 0.000259543
3 *1039:10 0.0010673
4 *3581:A *2713:A 0.000370243
5 *3581:A *3580:A 0.000402694
6 *3581:A *3583:A 0
7 *3581:A *1042:14 0.000434701
8 *1039:10 *3585:A 7.96248e-05
9 *1039:10 *1052:8 0
10 *1039:10 *1069:10 0.000504219
11 *3498:A *3581:A 0
12 *3502:A *1039:10 0
13 *225:13 *1039:10 0
*RES
1 *3487:X *1039:10 43.2698 
2 *1039:10 *3581:A 47.9722 
*END

*D_NET *1040 0.000486004
*CONN
*I *3071:A2 I *D sg13g2_o21ai_1
*I *3488:X O *D sg13g2_dlygate4sd3_1
*CAP
1 *3071:A2 0.000243002
2 *3488:X 0.000243002
3 *2938:A *3071:A2 0
4 *3382:A *3071:A2 0
5 *697:188 *3071:A2 0
*RES
1 *3488:X *3071:A2 42.3799 
*END

*D_NET *1041 0.000328633
*CONN
*I *3309:D I *D sg13g2_dfrbpq_1
*I *3489:X O *D sg13g2_dlygate4sd3_1
*CAP
1 *3309:D 0.000156616
2 *3489:X 0.000156616
3 *3309:D *1141:27 1.54008e-05
4 *3072:B *3309:D 0
5 *697:188 *3309:D 0
*RES
1 *3489:X *3309:D 41.1845 
*END

*D_NET *1042 0.00287376
*CONN
*I *3579:A I *D sg13g2_buf_1
*I *3490:X O *D sg13g2_dlygate4sd3_1
*CAP
1 *3579:A 0
2 *3490:X 0.000978047
3 *1042:14 0.000978047
4 *3297:RESET_B *1042:14 0.000143278
5 *3477:A *1042:14 0.000339683
6 *3498:A *1042:14 0
7 *3581:A *1042:14 0.000434701
8 *821:28 *1042:14 0
9 *821:34 *1042:14 0
10 *1036:12 *1042:14 0
*RES
1 *3490:X *1042:14 30.094 
2 *1042:14 *3579:A 20 
*END

*D_NET *1043 0.000570696
*CONN
*I *3063:A2 I *D sg13g2_o21ai_1
*I *3491:X O *D sg13g2_dlygate4sd3_1
*CAP
1 *3063:A2 0
2 *3491:X 5.03353e-05
3 *1043:8 5.03353e-05
4 *1043:8 *1122:14 0.000235089
5 *811:55 *1043:8 0.000234936
*RES
1 *3491:X *1043:8 41.0918 
2 *1043:8 *3063:A2 40 
*END

*D_NET *1044 0.000211435
*CONN
*I *3305:D I *D sg13g2_dfrbpq_1
*I *3492:X O *D sg13g2_dlygate4sd3_1
*CAP
1 *3305:D 0
2 *3492:X 4.16174e-05
3 *1044:8 4.16174e-05
4 *1044:8 *1123:10 0
5 *1044:8 *1139:14 0.0001282
6 *709:14 *1044:8 0
*RES
1 *3492:X *1044:8 40.5974 
2 *1044:8 *3305:D 40 
*END

*D_NET *1045 0.00428493
*CONN
*I *2791:B2 I *D sg13g2_a22oi_1
*I *3564:X O *D sg13g2_buf_1
*CAP
1 *2791:B2 0
2 *3564:X 8.09299e-05
3 *1045:20 0.00155942
4 *1045:8 0.00164035
5 *1045:20 *1105:10 0
6 *1045:20 *1116:8 0
7 *2756:A2 *1045:20 0
8 *2770:A1 *1045:20 0.000208615
9 *2791:B1 *1045:20 0
10 *2791:A2 *1045:20 0
11 *2793:B1 *1045:20 0
12 *3153:CLK *1045:20 0.000208971
13 *415:16 *1045:20 0
14 *431:10 *1045:20 4.78192e-05
15 *829:28 *1045:20 4.77866e-05
16 *833:130 *1045:20 0
17 *844:28 *1045:20 0.000315512
18 *850:30 *1045:20 0
19 *901:65 *1045:20 0.000175513
*RES
1 *3564:X *1045:8 40.5974 
2 *1045:8 *1045:20 34.6981 
3 *1045:20 *2791:B2 20 
*END

*D_NET *1046 0.000231219
*CONN
*I *2877:B I *D sg13g2_nand2_1
*I *3565:X O *D sg13g2_buf_1
*CAP
1 *2877:B 0.000115609
2 *3565:X 0.000115609
3 *3345:RESET_B *2877:B 0
*RES
1 *3565:X *2877:B 41.133 
*END

*D_NET *1047 0.00230104
*CONN
*I *3596:A I *D sg13g2_buf_1
*I *3493:X O *D sg13g2_dlygate4sd3_1
*CAP
1 *3596:A 2.98729e-05
2 *3493:X 0.000766023
3 *1047:8 0.000795896
4 *1047:8 *1050:10 0.000661473
5 *1047:8 *1072:10 0
6 *1047:8 *1090:16 0
7 s_axil_awready *3596:A 4.77699e-05
8 *1034:8 *1047:8 0
*RES
1 *3493:X *1047:8 47.2718 
2 *1047:8 *3596:A 40.3193 
*END

*D_NET *1048 0.00261588
*CONN
*I *3601:A I *D sg13g2_buf_1
*I *3494:X O *D sg13g2_dlygate4sd3_1
*CAP
1 *3601:A 4.83624e-05
2 *3494:X 0.000890578
3 *1048:16 0.000938941
4 *3601:A *1076:34 0
5 *1048:16 *3592:A 0
6 *1048:16 *1049:14 0.000401927
7 *1048:16 *1076:12 0
8 *2874:A *3601:A 8.02379e-05
9 *3475:A *1048:16 4.77425e-05
10 *3520:A *1048:16 0
11 *494:10 *1048:16 0
12 *714:20 *1048:16 0.000208093
13 *764:50 *1048:16 0
14 *895:100 *1048:16 0
*RES
1 *3494:X *1048:16 48.9198 
2 *1048:16 *3601:A 40.5356 
*END

*D_NET *1049 0.00481639
*CONN
*I *3603:A I *D sg13g2_buf_1
*I *3495:X O *D sg13g2_dlygate4sd3_1
*CAP
1 *3603:A 0
2 *3495:X 0.00100803
3 *1049:24 0.000438722
4 *1049:14 0.00144675
5 *1049:14 *2722:A 0
6 *1049:24 *1076:34 0.000403329
7 *1049:24 *1120:10 7.30101e-05
8 *1049:24 *1136:25 0
9 *2727:A *1049:24 0
10 *2874:A *1049:14 0.000273997
11 *2874:A *1049:24 0
12 *2878:A *1049:14 0
13 *3143:A2 *1049:14 0.000306579
14 *3507:A *1049:14 0
15 *376:14 *1049:24 0
16 *714:52 *1049:24 0.000287314
17 *764:50 *1049:24 0
18 *764:57 *1049:14 0.000176722
19 *1048:16 *1049:14 0.000401927
*RES
1 *3495:X *1049:14 30.2176 
2 *1049:14 *1049:24 45.0676 
3 *1049:24 *3603:A 20 
*END

*D_NET *1050 0.00251989
*CONN
*I *3590:A I *D sg13g2_buf_1
*I *3496:X O *D sg13g2_dlygate4sd3_1
*CAP
1 *3590:A 0
2 *3496:X 0.000419652
3 *1050:10 0.000419652
4 *1050:10 *3593:A 0.000144767
5 *1050:10 *1072:10 0.000874344
6 *1050:10 *1090:16 0
7 *1050:10 *1113:14 0
8 *3496:A *1050:10 0
9 *3506:A *1050:10 0
10 *1034:8 *1050:10 0
11 *1047:8 *1050:10 0.000661473
*RES
1 *3496:X *1050:10 46.4478 
2 *1050:10 *3590:A 40 
*END

*D_NET *1051 0.00221502
*CONN
*I *3598:A I *D sg13g2_buf_1
*I *3497:X O *D sg13g2_dlygate4sd3_1
*CAP
1 *3598:A 5.74922e-05
2 *3497:X 0.000697276
3 *1051:10 0.000754768
4 *3598:A *1117:8 0
5 *1051:10 *1079:18 0
6 *2915:A2 *1051:10 0
7 *2925:A1 *1051:10 0
8 *2925:B1 *3598:A 4.77425e-05
9 *2925:B1 *1051:10 0.000337417
10 *2928:A *1051:10 0
11 *3505:A *1051:10 0.000240738
12 *3522:A *1051:10 0
13 *861:22 *1051:10 0
14 *891:87 *1051:10 7.95863e-05
*RES
1 *3497:X *1051:10 46.695 
2 *1051:10 *3598:A 40.5356 
*END

*D_NET *1052 0.001577
*CONN
*I *3580:A I *D sg13g2_buf_1
*I *3498:X O *D sg13g2_dlygate4sd3_1
*CAP
1 *3580:A 0.000281221
2 *3498:X 5.60752e-05
3 *1052:8 0.000337296
4 *3580:A *3583:A 0.000499719
5 *3581:A *3580:A 0.000402694
6 *1039:10 *1052:8 0
*RES
1 *3498:X *1052:8 40.5974 
2 *1052:8 *3580:A 43.3475 
*END

*D_NET *1053 0.000106418
*CONN
*I *3307:D I *D sg13g2_dfrbpq_1
*I *3499:X O *D sg13g2_dlygate4sd3_1
*CAP
1 *3307:D 5.3209e-05
2 *3499:X 5.3209e-05
*RES
1 *3499:X *3307:D 40.5974 
*END

*D_NET *1054 0.00312744
*CONN
*I *3585:A I *D sg13g2_buf_1
*I *3500:X O *D sg13g2_dlygate4sd3_1
*CAP
1 *3585:A 0.000733238
2 *3500:X 0.000482521
3 *1054:8 0.00121576
4 *3585:A *2711:A 0
5 *3585:A *3582:A 0
6 *3585:A *3583:A 0
7 *3585:A *1071:18 0
8 *1054:8 *1069:10 0
9 *3498:A *3585:A 0
10 *3502:A *3585:A 0
11 *225:13 *1054:8 0
12 *877:8 *3585:A 8.00842e-05
13 *877:19 *3585:A 0.000327806
14 *889:56 *3585:A 0.000208403
15 *1034:8 *1054:8 0
16 *1039:10 *3585:A 7.96248e-05
*RES
1 *3500:X *1054:8 44.7998 
2 *1054:8 *3585:A 47.9104 
*END

*D_NET *1055 0.00130018
*CONN
*I *3587:A I *D sg13g2_buf_1
*I *3501:X O *D sg13g2_dlygate4sd3_1
*CAP
1 *3587:A 0.000514173
2 *3501:X 0.000514173
3 *3587:A *3442:A 0.00017616
4 *3587:A *1071:18 0
5 *3587:A *1106:14 0
6 *3058:D *3587:A 8.0216e-05
7 *3059:A2 *3587:A 0
8 *3383:A *3587:A 1.54556e-05
9 *877:19 *3587:A 0
10 *886:97 *3587:A 0
*RES
1 *3501:X *3587:A 44.7586 
*END

*D_NET *1056 0.00112234
*CONN
*I *3582:A I *D sg13g2_buf_1
*I *3502:X O *D sg13g2_dlygate4sd3_1
*CAP
1 *3582:A 0.000384595
2 *3502:X 0.000384595
3 *3582:A *2711:A 4.77425e-05
4 *3582:A *3583:A 0
5 *3297:CLK *3582:A 0.000305411
6 *3585:A *3582:A 0
*RES
1 *3502:X *3582:A 44.1921 
*END

*D_NET *1057 0.00567778
*CONN
*I *2702:A I *D sg13g2_inv_1
*I *3566:X O *D sg13g2_buf_1
*CAP
1 *2702:A 0
2 *3566:X 0
3 *1057:12 0.00114418
4 *1057:6 0.00114418
5 *1057:12 *1109:14 0.00338942
6 *1057:12 *1113:14 0
7 *1023:12 *1057:12 0
8 *1034:8 *1057:12 0
*RES
1 *3566:X *1057:6 40 
2 *1057:6 *1057:12 38.0353 
3 *1057:12 *2702:A 20 
*END

*D_NET *1058 0.000734657
*CONN
*I *3075:A2 I *D sg13g2_o21ai_1
*I *3503:X O *D sg13g2_dlygate4sd3_1
*CAP
1 *3075:A2 0.000212919
2 *3503:X 0.000212919
3 *3075:B1 *3075:A2 4.77425e-05
4 *374:18 *3075:A2 0.000111624
5 *811:77 *3075:A2 1.54008e-05
6 *811:92 *3075:A2 0.000134052
*RES
1 *3503:X *3075:A2 42.1012 
*END

*D_NET *1059 0.00103685
*CONN
*I *3311:D I *D sg13g2_dfrbpq_1
*I *3504:X O *D sg13g2_dlygate4sd3_1
*CAP
1 *3311:D 0.000386179
2 *3504:X 0.000386179
3 *3307:RESET_B *3311:D 0.000264488
4 *373:24 *3311:D 0
5 *376:14 *3311:D 0
*RES
1 *3504:X *3311:D 44.429 
*END

*D_NET *1060 0.00293087
*CONN
*I *3599:A I *D sg13g2_buf_1
*I *3505:X O *D sg13g2_dlygate4sd3_1
*CAP
1 *3599:A 0
2 *3505:X 0.00087755
3 *1060:18 0.00087755
4 *1060:18 *3567:A 0
5 *1060:18 *3568:A 0
6 *1060:18 *1075:14 0
7 *1060:18 *1075:26 0
8 *1060:18 *1079:18 0.000239863
9 *2919:A1 *1060:18 0.000207843
10 *2919:A2 *1060:18 1.53311e-05
11 *358:10 *1060:18 0.000143136
12 *493:28 *1060:18 0.000496436
13 *739:14 *1060:18 0
14 *889:31 *1060:18 0
15 *891:81 *1060:18 7.31628e-05
*RES
1 *3505:X *1060:18 49.2082 
2 *1060:18 *3599:A 40 
*END

*D_NET *1061 0.00226024
*CONN
*I *3566:A I *D sg13g2_buf_1
*I *3506:X O *D sg13g2_dlygate4sd3_1
*CAP
1 *3566:A 0.000160255
2 *3506:X 0.000147724
3 *1061:8 0.000307979
4 *3566:A *3594:A 0
5 *3566:A *1109:8 0
6 *1061:8 *1079:28 0.000822141
7 *1061:8 *1090:16 0.000822141
8 *3563:A *3566:A 0
*RES
1 *3506:X *1061:8 43.811 
2 *1061:8 *3566:A 41.4008 
*END

*D_NET *1062 0.00242834
*CONN
*I *3604:A I *D sg13g2_buf_1
*I *3507:X O *D sg13g2_dlygate4sd3_1
*CAP
1 *3604:A 0
2 *3507:X 0.00014082
3 *1062:14 0.00088581
4 *1062:8 0.00102663
5 *1062:14 *1076:20 0.000375075
6 *2872:B *1062:8 0
7 *170:12 *1062:14 0
8 *979:12 *1062:14 0
*RES
1 *3507:X *1062:8 41.5862 
2 *1062:8 *1062:14 49.6202 
3 *1062:14 *3604:A 40 
*END

*D_NET *1063 0.000708333
*CONN
*I *3030:A2 I *D sg13g2_o21ai_1
*I *3508:X O *D sg13g2_dlygate4sd3_1
*CAP
1 *3030:A2 0.000257912
2 *3508:X 0.000257912
3 *3030:A1 *3030:A2 0.000112426
4 *908:69 *3030:A2 8.00842e-05
*RES
1 *3508:X *3030:A2 42.5956 
*END

*D_NET *1064 0.00155805
*CONN
*I *3591:A I *D sg13g2_buf_1
*I *3509:X O *D sg13g2_dlygate4sd3_1
*CAP
1 *3591:A 0
2 *3509:X 0.000559423
3 *1064:10 0.000559423
4 *1064:10 *3588:A 0.000209065
5 *1064:10 *1108:14 0
6 *3059:A2 *1064:10 0
7 *3303:RESET_B *1064:10 0
8 *3481:A *1064:10 4.79124e-05
9 *492:16 *1064:10 0
10 *764:50 *1064:10 0.000182228
11 *825:10 *1064:10 0
*RES
1 *3509:X *1064:10 45.1156 
2 *1064:10 *3591:A 40 
*END

*D_NET *1065 0.00176127
*CONN
*I *3589:A I *D sg13g2_buf_1
*I *3510:X O *D sg13g2_dlygate4sd3_1
*CAP
1 *3589:A 0.000591361
2 *3510:X 0.000591361
3 *3589:A *3588:A 0
4 *3589:A *3592:A 0
5 *3589:A *1076:12 0
6 *2873:C *3589:A 0.000208386
7 *3520:A *3589:A 0
8 *1034:16 *3589:A 0
9 *1034:20 *3589:A 2.52757e-05
10 *1034:37 *3589:A 0.000344886
*RES
1 *3510:X *3589:A 46.489 
*END

*D_NET *1066 0.00240764
*CONN
*I *3592:A I *D sg13g2_buf_1
*I *3511:X O *D sg13g2_dlygate4sd3_1
*CAP
1 *3592:A 0.000635461
2 *3511:X 0.000635461
3 *3592:A *1076:12 0.000349013
4 *3592:A *1076:34 0.000242181
5 *3592:A *1124:26 0
6 *3592:A *1124:45 0.000190706
7 *3589:A *3592:A 0
8 *376:14 *3592:A 0.000307002
9 *494:10 *3592:A 0
10 *714:20 *3592:A 0
11 *1034:37 *3592:A 4.78192e-05
12 *1048:16 *3592:A 0
*RES
1 *3511:X *3592:A 47.0246 
*END

*D_NET *1067 0.00113853
*CONN
*I *3593:A I *D sg13g2_buf_1
*I *3512:X O *D sg13g2_dlygate4sd3_1
*CAP
1 *3593:A 0.000376258
2 *3512:X 0.000376258
3 *3593:A *3578:A 0
4 *3593:A *1112:10 0
5 *3593:A *1114:8 0.000241248
6 *3506:A *3593:A 0
7 *358:14 *3593:A 0
8 *1050:10 *3593:A 0.000144767
*RES
1 *3512:X *3593:A 43.914 
*END

*D_NET *1068 0.00262032
*CONN
*I *2708:A I *D sg13g2_inv_1
*I *3567:X O *D sg13g2_buf_1
*CAP
1 *2708:A 3.02148e-05
2 *3567:X 0
3 *1068:14 0.000802719
4 *1068:6 0.000772505
5 *1068:14 *1088:14 0
6 *2928:A *2708:A 1.54008e-05
7 *3516:A *2708:A 0
8 *361:8 *1068:14 0.000289734
9 *533:10 *1068:14 0.000709747
*RES
1 *3567:X *1068:6 40 
2 *1068:6 *1068:14 48.0855 
3 *1068:14 *2708:A 40.3193 
*END

*D_NET *1069 0.00338244
*CONN
*I *3583:A I *D sg13g2_buf_1
*I *3513:X O *D sg13g2_dlygate4sd3_1
*CAP
1 *3583:A 0.000751741
2 *3513:X 0.000437512
3 *1069:10 0.00118925
4 *3583:A *2713:A 0
5 *3297:CLK *3583:A 0
6 *3498:A *3583:A 0
7 *3501:A *1069:10 0
8 *3502:A *1069:10 0
9 *3580:A *3583:A 0.000499719
10 *3581:A *3583:A 0
11 *3582:A *3583:A 0
12 *3585:A *3583:A 0
13 *708:69 *3583:A 0
14 *1039:10 *1069:10 0.000504219
15 *1054:8 *1069:10 0
*RES
1 *3513:X *1069:10 45.3045 
2 *1069:10 *3583:A 47.1585 
*END

*D_NET *1070 0.00123169
*CONN
*I *3578:A I *D sg13g2_buf_1
*I *3514:X O *D sg13g2_dlygate4sd3_1
*CAP
1 *3578:A 0.000457249
2 *3514:X 0.000457249
3 *3578:A *1097:8 0
4 *3578:A *1112:10 0
5 s_axil_awready *3578:A 0
6 *3506:A *3578:A 0.000317189
7 *3593:A *3578:A 0
8 *764:10 *3578:A 0
9 *764:23 *3578:A 0
*RES
1 *3514:X *3578:A 44.7736 
*END

*D_NET *1071 0.00259237
*CONN
*I *3584:A I *D sg13g2_buf_1
*I *3515:X O *D sg13g2_dlygate4sd3_1
*CAP
1 *3584:A 0.000134857
2 *3515:X 0.00076145
3 *1071:18 0.000896307
4 *3584:A *2711:A 0.000240745
5 *1071:18 *3442:A 1.11656e-05
6 *1071:18 *1106:14 8.01773e-05
7 *3501:A *1071:18 0
8 *3585:A *1071:18 0
9 *3587:A *1071:18 0
10 *708:69 *3584:A 0.000240745
11 *764:31 *1071:18 2.14736e-05
12 *868:102 *1071:18 2.14736e-05
13 *877:8 *1071:18 0
14 *877:19 *1071:18 0
15 *889:48 *1071:18 0.000183978
*RES
1 *3515:X *1071:18 47.6941 
2 *1071:18 *3584:A 41.6171 
*END

*D_NET *1072 0.00235078
*CONN
*I *3594:A I *D sg13g2_buf_1
*I *3516:X O *D sg13g2_dlygate4sd3_1
*CAP
1 *3594:A 3.00315e-05
2 *3516:X 0.000635801
3 *1072:10 0.000665832
4 *1072:10 *1090:16 0
5 *3496:A *1072:10 0
6 *3516:A *1072:10 0
7 *3566:A *3594:A 0
8 *3595:A *1072:10 0.000144767
9 *1047:8 *1072:10 0
10 *1050:10 *1072:10 0.000874344
*RES
1 *3516:X *1072:10 47.4675 
2 *1072:10 *3594:A 40.3193 
*END

*D_NET *1073 0.000657375
*CONN
*I *3129:A2 I *D sg13g2_o21ai_1
*I *3517:X O *D sg13g2_dlygate4sd3_1
*CAP
1 *3129:A2 0
2 *3517:X 0.000184808
3 *1073:8 0.000184808
4 *671:117 *1073:8 0
5 *684:8 *1073:8 0
6 *721:10 *1073:8 0.000287758
*RES
1 *3517:X *1073:8 42.0806 
2 *1073:8 *3129:A2 40 
*END

*D_NET *1074 0.00323018
*CONN
*I *3570:A I *D sg13g2_buf_1
*I *3518:X O *D sg13g2_dlygate4sd3_1
*CAP
1 *3570:A 0.000131726
2 *3518:X 0.000852762
3 *1074:18 0.000984488
4 *1074:18 *3572:A 0.000240459
5 *1074:18 *1077:8 0
6 *1074:18 *1083:10 0
7 *1074:18 *1091:10 0.000177856
8 *2926:D *1074:18 4.77425e-05
9 *3433:A *1074:18 0.000107965
10 *3524:A *1074:18 0
11 *3573:A *1074:18 0
12 *493:28 *3570:A 0.000399098
13 *526:12 *1074:18 4.76068e-05
14 *867:84 *1074:18 0
15 *886:16 *1074:18 0.000208041
16 *886:35 *1074:18 3.24351e-05
17 *889:31 *3570:A 0
18 *1027:14 *1074:18 0
*RES
1 *3518:X *1074:18 48.4666 
2 *1074:18 *3570:A 41.8334 
*END

*D_NET *1075 0.00363191
*CONN
*I *3600:A I *D sg13g2_buf_1
*I *3519:X O *D sg13g2_dlygate4sd3_1
*CAP
1 *3600:A 7.56916e-05
2 *3519:X 0.000435183
3 *1075:26 0.000676607
4 *1075:14 0.0010361
5 *3600:A *1079:18 0
6 *1075:14 *3567:A 0.000272247
7 *1075:14 *1079:18 0
8 *1075:14 *1083:10 0
9 *1075:26 *3567:A 7.989e-05
10 *1075:26 *3568:A 7.91362e-05
11 *1075:26 *3569:A 0
12 *1075:26 *1088:8 7.91362e-05
13 *2927:B1 *1075:26 1.53311e-05
14 *2927:A1 *1075:26 0
15 *3522:A *1075:14 0
16 *356:10 *1075:26 0.0001122
17 *358:10 *1075:14 0.000143136
18 *493:28 *1075:26 0
19 *526:12 *1075:14 0.000124547
20 *809:31 *3600:A 0
21 *889:31 *1075:26 0.000502712
22 *1060:18 *1075:14 0
23 *1060:18 *1075:26 0
*RES
1 *3519:X *1075:14 44.3981 
2 *1075:14 *1075:26 46.3448 
3 *1075:26 *3600:A 40.7519 
*END

*D_NET *1076 0.00472303
*CONN
*I *3602:A I *D sg13g2_buf_1
*I *3520:X O *D sg13g2_dlygate4sd3_1
*CAP
1 *3602:A 0
2 *3520:X 0.000250723
3 *1076:34 0.000677012
4 *1076:20 0.000924391
5 *1076:12 0.000498103
6 *1076:34 *1111:14 7.57681e-05
7 *1076:34 *1120:8 1.54118e-05
8 *1076:34 *1122:14 0
9 *1076:34 *1123:10 0
10 *2874:A *1076:34 0
11 *3520:A *1076:12 0
12 *3589:A *1076:12 0
13 *3592:A *1076:12 0.000349013
14 *3592:A *1076:34 0.000242181
15 *3601:A *1076:34 0
16 *376:14 *1076:34 0.000467465
17 *381:12 *1076:34 2.19524e-05
18 *494:10 *1076:12 8.0194e-05
19 *979:12 *1076:20 0.000342416
20 *1048:16 *1076:12 0
21 *1049:24 *1076:34 0.000403329
22 *1062:14 *1076:20 0.000375075
*RES
1 *3520:X *1076:12 42.9664 
2 *1076:12 *1076:20 42.8325 
3 *1076:20 *1076:34 47.4057 
4 *1076:34 *3602:A 40 
*END

*D_NET *1077 0.00293684
*CONN
*I *3572:A I *D sg13g2_buf_1
*I *3521:X O *D sg13g2_dlygate4sd3_1
*CAP
1 *3572:A 0.000136338
2 *3521:X 0.000202558
3 *1077:16 0.000606128
4 *1077:8 0.000672348
5 *3574:A *1077:8 0
6 *708:82 *1077:16 0.000447552
7 *764:23 *1077:16 0.000343008
8 *764:31 *1077:16 0
9 *886:35 *3572:A 0.000240536
10 *1027:14 *1077:8 4.79124e-05
11 *1074:18 *3572:A 0.000240459
12 *1074:18 *1077:8 0
*RES
1 *3521:X *1077:8 42.0497 
2 *1077:8 *1077:16 46.077 
3 *1077:16 *3572:A 41.6171 
*END

*D_NET *1078 0.00170505
*CONN
*I *3567:A I *D sg13g2_buf_1
*I *3522:X O *D sg13g2_dlygate4sd3_1
*CAP
1 *3567:A 0.000572659
2 *3522:X 0.000572659
3 *3567:A *1083:10 0
4 *2927:B1 *3567:A 0
5 *533:10 *3567:A 0.000207598
6 *1060:18 *3567:A 0
7 *1075:14 *3567:A 0.000272247
8 *1075:26 *3567:A 7.989e-05
*RES
1 *3522:X *3567:A 45.6547 
*END

*D_NET *1079 0.0128092
*CONN
*I *2707:A I *D sg13g2_inv_1
*I *3568:X O *D sg13g2_buf_1
*CAP
1 *2707:A 0
2 *3568:X 0.000936704
3 *1079:28 0.00201655
4 *1079:18 0.00295326
5 *1079:28 *1090:16 0.00178432
6 *1079:28 *1097:14 0
7 *1079:28 *1114:14 0.00311887
8 *2919:B1 *1079:18 0
9 *3600:A *1079:18 0
10 *294:8 *1079:28 0
11 *354:12 *1079:28 0
12 *358:10 *1079:28 0
13 *361:8 *1079:28 0.000345253
14 *739:14 *1079:18 0.000304379
15 *809:20 *1079:18 0.000207843
16 *809:31 *1079:18 7.99664e-05
17 *1012:18 *1079:28 0
18 *1023:18 *1079:28 0
19 *1051:10 *1079:18 0
20 *1060:18 *1079:18 0.000239863
21 *1061:8 *1079:28 0.000822141
22 *1075:14 *1079:18 0
*RES
1 *3568:X *1079:18 49.5172 
2 *1079:18 *1079:28 48.2529 
3 *1079:28 *2707:A 20 
*END

*D_NET *1080 0.000885719
*CONN
*I *3588:A I *D sg13g2_buf_1
*I *3523:X O *D sg13g2_dlygate4sd3_1
*CAP
1 *3588:A 0.000338327
2 *3523:X 0.000338327
3 *2873:B *3588:A 0
4 *3509:A *3588:A 0
5 *3589:A *3588:A 0
6 *492:12 *3588:A 0
7 *1034:16 *3588:A 0
8 *1064:10 *3588:A 0.000209065
*RES
1 *3523:X *3588:A 43.6977 
*END

*D_NET *1081 0.000722409
*CONN
*I *3571:A I *D sg13g2_buf_1
*I *3524:X O *D sg13g2_dlygate4sd3_1
*CAP
1 *3571:A 0
2 *3524:X 0.000361204
3 *1081:8 0.000361204
4 *1081:8 *1090:10 0
5 *1081:8 *1090:16 0
6 *217:9 *1081:8 0
7 *821:34 *1081:8 0
8 *1029:8 *1081:8 0
*RES
1 *3524:X *1081:8 43.3166 
2 *1081:8 *3571:A 40 
*END

*D_NET *1082 0.0019719
*CONN
*I *3569:A I *D sg13g2_buf_1
*I *3525:X O *D sg13g2_dlygate4sd3_1
*CAP
1 *3569:A 0.000640846
2 *3525:X 0.000640846
3 *3569:A *3568:A 0
4 *2927:A1 *3569:A 0.000144491
5 *2927:A2 *3569:A 0
6 *523:10 *3569:A 0.000177241
7 *857:47 *3569:A 0.000368474
8 *1075:26 *3569:A 0
*RES
1 *3525:X *3569:A 46.2779 
*END

*D_NET *1083 0.00249201
*CONN
*I *3568:A I *D sg13g2_buf_1
*I *3526:X O *D sg13g2_dlygate4sd3_1
*CAP
1 *3568:A 0.000120075
2 *3526:X 0.000302021
3 *1083:16 0.000626432
4 *1083:10 0.000808379
5 *1083:10 *1090:16 0
6 *3525:A *1083:10 0
7 *3567:A *1083:10 0
8 *3569:A *3568:A 0
9 *533:10 *1083:10 0
10 *821:34 *1083:10 0.000337906
11 *894:79 *1083:16 0.000218065
12 *1060:18 *3568:A 0
13 *1074:18 *1083:10 0
14 *1075:14 *1083:10 0
15 *1075:26 *3568:A 7.91362e-05
*RES
1 *3526:X *1083:10 43.6359 
2 *1083:10 *1083:16 44.429 
3 *1083:16 *3568:A 41.1845 
*END

*D_NET *1084 0.00145306
*CONN
*I *3559:A I *D sg13g2_buf_1
*I *3527:X O *D sg13g2_dlygate4sd3_1
*CAP
1 *3559:A 0.000558126
2 *3527:X 0.000558126
3 *3345:D *3559:A 0
4 *3558:A *3559:A 0.000336809
5 *123:13 *3559:A 0
6 *171:8 *3559:A 0
*RES
1 *3527:X *3559:A 45.9946 
*END

*D_NET *1085 0.00568086
*CONN
*I *2803:A2 I *D sg13g2_a22oi_1
*I *3528:X O *D sg13g2_dlygate4sd3_1
*CAP
1 *2803:A2 0
2 *3528:X 2.72095e-05
3 *1085:14 0.00119432
4 *1085:8 0.00122153
5 *1085:14 *1129:56 0
6 *440:10 *1085:14 0.000756875
7 *449:14 *1085:14 0.0019795
8 *452:16 *1085:14 0.000230627
9 *458:14 *1085:14 0
10 *720:43 *1085:14 0
11 *722:72 *1085:8 4.74248e-05
12 *734:27 *1085:14 0
13 *736:45 *1085:14 0
14 *770:22 *1085:14 0.000175946
15 *843:62 *1085:8 4.74248e-05
*RES
1 *3528:X *1085:8 40.3193 
2 *1085:8 *1085:14 35.1307 
3 *1085:14 *2803:A2 20 
*END

*D_NET *1086 0.000699346
*CONN
*I *3177:D I *D sg13g2_dfrbpq_1
*I *3529:X O *D sg13g2_dlygate4sd3_1
*CAP
1 *3177:D 0.000229657
2 *3529:X 0.000229657
3 *3177:RESET_B *3177:D 0.000240031
4 *393:31 *3177:D 0
5 *455:14 *3177:D 0
*RES
1 *3529:X *3177:D 42.4617 
*END

*D_NET *1087 9.90264e-05
*CONN
*I *3560:A I *D sg13g2_buf_1
*I *3530:X O *D sg13g2_dlygate4sd3_1
*CAP
1 *3560:A 4.95132e-05
2 *3530:X 4.95132e-05
*RES
1 *3530:X *3560:A 40.5974 
*END

*D_NET *1088 0.00598484
*CONN
*I *2706:A I *D sg13g2_inv_1
*I *3569:X O *D sg13g2_buf_1
*CAP
1 *2706:A 0
2 *3569:X 6.26676e-05
3 *1088:22 0
4 *1088:18 0.00229633
5 *1088:14 0.00278419
6 *1088:8 0.000550527
7 *894:79 *1088:14 0.000211993
8 *1068:14 *1088:14 0
9 *1075:26 *1088:8 7.91362e-05
*RES
1 *3569:X *1088:8 40.5356 
2 *1088:8 *1088:14 44.8616 
3 *1088:14 *1088:18 48.7782 
4 *1088:18 *1088:22 40 
5 *1088:22 *2706:A 20 
*END

*D_NET *1089 0.00202074
*CONN
*I *2705:A I *D sg13g2_inv_1
*I *3570:X O *D sg13g2_buf_1
*CAP
1 *2705:A 0
2 *3570:X 0.00067375
3 *1089:12 0.00067375
4 *3424:A *1089:12 0.000112426
5 *523:10 *1089:12 8.0216e-05
6 *532:16 *1089:12 0
7 *857:12 *1089:12 0
8 *857:47 *1089:12 0.000272538
9 *861:47 *1089:12 0.00012777
10 *867:49 *1089:12 8.02927e-05
*RES
1 *3570:X *1089:12 45.7474 
2 *1089:12 *2705:A 40 
*END

*D_NET *1090 0.00854769
*CONN
*I *2704:A I *D sg13g2_inv_1
*I *3571:X O *D sg13g2_buf_1
*CAP
1 *2704:A 0
2 *3571:X 0.000306562
3 *1090:16 0.00200677
4 *1090:10 0.00231333
5 *1090:16 *1113:14 0.00131456
6 *217:9 *1090:10 0
7 *821:34 *1090:16 0
8 *1029:8 *1090:10 0
9 *1034:8 *1090:16 0
10 *1047:8 *1090:16 0
11 *1050:10 *1090:16 0
12 *1061:8 *1090:16 0.000822141
13 *1072:10 *1090:16 0
14 *1079:28 *1090:16 0.00178432
15 *1081:8 *1090:10 0
16 *1081:8 *1090:16 0
17 *1083:10 *1090:16 0
*RES
1 *3571:X *1090:10 42.8943 
2 *1090:10 *1090:16 46.2856 
3 *1090:16 *2704:A 20 
*END

*D_NET *1091 0.00204879
*CONN
*I *2703:A I *D sg13g2_inv_1
*I *3572:X O *D sg13g2_buf_1
*CAP
1 *2703:A 0
2 *3572:X 0.000248885
3 *1091:10 0.000248885
4 *708:82 *1091:10 0.000614958
5 *867:84 *1091:10 0.000143171
6 *1023:28 *1091:10 0.000615031
7 *1074:18 *1091:10 0.000177856
*RES
1 *3572:X *1091:10 44.223 
2 *1091:10 *2703:A 40 
*END

*D_NET *1092 0.00287237
*CONN
*I *2718:A I *D sg13g2_inv_1
*I *3573:X O *D sg13g2_buf_1
*CAP
1 *2718:A 0.000601865
2 *3573:X 0.000441631
3 *1092:8 0.0010435
4 *219:9 *2718:A 0
5 *323:12 *2718:A 0.000143358
6 *368:6 *2718:A 0
7 *368:16 *2718:A 0
8 *371:10 *2718:A 0.000144102
9 *493:28 *1092:8 0
10 *624:10 *1092:8 0
11 *764:31 *1092:8 0
12 *809:10 *2718:A 1.54008e-05
13 *809:108 *2718:A 0.000143171
14 *811:26 *2718:A 4.78359e-05
15 *821:34 *2718:A 0
16 *889:31 *1092:8 0.000291508
17 *1036:12 *2718:A 0
*RES
1 *3573:X *1092:8 43.811 
2 *1092:8 *2718:A 45.7474 
*END

*D_NET *1093 0.00053335
*CONN
*I *2717:A I *D sg13g2_inv_1
*I *3574:X O *D sg13g2_buf_1
*CAP
1 *2717:A 0.000155067
2 *3574:X 0.000155067
3 *2717:A *2716:A 0
4 *3044:A *2717:A 0
5 *370:10 *2717:A 0.000143932
6 *626:10 *2717:A 7.92837e-05
*RES
1 *3574:X *2717:A 41.5836 
*END

*D_NET *1094 0.00255282
*CONN
*I *2794:A1 I *D sg13g2_a21oi_1
*I *3575:X O *D sg13g2_buf_1
*CAP
1 *2794:A1 5.34415e-05
2 *3575:X 0.000558108
3 *1094:12 0.00061155
4 *1094:12 *1105:10 0.000128662
5 *1094:12 *1116:8 0
6 *2755:B2 *1094:12 0.000177295
7 *2787:B1 *1094:12 0.000659397
8 *2787:B2 *1094:12 0
9 *2794:A2 *2794:A1 4.77425e-05
10 *3542:A *1094:12 0
11 *826:14 *1094:12 0
12 *845:61 *1094:12 7.51285e-05
13 *893:18 *1094:12 0.000241498
14 *923:12 *1094:12 0
15 *946:14 *1094:12 0
*RES
1 *3575:X *1094:12 46.5817 
2 *1094:12 *2794:A1 40.5356 
*END

*D_NET *1095 0.000481764
*CONN
*I *2716:A I *D sg13g2_inv_1
*I *3576:X O *D sg13g2_buf_1
*CAP
1 *2716:A 0.000217011
2 *3576:X 0.000217011
3 *2717:A *2716:A 0
4 *369:10 *2716:A 4.77425e-05
*RES
1 *3576:X *2716:A 41.9673 
*END

*D_NET *1096 0.00112521
*CONN
*I *2715:A I *D sg13g2_inv_1
*I *3577:X O *D sg13g2_buf_1
*CAP
1 *2715:A 0.000345747
2 *3577:X 0.000345747
3 *2930:C *2715:A 0
4 *368:6 *2715:A 0.000433712
5 *894:50 *2715:A 0
*RES
1 *3577:X *2715:A 43.3475 
*END

*D_NET *1097 0.0053127
*CONN
*I *2701:A I *D sg13g2_inv_1
*I *3578:X O *D sg13g2_buf_1
*CAP
1 *2701:A 0
2 *3578:X 0.00010381
3 *1097:14 0.00207396
4 *1097:8 0.00217777
5 *1097:14 *1112:18 0
6 *1097:14 *1114:14 0
7 *3578:A *1097:8 0
8 *349:8 *1097:14 0.000235141
9 *352:8 *1097:14 0.000609685
10 *354:12 *1097:14 0.000112328
11 *764:10 *1097:8 0
12 *1012:18 *1097:14 0
13 *1023:18 *1097:14 0
14 *1079:28 *1097:14 0
*RES
1 *3578:X *1097:8 40.7519 
2 *1097:8 *1097:14 38.4061 
3 *1097:14 *2701:A 20 
*END

*D_NET *1098 0.000596754
*CONN
*I *2714:A I *D sg13g2_inv_1
*I *3579:X O *D sg13g2_buf_1
*CAP
1 *2714:A 0.000170102
2 *3579:X 0.000170102
3 *3045:A2 *2714:A 0.000241149
4 *821:28 *2714:A 1.54008e-05
*RES
1 *3579:X *2714:A 41.6171 
*END

*D_NET *1099 0.00140593
*CONN
*I *2713:A I *D sg13g2_inv_1
*I *3580:X O *D sg13g2_buf_1
*CAP
1 *2713:A 0.000477724
2 *3580:X 0.000477724
3 *2713:A *2712:A 0
4 *2713:A *2726:A 0
5 *3581:A *2713:A 0.000370243
6 *3583:A *2713:A 0
7 *708:69 *2713:A 8.02379e-05
8 *821:28 *2713:A 0
*RES
1 *3580:X *2713:A 44.7792 
*END

*D_NET *1100 0.000390255
*CONN
*I *2712:A I *D sg13g2_inv_1
*I *3581:X O *D sg13g2_buf_1
*CAP
1 *2712:A 0.000195128
2 *3581:X 0.000195128
3 *2713:A *2712:A 0
4 *821:28 *2712:A 0
*RES
1 *3581:X *2712:A 41.6171 
*END

*D_NET *1101 0.00204832
*CONN
*I *2711:A I *D sg13g2_inv_1
*I *3582:X O *D sg13g2_buf_1
*CAP
1 *2711:A 0.000530147
2 *3582:X 3.50395e-05
3 *1101:8 0.000565187
4 *2711:A *2725:A 1.54008e-05
5 *1101:8 *1133:20 0.00018387
6 *3297:CLK *2711:A 0
7 *3582:A *2711:A 4.77425e-05
8 *3584:A *2711:A 0.000240745
9 *3585:A *2711:A 0
10 *366:14 *2711:A 0
11 *378:8 *2711:A 7.00878e-05
12 *708:69 *2711:A 0.000176274
13 *876:10 *1101:8 0.000183828
14 *889:56 *2711:A 0
*RES
1 *3582:X *1101:8 40.8446 
2 *1101:8 *2711:A 45.2324 
*END

*D_NET *1102 0.000454312
*CONN
*I *2726:A I *D sg13g2_inv_1
*I *3583:X O *D sg13g2_buf_1
*CAP
1 *2726:A 0.000179353
2 *3583:X 0.000179353
3 *2713:A *2726:A 0
4 *366:14 *2726:A 4.7803e-05
5 *379:22 *2726:A 4.7803e-05
6 *708:69 *2726:A 0
*RES
1 *3583:X *2726:A 41.6171 
*END

*D_NET *1103 0.00062805
*CONN
*I *2725:A I *D sg13g2_inv_1
*I *3584:X O *D sg13g2_buf_1
*CAP
1 *2725:A 0.000161728
2 *3584:X 0.000161728
3 *2711:A *2725:A 1.54008e-05
4 *378:8 *2725:A 4.79124e-05
5 *889:56 *2725:A 0.00024128
*RES
1 *3584:X *2725:A 41.6171 
*END

*D_NET *1104 0.00122286
*CONN
*I *2724:A I *D sg13g2_inv_1
*I *3585:X O *D sg13g2_buf_1
*CAP
1 *2724:A 5.01166e-05
2 *3585:X 0.000256618
3 *1104:10 0.000306734
4 *3062:A *1104:10 0
5 *377:6 *2724:A 4.79124e-05
6 *492:20 *1104:10 0.000337384
7 *635:10 *1104:10 4.77251e-05
8 *811:47 *2724:A 0
9 *877:19 *1104:10 0.000176367
10 *886:97 *2724:A 0
11 *886:97 *1104:10 0
*RES
1 *3585:X *1104:10 42.7707 
2 *1104:10 *2724:A 40.5356 
*END

*D_NET *1105 0.00274841
*CONN
*I *2799:B2 I *D sg13g2_a22oi_1
*I *3586:X O *D sg13g2_buf_1
*CAP
1 *2799:B2 2.60565e-05
2 *3586:X 0.000244032
3 *1105:18 0.00041215
4 *1105:10 0.000630125
5 *2767:A2 *2799:B2 4.77425e-05
6 *3161:D *1105:10 0
7 *3161:D *1105:18 0
8 *415:16 *1105:10 0
9 *416:10 *1105:18 0
10 *433:8 *1105:18 0
11 *437:14 *2799:B2 4.77425e-05
12 *716:12 *1105:18 0.000371188
13 *730:65 *1105:18 0
14 *752:61 *1105:18 0.000391571
15 *826:14 *1105:10 0.000449137
16 *845:61 *1105:10 0
17 *1045:20 *1105:10 0
18 *1094:12 *1105:10 0.000128662
*RES
1 *3586:X *1105:10 42.8325 
2 *1105:10 *1105:18 44.3157 
3 *1105:18 *2799:B2 40.3193 
*END

*D_NET *1106 0.00382567
*CONN
*I *2723:A I *D sg13g2_inv_1
*I *3587:X O *D sg13g2_buf_1
*CAP
1 *2723:A 2.63867e-05
2 *3587:X 0.000679159
3 *1106:14 0.000705545
4 *1106:14 *3442:A 0.000143818
5 *1106:14 *1133:20 7.34842e-05
6 *2873:B *2723:A 0
7 *3058:D *1106:14 0
8 *3587:A *1106:14 0
9 *376:14 *2723:A 4.35843e-05
10 *492:12 *1106:14 0.000397371
11 *764:31 *1106:14 0
12 *764:50 *1106:14 0
13 *868:102 *1106:14 0.000282388
14 *877:19 *1106:14 0
15 *895:81 *1106:14 0.000446795
16 *895:100 *1106:14 0.000946961
17 *1071:18 *1106:14 8.01773e-05
*RES
1 *3587:X *1106:14 49.0949 
2 *1106:14 *2723:A 40.291 
*END

*D_NET *1107 0.00397911
*CONN
*I *2722:A I *D sg13g2_inv_1
*I *3588:X O *D sg13g2_buf_1
*CAP
1 *2722:A 0.000332437
2 *3588:X 0.000544518
3 *1107:8 0.000876955
4 *2873:C *1107:8 0.000652261
5 *3144:B *1107:8 0.000341009
6 *3507:A *2722:A 0
7 *491:10 *1107:8 0.000557296
8 *493:20 *1107:8 0
9 *895:100 *1107:8 0
10 *1025:12 *2722:A 0.000498549
11 *1034:37 *1107:8 0.000176083
12 *1049:14 *2722:A 0
*RES
1 *3588:X *1107:8 46.5302 
2 *1107:8 *2722:A 43.3475 
*END

*D_NET *1108 0.00435114
*CONN
*I *2721:A I *D sg13g2_inv_1
*I *3589:X O *D sg13g2_buf_1
*CAP
1 *2721:A 0.000493146
2 *3589:X 0.000619048
3 *1108:14 0.00111219
4 *2721:A *2719:A 0
5 *1108:14 *2720:A 7.92359e-05
6 *1108:14 *1120:10 0.000614901
7 *2873:B *1108:14 0.00024199
8 *3057:A2 *2721:A 0.000337902
9 *3303:D *2721:A 0.000176334
10 *3392:A *1108:14 8.0216e-05
11 *3396:A *2721:A 0
12 *3481:A *1108:14 0
13 *3491:A *2721:A 0
14 *492:12 *1108:14 0.000112426
15 *621:87 *2721:A 0.000274452
16 *635:10 *1108:14 0.000130062
17 *811:47 *2721:A 0
18 *821:10 *1108:14 7.92359e-05
19 *825:32 *2721:A 0
20 *1064:10 *1108:14 0
*RES
1 *3589:X *1108:14 47.1173 
2 *1108:14 *2721:A 45.0779 
*END

*D_NET *1109 0.00883722
*CONN
*I *2700:A I *D sg13g2_inv_1
*I *3590:X O *D sg13g2_buf_1
*CAP
1 *2700:A 0
2 *3590:X 4.12546e-05
3 *1109:14 0.000793197
4 *1109:8 0.000834452
5 *1109:8 *1113:8 0
6 *1109:14 *1113:14 0.00363374
7 *3566:A *1109:8 0
8 *1012:18 *1109:14 0.000145157
9 *1034:8 *1109:14 0
10 *1057:12 *1109:14 0.00338942
*RES
1 *3590:X *1109:8 40.3193 
2 *1109:8 *1109:14 38.0662 
3 *1109:14 *2700:A 20 
*END

*D_NET *1110 0.00113607
*CONN
*I *2720:A I *D sg13g2_inv_1
*I *3591:X O *D sg13g2_buf_1
*CAP
1 *2720:A 0.000520688
2 *3591:X 0.000520688
3 *2873:B *2720:A 0
4 *3303:CLK *2720:A 0
5 *3396:A *2720:A 0
6 *381:12 *2720:A 1.54556e-05
7 *821:10 *2720:A 0
8 *1108:14 *2720:A 7.92359e-05
*RES
1 *3591:X *2720:A 44.7895 
*END

*D_NET *1111 0.00232503
*CONN
*I *2719:A I *D sg13g2_inv_1
*I *3592:X O *D sg13g2_buf_1
*CAP
1 *2719:A 0.000195745
2 *3592:X 0.000623504
3 *1111:14 0.000819249
4 *1111:14 *1123:10 0
5 *2721:A *2719:A 0
6 *2873:B *1111:14 0.000144811
7 *3303:CLK *2719:A 0
8 *373:24 *2719:A 0
9 *376:14 *1111:14 0.000418048
10 *381:12 *2719:A 0
11 *381:12 *1111:14 0
12 *709:14 *2719:A 4.79017e-05
13 *1076:34 *1111:14 7.57681e-05
*RES
1 *3592:X *1111:14 46.3139 
2 *1111:14 *2719:A 41.8334 
*END

*D_NET *1112 0.00425346
*CONN
*I *2699:A I *D sg13g2_inv_1
*I *3593:X O *D sg13g2_buf_1
*CAP
1 *2699:A 0
2 *3593:X 0.000145774
3 *1112:18 0.00106676
4 *1112:10 0.00121253
5 *1112:18 *1114:14 0.000236057
6 *1112:18 *1115:10 0.00135628
7 *3578:A *1112:10 0
8 *3593:A *1112:10 0
9 *349:8 *1112:18 0.000236057
10 *1023:18 *1112:18 0
11 *1097:14 *1112:18 0
*RES
1 *3593:X *1112:10 41.2875 
2 *1112:10 *1112:18 31.6493 
3 *1112:18 *2699:A 20 
*END

*D_NET *1113 0.00805378
*CONN
*I *2698:A I *D sg13g2_inv_1
*I *3594:X O *D sg13g2_buf_1
*CAP
1 *2698:A 0
2 *3594:X 6.60055e-05
3 *1113:14 0.00128905
4 *1113:8 0.00135506
5 *1113:8 *1115:10 0
6 *1012:18 *1113:14 0.000395371
7 *1023:12 *1113:14 0
8 *1034:8 *1113:14 0
9 *1050:10 *1113:14 0
10 *1057:12 *1113:14 0
11 *1090:16 *1113:14 0.00131456
12 *1109:8 *1113:8 0
13 *1109:14 *1113:14 0.00363374
*RES
1 *3594:X *1113:8 40.2628 
2 *1113:8 *1113:14 40.3219 
3 *1113:14 *2698:A 20 
*END

*D_NET *1114 0.00733943
*CONN
*I *2697:A I *D sg13g2_inv_1
*I *3595:X O *D sg13g2_buf_1
*CAP
1 *2697:A 0
2 *3595:X 0.000137647
3 *1114:14 0.000982985
4 *1114:8 0.00112063
5 *1114:14 *1115:10 0.00135794
6 *3593:A *1114:8 0.000241248
7 *3595:A *1114:8 0
8 *352:8 *1114:14 0
9 *358:14 *1114:8 0.000144052
10 *1023:18 *1114:14 0
11 *1079:28 *1114:14 0.00311887
12 *1097:14 *1114:14 0
13 *1112:18 *1114:14 0.000236057
*RES
1 *3595:X *1114:8 41.6171 
2 *1114:8 *1114:14 35.9959 
3 *1114:14 *2697:A 20 
*END

*D_NET *1115 0.00374743
*CONN
*I *2696:A I *D sg13g2_inv_1
*I *3596:X O *D sg13g2_buf_1
*CAP
1 *2696:A 0
2 *3596:X 0.000395708
3 *1115:10 0.000395708
4 s_axil_awready *1115:10 0.000241792
5 *1112:18 *1115:10 0.00135628
6 *1113:8 *1115:10 0
7 *1114:14 *1115:10 0.00135794
*RES
1 *3596:X *1115:10 47.9001 
2 *1115:10 *2696:A 40 
*END

*D_NET *1116 0.008783
*CONN
*I *2803:B2 I *D sg13g2_a22oi_1
*I *3597:X O *D sg13g2_buf_1
*CAP
1 *2803:B2 0
2 *3597:X 0.00151284
3 *1116:12 0.00199094
4 *1116:8 0.00350378
5 *2756:A2 *1116:8 0
6 *2770:A1 *1116:8 0
7 *2770:A2 *1116:8 0.000144768
8 *2791:A2 *1116:8 0.000208382
9 *3564:A *1116:8 0
10 *3586:A *1116:8 0
11 *251:10 *1116:8 0
12 *422:16 *1116:12 0.00097584
13 *716:26 *1116:12 0
14 *720:43 *1116:12 0
15 *731:34 *1116:12 0
16 *755:29 *1116:12 0
17 *755:35 *1116:8 0
18 *755:54 *1116:8 0
19 *833:130 *1116:8 0
20 *840:26 *1116:12 0
21 *901:65 *1116:8 0
22 *901:65 *1116:12 0
23 *963:8 *1116:12 0.000446439
24 *1045:20 *1116:8 0
25 *1094:12 *1116:8 0
*RES
1 *3597:X *1116:8 33.4312 
2 *1116:8 *1116:12 37.9014 
3 *1116:12 *2803:B2 40 
*END

*D_NET *1117 0.00573017
*CONN
*I *2695:A I *D sg13g2_inv_1
*I *3598:X O *D sg13g2_buf_1
*CAP
1 *2695:A 0
2 *3598:X 0.000161268
3 *1117:14 0.00093227
4 *1117:8 0.00109354
5 *1117:14 *1118:12 7.91362e-05
6 *2917:A1 *1117:8 7.91347e-05
7 *3233:RESET_B *1117:14 0
8 *3235:RESET_B *1117:14 0
9 *3598:A *1117:8 0
10 *363:16 *1117:14 0
11 *764:23 *1117:14 0.00147373
12 *889:31 *1117:14 0.00191109
*RES
1 *3598:X *1117:8 41.4008 
2 *1117:8 *1117:14 33.6166 
3 *1117:14 *2695:A 20 
*END

*D_NET *1118 0.00553881
*CONN
*I *2710:A I *D sg13g2_inv_1
*I *3599:X O *D sg13g2_buf_1
*CAP
1 *2710:A 0
2 *3599:X 0
3 *1118:12 0.000942387
4 *1118:6 0.000942387
5 *1118:12 *2709:A 0
6 *3213:CLK *1118:12 0
7 *3233:RESET_B *1118:12 0
8 *3233:D *1118:12 8.0216e-05
9 *292:10 *1118:12 0.00126491
10 *363:16 *1118:12 0
11 *493:28 *1118:12 0
12 *889:31 *1118:12 0.00222978
13 *1117:14 *1118:12 7.91362e-05
*RES
1 *3599:X *1118:6 40 
2 *1118:6 *1118:12 32.878 
3 *1118:12 *2710:A 20 
*END

*D_NET *1119 0.00612541
*CONN
*I *2709:A I *D sg13g2_inv_1
*I *3600:X O *D sg13g2_buf_1
*CAP
1 *2709:A 0.000305782
2 *3600:X 0.000178409
3 *1119:18 0.000789507
4 *1119:10 0.000662134
5 s_axil_awready *2709:A 0
6 *3233:RESET_B *2709:A 0
7 *3235:CLK *1119:18 0.000292789
8 *522:10 *1119:18 0.000398338
9 *524:8 *1119:18 0.000235154
10 *705:28 *1119:18 0.000454344
11 *764:10 *2709:A 0
12 *764:23 *2709:A 0
13 *764:23 *1119:10 0.00049207
14 *809:31 *1119:10 7.91362e-05
15 *816:10 *1119:18 0.000158578
16 *816:12 *1119:18 0.000429461
17 *816:18 *1119:18 0.00115583
18 *889:31 *1119:10 0.000493884
19 *1118:12 *2709:A 0
*RES
1 *3600:X *1119:10 42.8634 
2 *1119:10 *1119:18 48.7653 
3 *1119:18 *2709:A 42.8325 
*END

*D_NET *1120 0.0220351
*CONN
*I *3124:D I *D sg13g2_nand4_1
*I *3008:D I *D sg13g2_nand4_1
*I *3446:A I *D sg13g2_buf_1
*I *3601:X O *D sg13g2_buf_1
*CAP
1 *3124:D 0.000681215
2 *3008:D 0
3 *3446:A 0
4 *3601:X 3.69318e-05
5 *1120:46 0.00148764
6 *1120:29 0.00150386
7 *1120:22 0.000708591
8 *1120:12 0.00140603
9 *1120:10 0.00456159
10 *1120:8 0.00459852
11 *2874:A *1120:8 0
12 *2992:A *3124:D 0
13 *3123:B1 *3124:D 0
14 *3136:D *1120:22 0.000130055
15 *3138:B *1120:22 0
16 *3277:CLK *1120:46 0
17 *3429:A *1120:22 0.00024122
18 *345:14 *1120:22 0
19 *348:10 *1120:46 0
20 *352:16 *3124:D 0
21 *362:16 *1120:22 0.000595997
22 *362:16 *1120:29 0.00105181
23 *362:16 *1120:46 4.77699e-05
24 *492:20 *1120:10 0
25 *493:22 *1120:10 0
26 *493:28 *1120:10 0
27 *571:125 *1120:46 0
28 *626:10 *1120:10 0.000343571
29 *635:10 *1120:10 0
30 *692:10 *1120:22 0
31 *695:14 *1120:46 7.47964e-05
32 *698:6 *3124:D 0.000176586
33 *714:52 *1120:10 0
34 *758:8 *1120:46 0.000287343
35 *764:31 *1120:10 0
36 *764:50 *1120:10 0
37 *805:37 *1120:46 0
38 *809:108 *1120:10 0
39 *820:27 *1120:10 0
40 *856:108 *1120:29 1.54282e-05
41 *856:108 *1120:46 3.23417e-05
42 *861:22 *1120:22 0.00104097
43 *863:22 *1120:22 0.000112095
44 *863:38 *1120:22 0
45 *863:38 *1120:29 0
46 *863:44 *1120:46 0
47 *866:35 *3124:D 0.00111594
48 *867:84 *1120:10 0.000129842
49 *873:39 *1120:22 0.000666787
50 *883:85 *1120:46 0
51 *885:22 *1120:22 0
52 *886:97 *1120:10 0.000284831
53 *1049:24 *1120:10 7.30101e-05
54 *1076:34 *1120:8 1.54118e-05
55 *1108:14 *1120:10 0.000614901
*RES
1 *3601:X *1120:8 40.3193 
2 *1120:8 *1120:10 40.3966 
3 *1120:10 *1120:12 20 
4 *1120:12 *1120:22 49.5481 
5 *1120:22 *3446:A 20 
6 *1120:12 *1120:29 7.0246 
7 *1120:29 *3008:D 20 
8 *1120:29 *1120:46 47.7662 
9 *1120:46 *3124:D 27.8074 
*END

*D_NET *1121 0.0239675
*CONN
*I *3107:D I *D sg13g2_nand4_1
*I *3099:D I *D sg13g2_nand4_1
*I *3444:A I *D sg13g2_buf_1
*I *3602:X O *D sg13g2_buf_1
*CAP
1 *3107:D 0
2 *3099:D 0
3 *3444:A 0.000375652
4 *3602:X 2.46065e-05
5 *1121:52 0.000661954
6 *1121:39 7.48974e-05
7 *1121:33 0.00172105
8 *1121:16 0.00135985
9 *1121:14 0.0022461
10 *1121:10 0.0051593
11 *1121:8 0.00293781
12 *1121:8 *1122:14 1.57249e-05
13 *1121:10 *3057:B1 0
14 *1121:10 *1122:14 0
15 *1121:10 *1122:22 0.000237232
16 *2732:A *1121:10 0
17 *2913:A2 *1121:14 0
18 *2922:A *1121:10 0.000725026
19 *2947:C *3444:A 4.77425e-05
20 *3243:CLK *1121:14 0
21 *3378:A *3444:A 0.00012816
22 *3452:A *1121:14 0
23 *3452:A *1121:33 0.00150576
24 *3452:A *1121:52 0.000305772
25 *298:12 *1121:14 0
26 *356:46 *1121:52 0.000818047
27 *358:14 *1121:14 0
28 *361:18 *1121:39 0.00018128
29 *369:10 *1121:10 0.000431223
30 *492:20 *1121:10 0
31 *521:10 *1121:10 0
32 *535:12 *1121:10 0
33 *536:8 *1121:10 0
34 *627:8 *1121:10 0
35 *705:59 *1121:14 0
36 *736:14 *1121:14 0
37 *736:32 *1121:14 0
38 *736:32 *1121:52 0
39 *759:28 *3444:A 4.77425e-05
40 *790:38 *1121:52 0.000974945
41 *794:41 *1121:52 0
42 *806:16 *3444:A 0.000234224
43 *806:25 *3444:A 0.000287256
44 *809:46 *1121:10 0
45 *816:51 *1121:10 0
46 *816:51 *1121:14 0
47 *820:27 *1121:10 0
48 *821:10 *1121:10 0.000669134
49 *821:14 *1121:10 0.00141764
50 *861:59 *1121:10 0
51 *878:32 *1121:14 0.000274491
52 *878:32 *1121:33 0
53 *878:41 *1121:33 0
54 *878:41 *1121:52 0
55 *878:56 *1121:52 0
56 *895:77 *1121:10 7.48517e-05
57 *898:46 *3444:A 0
58 *898:59 *3444:A 0.000764907
59 *898:59 *1121:33 0.000265108
*RES
1 *3602:X *1121:8 40.3193 
2 *1121:8 *1121:10 30.0142 
3 *1121:10 *1121:14 40.2189 
4 *1121:14 *1121:16 20 
5 *1121:16 *3444:A 45.6135 
6 *1121:16 *1121:33 31.3918 
7 *1121:33 *1121:39 40.8446 
8 *1121:39 *3099:D 20 
9 *1121:33 *1121:52 48.549 
10 *1121:52 *3107:D 20 
*END

*D_NET *1122 0.0120741
*CONN
*I *3442:A I *D sg13g2_buf_1
*I *3074:D I *D sg13g2_nand4_1
*I *3070:D I *D sg13g2_nand4_1
*I *3603:X O *D sg13g2_buf_1
*CAP
1 *3442:A 0.000103865
2 *3074:D 5.90868e-05
3 *3070:D 0.000649697
4 *3603:X 0.000807358
5 *1122:54 0.00048788
6 *1122:22 0.00137529
7 *1122:14 0.00185788
8 *1122:14 *3057:B1 0
9 *1122:54 *1133:27 0.000671083
10 *3070:B *3070:D 0
11 *3070:C *3070:D 0.00172452
12 *3074:C *3074:D 1.54556e-05
13 *3587:A *3442:A 0.00017616
14 *364:12 *3070:D 0.00039332
15 *364:12 *3074:D 0.00012816
16 *365:22 *3070:D 0
17 *377:6 *3074:D 0
18 *381:12 *1122:14 8.92091e-05
19 *641:8 *3070:D 0.000288589
20 *764:31 *1122:54 7.30101e-05
21 *811:55 *1122:14 0
22 *821:74 *3070:D 0
23 *868:102 *1122:54 0.000573127
24 *873:99 *3070:D 0
25 *877:23 *1122:22 0.000987394
26 *877:34 *1122:22 4.77425e-05
27 *886:112 *3070:D 0.00012816
28 *886:112 *3074:D 6.84327e-05
29 *886:112 *1122:22 0.000469001
30 *889:56 *1122:22 0.000183657
31 *895:77 *1122:14 7.30101e-05
32 *1043:8 *1122:14 0.000235089
33 *1071:18 *3442:A 1.11656e-05
34 *1076:34 *1122:14 0
35 *1106:14 *3442:A 0.000143818
36 *1121:8 *1122:14 1.57249e-05
37 *1121:10 *1122:14 0
38 *1121:10 *1122:22 0.000237232
*RES
1 *3603:X *1122:14 47.519 
2 *1122:14 *1122:22 47.9001 
3 *1122:22 *3070:D 49.1773 
4 *1122:22 *3074:D 40.9167 
5 *1122:14 *1122:54 44.7792 
6 *1122:54 *3442:A 41.1845 
*END

*D_NET *1123 0.00979949
*CONN
*I *3440:A I *D sg13g2_buf_1
*I *3029:D I *D sg13g2_nand4_1
*I *3037:D I *D sg13g2_nand4_1
*I *3604:X O *D sg13g2_buf_1
*CAP
1 *3440:A 0
2 *3029:D 0.000647083
3 *3037:D 0
4 *3604:X 0.000394105
5 *1123:38 0.00168352
6 *1123:34 0.00112549
7 *1123:30 0.00032084
8 *1123:24 0.00102939
9 *1123:16 0.00119985
10 *1123:10 0.000796358
11 *3029:D *1143:48 0
12 *3029:D *1145:37 0
13 *1123:10 *1136:25 0
14 *2893:A *1123:24 0
15 *3029:C *3029:D 0.000144417
16 *3037:C *3029:D 1.54556e-05
17 *3037:C *1123:38 0.000467503
18 *3041:B *1123:38 0
19 *3041:A *1123:38 0
20 *3076:A *1123:24 0
21 *373:24 *1123:24 0.00118202
22 *374:18 *1123:24 0
23 *374:18 *1123:38 0
24 *374:35 *1123:38 0
25 *376:14 *1123:10 0
26 *604:10 *1123:34 0
27 *604:10 *1123:38 4.77425e-05
28 *616:10 *3029:D 0
29 *619:10 *1123:38 0
30 *709:14 *1123:10 0.000286666
31 *709:29 *1123:10 0.000314204
32 *714:58 *1123:16 0
33 *821:115 *1123:16 0
34 *825:53 *1123:24 0
35 *874:8 *1123:24 0
36 *875:16 *1123:30 0
37 *887:48 *1123:38 0
38 *887:67 *1123:34 0.000144838
39 *887:67 *1123:38 0
40 *887:92 *3029:D 0
41 *887:92 *1123:38 0
42 *990:16 *1123:16 0
43 *1044:8 *1123:10 0
44 *1076:34 *1123:10 0
45 *1111:14 *1123:10 0
*RES
1 *3604:X *1123:10 44.5011 
2 *1123:10 *1123:16 45.0779 
3 *1123:16 *1123:24 48.7344 
4 *1123:24 *1123:30 42.266 
5 *1123:30 *1123:34 20.9682 
6 *1123:34 *1123:38 10.4339 
7 *1123:38 *3037:D 20 
8 *1123:38 *3029:D 26.6126 
9 *1123:34 *3440:A 20 
*END

*D_NET *1124 0.00703952
*CONN
*I *2872:A I *D sg13g2_nand2_1
*I *2874:C I *D sg13g2_nand4_1
*I *2876:A1 I *D sg13g2_a21o_1
*I *3605:X O *D sg13g2_buf_1
*CAP
1 *2872:A 2.18538e-05
2 *2874:C 0
3 *2876:A1 0
4 *3605:X 0.000646798
5 *1124:45 0.000304696
6 *1124:26 0.00111187
7 *1124:16 0.000829027
8 *1124:14 0.000646798
9 *2872:B *1124:26 0.00129987
10 *2873:C *1124:45 0.000124547
11 *2878:B *1124:14 0
12 *3144:B *1124:14 0.000264029
13 *3144:C *1124:14 0
14 *3473:A *1124:14 0.000209599
15 *3592:A *1124:26 0
16 *3592:A *1124:45 0.000190706
17 *241:14 *2872:A 3.23417e-05
18 *241:14 *1124:26 0.000370455
19 *491:10 *2872:A 4.77425e-05
20 *491:10 *1124:26 0.0001122
21 *493:12 *1124:45 0.000140177
22 *493:20 *1124:45 2.14736e-05
23 *494:10 *1124:26 0.00012801
24 *714:20 *1124:45 5.58e-06
25 *714:39 *1124:14 0.000112638
26 *714:52 *1124:14 0
27 *764:57 *1124:14 0
28 *765:18 *1124:26 0
29 *982:10 *1124:14 0.000130011
30 *1025:12 *1124:14 0
31 *1034:37 *1124:26 8.0342e-05
32 *1034:37 *1124:45 0.000208756
*RES
1 *3605:X *1124:14 45.8528 
2 *1124:14 *1124:16 20 
3 *1124:16 *1124:26 49.0537 
4 *1124:26 *2876:A1 20 
5 *1124:26 *1124:45 43.4196 
6 *1124:45 *2874:C 20 
7 *1124:16 *2872:A 20.3193 
*END

*D_NET *1125 0.0354456
*CONN
*I *3687:A I *D sg13g2_buf_1
*I *2743:B2 I *D sg13g2_a22oi_1
*I *3111:B1 I *D sg13g2_a21oi_1
*I *3329:Q O *D sg13g2_dfrbpq_1
*CAP
1 *3687:A 0
2 *2743:B2 4.00302e-05
3 *3111:B1 0
4 *3329:Q 0.000106083
5 *1125:48 0.000781636
6 *1125:42 0.00411559
7 *1125:27 0.00343881
8 *1125:23 0.00473507
9 *1125:21 0.00472261
10 *1125:10 0.00015845
11 *1125:42 *1130:35 0
12 *1125:48 *1137:66 0
13 *2743:A2 *2743:B2 4.77425e-05
14 *2830:A2 *1125:42 0.000180882
15 *2839:A2 *1125:42 0
16 *3412:A *1125:42 0.00060678
17 *460:10 *1125:42 0
18 *460:16 *1125:42 0
19 *464:12 *1125:42 0.0013449
20 *471:14 *1125:48 0
21 *485:14 *1125:48 0.00021124
22 *672:8 *1125:10 0
23 *717:16 *1125:23 0.00827993
24 *717:32 *1125:42 0
25 *723:102 *1125:42 0
26 *728:23 *1125:23 0
27 *728:42 *1125:42 0
28 *730:28 *1125:42 0
29 *731:42 *1125:42 0.000287672
30 *740:23 *1125:23 0.00539133
31 *747:42 *1125:48 0
32 *770:10 *1125:42 0
33 *770:39 *1125:42 0
34 *793:14 *1125:42 0
35 *829:20 *1125:42 0
36 *833:111 *1125:42 0
37 *848:90 *1125:48 0.000178985
38 *852:18 *1125:42 0
39 *880:40 *1125:10 0
40 *884:106 *1125:23 0.00053764
41 *909:10 *1125:42 0
42 *968:12 *1125:27 0.000124547
43 *968:12 *1125:42 0.000155653
*RES
1 *3329:Q *1125:10 40.9167 
2 *1125:10 *3111:B1 40 
3 *1125:10 *1125:21 20.3502 
4 *1125:21 *1125:23 56.7736 
5 *1125:23 *1125:27 20.5974 
6 *1125:27 *2743:B2 40.3193 
7 *1125:27 *1125:42 34.1445 
8 *1125:42 *1125:48 47.4572 
9 *1125:48 *3687:A 40 
*END

*D_NET *1126 0.0173096
*CONN
*I *3688:A I *D sg13g2_buf_1
*I *2782:A1 I *D sg13g2_a21oi_1
*I *3086:B1 I *D sg13g2_a21oi_1
*I *3317:Q O *D sg13g2_dfrbpq_1
*CAP
1 *3688:A 0
2 *2782:A1 0
3 *3086:B1 0
4 *3317:Q 0.000307488
5 *1126:60 0
6 *1126:56 0.00100087
7 *1126:52 0.00312155
8 *1126:37 0.00223119
9 *1126:29 0.0012976
10 *1126:18 0.00021951
11 *1126:8 0.00171409
12 *1126:52 *1132:46 0
13 *2782:A2 *1126:37 1.54008e-05
14 *2782:A2 *1126:52 0.000274189
15 *3086:A1 *1126:18 0
16 *3167:RESET_B *1126:52 0.000274491
17 *3317:RESET_B *1126:29 0.000339174
18 *462:10 *1126:52 0.000600615
19 *467:16 *1126:52 0
20 *653:8 *1126:18 2.2407e-05
21 *697:11 *1126:18 0
22 *713:72 *1126:37 0.00012816
23 *724:59 *1126:56 0
24 *748:31 *1126:18 1.54008e-05
25 *748:31 *1126:29 0
26 *753:18 *1126:29 0.00198853
27 *753:18 *1126:37 0.000112061
28 *753:18 *1126:52 0.000790526
29 *753:28 *1126:52 0
30 *754:31 *1126:37 0
31 *754:31 *1126:52 0
32 *766:49 *1126:8 0
33 *766:49 *1126:18 0
34 *768:12 *1126:37 0
35 *790:38 *1126:8 0.00104732
36 *790:38 *1126:18 0.000468823
37 *907:25 *1126:52 0
38 *907:29 *1126:52 0.000915502
39 *907:76 *1126:52 0.000424671
40 *907:82 *1126:56 0
*RES
1 *3317:Q *1126:8 44.7998 
2 *1126:8 *1126:18 42.7192 
3 *1126:18 *3086:B1 40 
4 *1126:8 *1126:29 33.2973 
5 *1126:29 *1126:37 41.3493 
6 *1126:37 *2782:A1 20 
7 *1126:37 *1126:52 41.8257 
8 *1126:52 *1126:56 30.918 
9 *1126:56 *1126:60 40 
10 *1126:60 *3688:A 20 
*END

*D_NET *1127 0.00726534
*CONN
*I *2807:B2 I *D sg13g2_a22oi_1
*I *3606:X O *D sg13g2_buf_1
*CAP
1 *2807:B2 0
2 *3606:X 0.000442579
3 *1127:16 0.00094132
4 *1127:10 0.0013839
5 *2807:A2 *1127:16 3.15744e-05
6 *2827:A2 *1127:16 0
7 *255:8 *1127:10 0.000287361
8 *415:16 *1127:10 0.000392442
9 *755:54 *1127:10 0
10 *755:54 *1127:16 0
11 *760:18 *1127:16 0
12 *815:8 *1127:10 0
13 *815:14 *1127:16 0
14 *826:14 *1127:10 0
15 *826:14 *1127:16 0.0017787
16 *827:10 *1127:16 0
17 *827:22 *1127:16 0.0018811
18 *845:91 *1127:10 0.000126358
19 *871:16 *1127:16 0
*RES
1 *3606:X *1127:10 44.6247 
2 *1127:10 *1127:16 33.1222 
3 *1127:16 *2807:B2 20 
*END

*D_NET *1128 0.0236603
*CONN
*I *3689:A I *D sg13g2_buf_1
*I *2786:A1 I *D sg13g2_a21oi_1
*I *3090:B1 I *D sg13g2_a21oi_1
*I *3319:Q O *D sg13g2_dfrbpq_1
*CAP
1 *3689:A 0
2 *2786:A1 1.20573e-05
3 *3090:B1 0.000245826
4 *3319:Q 0.00105131
5 *1128:69 0.00190925
6 *1128:49 0.00671148
7 *1128:32 0.00561978
8 *1128:49 *1131:23 0.00018128
9 *1128:69 *3691:A 0.000204769
10 *1128:69 *1129:62 0.0018917
11 *1128:69 *1130:66 0.00274667
12 *1128:69 *1135:46 0
13 *2761:B1 *1128:32 0
14 *2786:A2 *2786:A1 1.54285e-05
15 *2804:A2 *1128:49 0
16 *3090:A1 *3090:B1 8.02763e-05
17 *3090:A2 *3090:B1 0
18 *3319:CLK *3090:B1 0
19 *6:10 *1128:69 0
20 *10:12 *1128:69 0.000231922
21 *407:28 *1128:32 0
22 *407:28 *1128:49 0
23 *423:10 *1128:49 0.000391756
24 *427:8 *1128:49 0.000232837
25 *429:8 *1128:49 0
26 *446:14 *1128:69 0.000466279
27 *721:48 *1128:32 0.000732706
28 *721:71 *1128:49 0
29 *726:14 *1128:49 0
30 *726:44 *1128:49 0
31 *726:52 *1128:69 0
32 *752:34 *2786:A1 2.07911e-05
33 *768:32 *1128:49 0.000340288
34 *790:26 *1128:32 0
35 *828:10 *1128:49 0
36 *828:24 *1128:49 0
37 *828:28 *1128:32 0
38 *828:28 *1128:49 0
39 *831:92 *1128:69 0
40 *833:25 *1128:49 0
41 *833:29 *1128:49 0
42 *833:37 *1128:32 7.31628e-05
43 *837:93 *1128:49 0
44 *839:25 *1128:49 0
45 *843:20 *1128:49 0.000500716
46 *854:59 *1128:69 0
47 *909:38 *3090:B1 0
48 *909:38 *1128:32 0
49 *970:10 *1128:49 0
*RES
1 *3319:Q *3090:B1 42.5647 
2 *3319:Q *1128:32 48.1782 
3 *1128:32 *2786:A1 40.139 
4 *1128:32 *1128:49 42.127 
5 *1128:49 *1128:69 42.9021 
6 *1128:69 *3689:A 20 
*END

*D_NET *1129 0.0261432
*CONN
*I *3690:A I *D sg13g2_buf_1
*I *2790:A1 I *D sg13g2_a21oi_1
*I *3094:B1 I *D sg13g2_a21oi_1
*I *3321:Q O *D sg13g2_dfrbpq_1
*CAP
1 *3690:A 0
2 *2790:A1 7.7347e-05
3 *3094:B1 0
4 *3321:Q 0
5 *1129:62 0.00144382
6 *1129:56 0.00413521
7 *1129:37 0.00288459
8 *1129:33 0.00153275
9 *1129:25 0.00281752
10 *1129:14 0.000174365
11 *1129:4 0.00157498
12 *1129:62 *3693:A 0.00124467
13 *1129:62 *3695:A 0
14 gpio_dir[22] *1129:62 0
15 *2774:A1 *1129:56 0
16 *2790:A2 *2790:A1 0.000144805
17 *2790:B1 *1129:33 0.000822565
18 *3094:A1 *1129:14 0
19 *3325:RESET_B *1129:33 0.000339683
20 *3325:D *1129:33 0
21 *3467:A *1129:56 0.000552503
22 *7:10 *1129:62 4.79124e-05
23 *10:12 *1129:62 0
24 *263:8 *1129:56 0.00049279
25 *437:14 *1129:33 0.000855693
26 *439:8 *1129:56 0
27 *440:10 *1129:56 0
28 *446:14 *1129:56 2.20966e-05
29 *458:14 *1129:56 0.00366595
30 *697:144 *1129:56 0
31 *700:8 *1129:56 7.52158e-05
32 *700:12 *1129:56 0
33 *700:20 *1129:37 0
34 *700:20 *1129:56 0
35 *703:10 *1129:62 0
36 *712:16 *1129:25 0
37 *712:18 *1129:25 0
38 *712:22 *1129:25 0
39 *720:25 *1129:25 7.53228e-05
40 *721:48 *1129:14 0.000128095
41 *721:48 *1129:25 0.000370977
42 *725:46 *1129:56 0
43 *730:8 *1129:25 0
44 *730:14 *1129:25 0
45 *736:45 *1129:56 0
46 *758:57 *1129:33 0
47 *794:37 *2790:A1 0.000144805
48 *794:37 *1129:33 0
49 *796:28 *1129:25 0
50 *819:102 *1129:25 0
51 *830:14 *1129:56 0
52 *840:22 *1129:56 0
53 *840:26 *1129:56 0
54 *907:25 *1129:56 0
55 *907:46 *1129:56 0.000393012
56 *909:38 *1129:14 0
57 *909:38 *1129:25 0
58 *972:10 *1129:56 0.000234792
59 *1085:14 *1129:56 0
60 *1128:69 *1129:62 0.0018917
*RES
1 *3321:Q *1129:4 20 
2 *1129:4 *1129:14 41.4523 
3 *1129:14 *3094:B1 20 
4 *1129:4 *1129:25 33.7093 
5 *1129:25 *1129:33 34.3994 
6 *1129:33 *1129:37 21.0918 
7 *1129:37 *2790:A1 40.9682 
8 *1129:37 *1129:56 32.5583 
9 *1129:56 *1129:62 36.0268 
10 *1129:62 *3690:A 20 
*END

*D_NET *1130 0.0254031
*CONN
*I *3691:A I *D sg13g2_buf_1
*I *2795:B2 I *D sg13g2_a22oi_1
*I *3098:B1 I *D sg13g2_a21oi_1
*I *3323:Q O *D sg13g2_dfrbpq_1
*CAP
1 *3691:A 0.000160956
2 *2795:B2 0
3 *3098:B1 8.26909e-05
4 *3323:Q 0
5 *1130:66 0.00293801
6 *1130:48 0.00371887
7 *1130:35 0.00184646
8 *1130:27 0.00293319
9 *1130:10 0.00154308
10 *1130:4 0.00131547
11 *1130:66 *1135:46 0
12 *1130:66 *1135:52 0.000209714
13 *2896:A2 *1130:66 8.03091e-05
14 *2896:B1 *1130:66 0
15 *2899:A *1130:66 8.01773e-05
16 *3082:A1 *1130:27 0
17 *3085:A *1130:27 0
18 *3085:B *1130:27 0
19 *3165:D *1130:35 0
20 *3315:RESET_B *1130:27 0
21 *3315:D *1130:27 0
22 *3315:CLK *1130:27 0
23 *422:16 *1130:35 0
24 *458:10 *1130:35 0.000886161
25 *460:16 *1130:35 0
26 *646:84 *3098:B1 0
27 *646:84 *1130:27 0
28 *646:120 *1130:27 0.000124824
29 *713:80 *1130:48 0
30 *725:29 *1130:27 0
31 *736:32 *3098:B1 0
32 *736:32 *1130:27 0
33 *736:32 *1130:35 0
34 *736:53 *1130:35 0.000853726
35 *744:41 *1130:27 0
36 *750:20 *1130:66 0
37 *754:31 *1130:48 0.000435845
38 *770:22 *1130:35 0
39 *770:39 *1130:35 0.000287342
40 *781:6 *1130:66 7.9524e-05
41 *781:27 *1130:66 0.000144531
42 *797:29 *1130:10 0.0018221
43 *798:24 *1130:10 0.0018221
44 *800:18 *1130:48 0
45 *800:22 *1130:48 0
46 *822:108 *1130:48 0
47 *854:24 *1130:66 0.000200462
48 *854:59 *3691:A 0
49 *854:59 *1130:66 0.000337982
50 *908:16 *1130:48 0.000435719
51 *970:10 *1130:35 0.000112422
52 *1125:42 *1130:35 0
53 *1128:69 *3691:A 0.000204769
54 *1128:69 *1130:66 0.00274667
*RES
1 *3323:Q *1130:4 20 
2 *1130:4 *1130:10 48.5078 
3 *1130:10 *3098:B1 20.7519 
4 *1130:10 *1130:27 49.6064 
5 *1130:27 *1130:35 37.8602 
6 *1130:35 *2795:B2 40 
7 *1130:4 *1130:48 30.1867 
8 *1130:48 *1130:66 48.6958 
9 *1130:66 *3691:A 21.5836 
*END

*D_NET *1131 0.0178198
*CONN
*I *3102:B1 I *D sg13g2_a21oi_1
*I *3692:A I *D sg13g2_buf_1
*I *2798:A1 I *D sg13g2_a21oi_1
*I *3325:Q O *D sg13g2_dfrbpq_1
*CAP
1 *3102:B1 0.000278524
2 *3692:A 0
3 *2798:A1 0
4 *3325:Q 0.000331596
5 *1131:43 0.000524277
6 *1131:31 0.00232424
7 *1131:23 0.00559429
8 *1131:21 0.00379433
9 *1131:14 0.000602866
10 *1131:10 0.000881391
11 *1131:8 0.000331596
12 *1131:31 *3695:A 0
13 *1131:31 *1133:45 0
14 *1131:31 *1134:27 0
15 *1131:31 *1141:52 0
16 *1131:43 *3695:A 0.00033358
17 *1131:43 *1133:59 0
18 gpio_dir[22] *1131:43 0
19 *2798:A2 *1131:14 1.54008e-05
20 *2801:B1 *1131:14 0
21 *2865:A1 *1131:31 0
22 *3102:A1 *3102:B1 0
23 *3175:RESET_B *1131:14 0
24 *3181:D *1131:31 8.00842e-05
25 *3207:RESET_B *1131:31 0.000240957
26 *3325:CLK *3102:B1 0.000208195
27 *3375:A *1131:31 0.000209763
28 *9:10 *1131:43 0
29 *11:10 *1131:43 0
30 *12:12 *1131:43 0
31 *388:14 *1131:31 0.000306531
32 *436:8 *1131:23 0
33 *437:26 *1131:14 0
34 *485:22 *1131:43 0.000176872
35 *703:55 *1131:43 0.000234224
36 *722:58 *1131:23 0
37 *724:43 *3102:B1 0
38 *724:43 *1131:14 0
39 *751:39 *1131:31 0.000704039
40 *768:12 *1131:8 0
41 *769:31 *1131:8 0
42 *772:27 *1131:23 0
43 *788:31 *1131:31 0.000337604
44 *794:37 *3102:B1 0
45 *794:37 *1131:14 0
46 *828:20 *1131:23 0.00012816
47 *843:20 *1131:23 0
48 *1128:49 *1131:23 0.00018128
*RES
1 *3325:Q *1131:8 43.5638 
2 *1131:8 *1131:10 20 
3 *1131:10 *1131:14 5.6444 
4 *1131:14 *2798:A1 20 
5 *1131:14 *1131:21 20 
6 *1131:21 *1131:23 33.7222 
7 *1131:23 *1131:31 38.0765 
8 *1131:31 *1131:43 45.5414 
9 *1131:43 *3692:A 20 
10 *1131:10 *3102:B1 22.6986 
*END

*D_NET *1132 0.0161319
*CONN
*I *3693:A I *D sg13g2_buf_1
*I *2802:A1 I *D sg13g2_a21oi_1
*I *3106:B1 I *D sg13g2_a21oi_1
*I *3327:Q O *D sg13g2_dfrbpq_1
*CAP
1 *3693:A 0.0007319
2 *2802:A1 9.59316e-05
3 *3106:B1 0.000237762
4 *3327:Q 0.000563541
5 *1132:46 0.00257847
6 *1132:31 0.00329992
7 *1132:10 0.00215873
8 *3693:A *3695:A 0
9 *1132:10 *1141:33 7.9225e-05
10 gpio_dir[22] *3693:A 0.000532481
11 *2785:A1 *1132:31 0
12 *2785:A2 *1132:31 0.000240699
13 *2802:A2 *2802:A1 1.54008e-05
14 *2802:A2 *1132:31 0.000176085
15 *2802:B1 *1132:31 0
16 *2804:A1 *1132:31 0
17 *2844:A2 *1132:46 0
18 *3106:A1 *3106:B1 0.000111917
19 *425:28 *1132:46 0
20 *441:12 *1132:31 0
21 *460:16 *1132:46 0
22 *464:12 *1132:46 0
23 *467:8 *1132:46 0
24 *726:10 *1132:31 0
25 *744:41 *3106:B1 0
26 *744:41 *1132:46 0
27 *748:31 *1132:31 0
28 *781:10 *1132:46 0
29 *781:27 *1132:46 0.000708612
30 *799:16 *3106:B1 0.000288816
31 *799:16 *1132:10 0.00124718
32 *800:8 *1132:31 0.000230444
33 *800:18 *3106:B1 0
34 *800:18 *1132:10 0
35 *800:18 *1132:31 0.000755217
36 *837:44 *1132:46 0
37 *907:29 *1132:46 0
38 *907:76 *1132:46 0
39 *909:55 *1132:31 9.68588e-05
40 *909:55 *1132:46 0.000336608
41 *909:63 *1132:31 0.000401424
42 *1126:52 *1132:46 0
43 *1129:62 *3693:A 0.00124467
*RES
1 *3327:Q *1132:10 46.3242 
2 *1132:10 *3106:B1 42.8737 
3 *1132:10 *1132:31 33.7505 
4 *1132:31 *2802:A1 21.133 
5 *1132:31 *1132:46 36.5521 
6 *1132:46 *3693:A 48.3224 
*END

*D_NET *1133 0.0223926
*CONN
*I *2806:A1 I *D sg13g2_a21oi_1
*I *3694:A I *D sg13g2_buf_1
*I *3045:B1 I *D sg13g2_a21oi_1
*I *3297:Q O *D sg13g2_dfrbpq_1
*CAP
1 *2806:A1 3.64002e-05
2 *3694:A 0
3 *3045:B1 0
4 *3297:Q 0
5 *1133:59 0.000480605
6 *1133:45 0.00264686
7 *1133:31 0.00227296
8 *1133:27 0.00512012
9 *1133:20 0.000586436
10 *1133:10 0.0057635
11 *1133:6 0.000127257
12 *1133:59 *3695:A 0
13 *1133:59 *1135:85 0
14 gpio_dir[25] *1133:59 2.18151e-05
15 *2806:A2 *2806:A1 1.54008e-05
16 *2809:A1 *1133:45 0
17 *2838:B1 *1133:45 0
18 *2841:A1 *1133:45 8.02102e-05
19 *2859:B1 *1133:45 0.000176652
20 *2861:A1 *1133:45 0.000370666
21 *2865:A1 *1133:59 1.54556e-05
22 *2865:B1 *1133:59 1.54556e-05
23 *3058:D *1133:20 0.000342627
24 *3181:RESET_B *1133:45 0.000337353
25 *3195:D *1133:45 0
26 *3205:D *1133:45 0.000500504
27 *3354:A *1133:45 0
28 *11:10 *1133:59 0
29 *372:20 *1133:27 0
30 *377:14 *1133:27 0
31 *388:14 *1133:45 0.000339146
32 *442:8 *1133:45 0.000288174
33 *444:10 *1133:31 0.000233942
34 *444:10 *1133:45 0.000234726
35 *485:32 *1133:59 0
36 *486:12 *1133:45 0
37 *514:18 *1133:27 0
38 *708:82 *1133:20 0.000130676
39 *751:29 *1133:45 0
40 *751:39 *1133:45 0
41 *751:54 *1133:59 0
42 *772:27 *1133:31 0
43 *772:27 *1133:45 0
44 *821:115 *1133:27 0
45 *825:38 *1133:27 0
46 *832:33 *1133:45 0.000436401
47 *841:58 *1133:45 0
48 *843:20 *1133:45 0
49 *870:40 *1133:27 0
50 *872:69 *1133:27 0.000868226
51 *895:38 *1133:27 0
52 *1036:12 *1133:20 2.25618e-05
53 *1101:8 *1133:20 0.00018387
54 *1106:14 *1133:20 7.34842e-05
55 *1122:54 *1133:27 0.000671083
56 *1131:31 *1133:45 0
57 *1131:43 *1133:59 0
*RES
1 *3297:Q *1133:6 40 
2 *1133:6 *1133:10 21.4008 
3 *1133:10 *1133:20 45.9637 
4 *1133:20 *3045:B1 20 
5 *1133:10 *1133:27 56.341 
6 *1133:27 *1133:31 21.0918 
7 *1133:31 *1133:45 42.866 
8 *1133:45 *1133:59 44.841 
9 *1133:59 *3694:A 20 
10 *1133:31 *2806:A1 40.3193 
*END

*D_NET *1134 0.0230688
*CONN
*I *3695:A I *D sg13g2_buf_1
*I *2810:A1 I *D sg13g2_a21oi_1
*I *3049:B1 I *D sg13g2_a21oi_1
*I *3299:Q O *D sg13g2_dfrbpq_1
*CAP
1 *3695:A 0.00173319
2 *2810:A1 0
3 *3049:B1 0.000261003
4 *3299:Q 0.000313647
5 *1134:27 0.00663214
6 *1134:21 0.00522791
7 *1134:10 0.000589955
8 *1134:8 0.000313647
9 *3049:B1 *1135:12 0
10 *3695:A *1141:52 0.00118059
11 *1134:21 *1135:32 0
12 *1134:27 *1135:32 0.00125376
13 *1134:27 *1135:46 0
14 gpio_dir[22] *3695:A 0
15 *2865:A1 *3695:A 0.000274211
16 *2886:A1 *1134:27 0.000112426
17 *2886:A2 *1134:27 0
18 *2898:B1 *1134:27 0
19 *2899:B *1134:27 0.000792152
20 *2900:A1 *1134:27 0
21 *2900:B1 *1134:27 0
22 *2906:B1 *1134:27 0
23 *2906:A1 *1134:27 0
24 *3014:A2 *1134:27 0
25 *3221:RESET_B *1134:27 0
26 *3221:D *1134:27 0.000339437
27 *3225:RESET_B *1134:27 0
28 *3281:D *1134:27 0
29 *3299:RESET_B *3049:B1 0
30 *3299:RESET_B *1134:21 0
31 *3375:A *3695:A 0
32 *3451:A *1134:27 0.000112227
33 *3693:A *3695:A 0
34 *379:22 *1134:21 0
35 *379:22 *1134:27 0.000557299
36 *388:14 *1134:27 0
37 *446:14 *3695:A 0
38 *485:32 *3695:A 0
39 *496:104 *1134:27 0.000338601
40 *502:10 *1134:27 0
41 *517:10 *1134:27 0.000176475
42 *703:10 *3695:A 0.000371702
43 *708:44 *1134:21 0
44 *708:59 *3049:B1 6.47875e-05
45 *708:59 *1134:21 0.000209807
46 *708:69 *3049:B1 0.00033942
47 *776:10 *3695:A 6.96804e-05
48 *788:10 *3695:A 6.98161e-05
49 *821:50 *3049:B1 0
50 *821:63 *3049:B1 0
51 *831:92 *1134:27 1.54008e-05
52 *841:83 *3695:A 4.78524e-05
53 *841:83 *1134:27 1.54008e-05
54 *858:47 *1134:27 0
55 *858:54 *1134:27 0
56 *858:92 *1134:27 0.000952457
57 *888:61 *1134:27 0.000370253
58 *1129:62 *3695:A 0
59 *1131:31 *3695:A 0
60 *1131:31 *1134:27 0
61 *1131:43 *3695:A 0.00033358
62 *1133:59 *3695:A 0
*RES
1 *3299:Q *1134:8 43.3166 
2 *1134:8 *1134:10 20 
3 *1134:10 *3049:B1 22.6986 
4 *1134:10 *1134:21 3.1106 
5 *1134:21 *1134:27 46.974 
6 *1134:27 *2810:A1 20 
7 *1134:27 *3695:A 38.0298 
*END

*D_NET *1135 0.0282458
*CONN
*I *3696:A I *D sg13g2_buf_1
*I *2814:A1 I *D sg13g2_a21oi_1
*I *3053:B1 I *D sg13g2_a21oi_1
*I *3301:Q O *D sg13g2_dfrbpq_1
*CAP
1 *3696:A 0
2 *2814:A1 0.000236585
3 *3053:B1 0
4 *3301:Q 0.00293996
5 *1135:85 0.00202417
6 *1135:75 0.00260026
7 *1135:52 0.000924063
8 *1135:46 0.00311264
9 *1135:32 0.00525703
10 *1135:12 0.000684186
11 *1135:85 *3700:A 0.000112826
12 *1135:85 *1136:64 0
13 *1135:85 *1139:70 0
14 *1135:85 *1144:28 0
15 *2812:B1 *1135:75 0.00012651
16 *2812:A1 *1135:75 0
17 *2814:A2 *2814:A1 1.54008e-05
18 *2814:B1 *2814:A1 0
19 *2861:A1 *1135:85 0
20 *2861:A2 *1135:85 0
21 *2861:B1 *1135:85 0
22 *2879:B *1135:32 0
23 *2879:C *1135:32 0.000241847
24 *2886:A2 *1135:46 0
25 *2891:A *1135:32 0
26 *2896:A2 *1135:46 0
27 *2899:A *1135:46 8.01773e-05
28 *2899:B *1135:46 0.000588675
29 *3045:A2 *1135:12 0.000112426
30 *3049:B1 *1135:12 0
31 *3195:RESET_B *1135:85 0
32 *3205:D *1135:85 0
33 *3221:RESET_B *1135:32 0
34 *3229:RESET_B *1135:46 0.000338377
35 *3229:D *1135:46 0
36 *3299:RESET_B *1135:12 0
37 *3393:A *1135:32 0
38 *14:10 *1135:85 4.77425e-05
39 *285:10 *1135:32 0
40 *388:18 *1135:46 0
41 *445:8 *1135:75 0.000288087
42 *448:10 *2814:A1 1.54556e-05
43 *455:26 *2814:A1 0
44 *483:10 *1135:85 0
45 *496:83 *1135:46 0
46 *496:94 *1135:46 8.03091e-05
47 *498:10 *1135:32 8.03091e-05
48 *502:10 *1135:46 0.000339267
49 *621:10 *1135:12 0.000183827
50 *621:37 *1135:12 0
51 *621:37 *1135:32 0
52 *625:12 *1135:12 0.000615341
53 *697:283 *1135:85 0
54 *708:8 *1135:32 0
55 *708:19 *1135:32 0.000135914
56 *708:44 *1135:32 0
57 *711:37 *1135:32 0.000436555
58 *711:37 *1135:46 0
59 *718:44 *1135:85 0
60 *746:23 *2814:A1 1.54008e-05
61 *750:20 *1135:52 0.00020984
62 *773:23 *2814:A1 0.000446767
63 *773:23 *1135:75 0.00145471
64 *822:95 *1135:46 0
65 *831:71 *1135:75 0.000175513
66 *831:71 *1135:85 0.000661768
67 *832:33 *1135:85 0
68 *841:58 *1135:85 0
69 *841:68 *1135:75 4.77537e-05
70 *841:68 *1135:85 0
71 *841:83 *1135:75 0.000763634
72 *843:20 *1135:46 0
73 *854:10 *1135:85 0.000533004
74 *858:47 *1135:32 0
75 *858:54 *1135:32 0
76 *858:92 *1135:32 0
77 *858:92 *1135:46 0
78 *887:8 *1135:32 0
79 *906:8 *1135:85 0.000855964
80 *1128:69 *1135:46 0
81 *1130:66 *1135:46 0
82 *1130:66 *1135:52 0.000209714
83 *1133:59 *1135:85 0
84 *1134:21 *1135:32 0
85 *1134:27 *1135:32 0.00125376
86 *1134:27 *1135:46 0
*RES
1 *3301:Q *1135:12 47.725 
2 *1135:12 *3053:B1 40 
3 *3301:Q *1135:32 42.9393 
4 *1135:32 *1135:46 48.7988 
5 *1135:46 *1135:52 41.4008 
6 *1135:52 *2814:A1 42.6162 
7 *1135:52 *1135:75 48.8786 
8 *1135:75 *1135:85 40.4667 
9 *1135:85 *3696:A 20 
*END

*D_NET *1136 0.0263622
*CONN
*I *3697:A I *D sg13g2_buf_1
*I *2818:A1 I *D sg13g2_a21oi_1
*I *3057:B1 I *D sg13g2_a21oi_1
*I *3303:Q O *D sg13g2_dfrbpq_1
*CAP
1 *3697:A 0
2 *2818:A1 0
3 *3057:B1 0.00084317
4 *3303:Q 2.5074e-05
5 *1136:64 0.000892588
6 *1136:56 0.00169622
7 *1136:50 0.00223742
8 *1136:35 0.00146314
9 *1136:31 0.00198866
10 *1136:25 0.00533343
11 *1136:21 0.00349781
12 *1136:8 0.000991931
13 *1136:25 *3032:B1 0
14 *1136:25 *1139:14 0
15 *1136:25 *1139:25 0
16 *1136:25 *1148:27 0
17 *1136:31 *1139:25 0
18 *1136:31 *1142:39 0
19 *1136:31 *1146:41 0
20 *1136:35 *1140:37 4.79017e-05
21 *1136:35 *1146:41 0
22 *1136:50 *1140:37 0.000259194
23 *1136:50 *1140:56 0
24 *1136:50 *1142:58 0.000467377
25 *1136:50 *1146:41 0.000143489
26 *1136:56 *1140:56 0.00124497
27 *1136:56 *1142:58 0
28 *1136:64 *1139:70 0.00029323
29 *1136:64 *1140:56 0
30 *1136:64 *1142:58 0.00148281
31 *1136:64 *1145:54 0
32 *2727:A *1136:8 3.23965e-05
33 *2727:A *1136:25 0
34 *2874:A *1136:8 4.78521e-05
35 *3035:A *1136:25 0
36 *3185:RESET_B *1136:31 0
37 *3185:D *1136:31 0.000143758
38 *3287:D *1136:25 0.000177378
39 *3289:CLK *1136:31 0
40 *3295:D *1136:25 0.00024217
41 *3305:CLK *1136:25 0
42 *3311:CLK *1136:25 0
43 *3355:A *1136:50 0
44 *3395:A *1136:25 0
45 *3409:A *1136:50 4.77425e-05
46 *3504:A *1136:25 0
47 *3610:A *1136:56 0
48 *320:10 *1136:25 0.00024222
49 *473:14 *1136:64 0
50 *596:30 *1136:25 0
51 *596:59 *1136:31 0
52 *702:8 *1136:31 0.000339393
53 *704:37 *1136:50 7.89557e-05
54 *704:37 *1136:56 0.000662386
55 *714:52 *3057:B1 0
56 *764:57 *1136:8 1.54556e-05
57 *772:27 *1136:31 0.000288087
58 *802:8 *1136:21 0
59 *813:16 *1136:25 0
60 *824:87 *1136:25 0
61 *824:87 *1136:31 0
62 *832:110 *1136:50 0.00012816
63 *841:18 *1136:50 0.000629218
64 *841:33 *1136:50 0.00014395
65 *841:121 *1136:31 0.00023464
66 *907:99 *1136:64 0
67 *1049:24 *1136:25 0
68 *1121:10 *3057:B1 0
69 *1122:14 *3057:B1 0
70 *1123:10 *1136:25 0
71 *1135:85 *1136:64 0
*RES
1 *3303:Q *1136:8 40.3193 
2 *1136:8 *3057:B1 47.3078 
3 *1136:8 *1136:21 21.339 
4 *1136:21 *1136:25 32.033 
5 *1136:25 *1136:31 38.7817 
6 *1136:31 *1136:35 20.3193 
7 *1136:35 *2818:A1 20 
8 *1136:35 *1136:50 34.1316 
9 *1136:50 *1136:56 49.1876 
10 *1136:56 *1136:64 31.0313 
11 *1136:64 *3697:A 20 
*END

*D_NET *1137 0.0318205
*CONN
*I *3115:B1 I *D sg13g2_a21oi_1
*I *2746:A1 I *D sg13g2_a21oi_1
*I *3698:A I *D sg13g2_buf_1
*I *3331:Q O *D sg13g2_dfrbpq_1
*CAP
1 *3115:B1 3.25211e-05
2 *2746:A1 0
3 *3698:A 0
4 *3331:Q 0.000277919
5 *1137:66 0.000485308
6 *1137:60 0.00266362
7 *1137:58 0.00217832
8 *1137:56 5.23183e-05
9 *1137:50 0.00506409
10 *1137:20 0.00573519
11 *1137:10 0.000755934
12 *1137:8 0.000277919
13 *2789:A1 *1137:50 0
14 *2789:B1 *1137:50 3.16733e-05
15 *2960:A2 *1137:50 0
16 *2961:A *1137:50 8.02105e-05
17 *2961:B *1137:50 8.00842e-05
18 *2963:D *1137:50 4.86353e-05
19 *2964:B1 *1137:50 0
20 *2964:A2 *1137:50 0
21 *2965:A *1137:50 0.000145003
22 *2965:B *1137:50 0
23 *3117:B1 *3115:B1 4.77425e-05
24 *3169:CLK *1137:50 0
25 *3255:RESET_B *1137:50 0.000145124
26 *3255:D *1137:50 0
27 *259:10 *1137:50 0
28 *359:32 *1137:50 0
29 *360:34 *1137:50 0.00137482
30 *360:49 *1137:50 0.000188315
31 *407:14 *1137:50 0
32 *407:18 *1137:50 0
33 *428:10 *1137:50 0
34 *443:16 *1137:60 0.00255684
35 *485:14 *1137:66 0
36 *576:8 *1137:20 0
37 *671:117 *1137:20 0
38 *675:10 *1137:20 0.000306501
39 *706:8 *1137:50 0
40 *724:53 *1137:60 0.00490972
41 *730:28 *1137:50 0
42 *752:34 *1137:50 0
43 *757:33 *1137:50 0
44 *757:47 *1137:50 8.01885e-05
45 *757:53 *1137:50 0
46 *757:65 *1137:60 0
47 *807:23 *1137:20 0
48 *817:81 *1137:8 0.00145654
49 *839:93 *1137:50 0.00037191
50 *850:70 *1137:56 8.09323e-05
51 *855:67 *1137:50 0
52 *856:73 *1137:8 0.00145695
53 *892:8 *1137:20 0
54 *898:23 *1137:20 0.000371608
55 *903:8 *1137:50 0
56 *903:14 *1137:50 0
57 *909:14 *1137:50 0.000192649
58 *909:16 *1137:50 0.000129463
59 *909:26 *1137:50 0.000242408
60 *1125:48 *1137:66 0
*RES
1 *3331:Q *1137:8 46.7774 
2 *1137:8 *1137:10 20 
3 *1137:10 *1137:20 47.3851 
4 *1137:20 *1137:50 46.7656 
5 *1137:50 *1137:56 40.5356 
6 *1137:56 *1137:58 20 
7 *1137:58 *1137:60 33.475 
8 *1137:60 *1137:66 45.5105 
9 *1137:66 *3698:A 40 
10 *1137:50 *2746:A1 20 
11 *1137:10 *3115:B1 20.3193 
*END

*D_NET *1138 0.00655408
*CONN
*I *2811:B2 I *D sg13g2_a22oi_1
*I *3607:X O *D sg13g2_buf_1
*CAP
1 *2811:B2 0
2 *3607:X 0
3 *1138:20 0.00135848
4 *1138:16 0.00319751
5 *1138:12 0.00191856
6 *1138:6 7.95268e-05
7 *733:66 *1138:20 0
8 *735:14 *1138:20 0
9 *736:59 *1138:20 0
10 *741:14 *1138:20 0
11 *741:35 *1138:20 0
12 *756:51 *1138:16 0
13 *758:94 *1138:16 0
*RES
1 *3607:X *1138:6 40 
2 *1138:6 *1138:12 40.9682 
3 *1138:12 *1138:16 39.1374 
4 *1138:16 *1138:20 34.3788 
5 *1138:20 *2811:B2 40 
*END

*D_NET *1139 0.0259814
*CONN
*I *3699:A I *D sg13g2_buf_1
*I *2822:A1 I *D sg13g2_a21oi_1
*I *3061:B1 I *D sg13g2_a21oi_1
*I *3305:Q O *D sg13g2_dfrbpq_1
*CAP
1 *3699:A 0.000111892
2 *2822:A1 0
3 *3061:B1 0
4 *3305:Q 6.68694e-05
5 *1139:70 0.000387516
6 *1139:62 0.00279193
7 *1139:54 0.0028485
8 *1139:37 0.000512554
9 *1139:29 0.00189196
10 *1139:25 0.0049322
11 *1139:14 0.000913548
12 *1139:6 0.00420102
13 *1139:25 *1142:12 0
14 *1139:25 *1142:39 0.00053264
15 *1139:29 *1142:39 0.00283099
16 *1139:54 *1142:39 0.000240525
17 *1139:62 *1140:56 0
18 *1139:62 *1142:39 0
19 *1139:62 *1142:58 0
20 *1139:70 *3700:A 0.000176541
21 *1139:70 *1144:57 0
22 gpio_dir[31] *3699:A 4.77425e-05
23 *2737:B *1139:29 0
24 *2820:B1 *1139:29 0
25 *2822:A2 *1139:37 4.77425e-05
26 *2822:A2 *1139:54 1.54008e-05
27 *2837:A1 *1139:62 0
28 *2837:A2 *1139:62 0
29 *2853:B1 *1139:62 0
30 *3145:RESET_B *1139:29 0
31 *3145:D *1139:29 0
32 *3189:RESET_B *1139:54 0
33 *3201:D *1139:62 0
34 *3209:D *1139:62 1.54556e-05
35 *3211:RESET_B *1139:29 0
36 *3211:D *1139:29 0
37 *3285:D *1139:25 0
38 *3287:D *1139:25 0.000177378
39 *3295:RESET_B *1139:25 0.000274769
40 *3421:A *1139:70 0.000242089
41 *21:10 *1139:70 0.000292424
42 *22:12 *1139:70 0
43 *271:10 *1139:62 0
44 *372:8 *1139:14 0
45 *390:8 *1139:29 0
46 *459:10 *1139:54 0.00023464
47 *459:10 *1139:62 4.77425e-05
48 *473:14 *1139:62 0.000712845
49 *474:10 *1139:62 0
50 *488:20 *1139:62 0
51 *634:8 *1139:14 0
52 *645:8 *1139:14 0
53 *701:89 *1139:29 0
54 *702:33 *1139:29 0.000306019
55 *702:67 *1139:29 0
56 *704:68 *1139:62 0
57 *709:14 *1139:14 0
58 *709:29 *1139:14 0
59 *709:44 *1139:14 0
60 *775:23 *1139:54 0.000287759
61 *780:16 *1139:62 0
62 *786:8 *1139:62 0.000144311
63 *790:38 *1139:25 0.000130012
64 *791:21 *1139:62 0
65 *825:32 *1139:14 0
66 *831:27 *1139:54 0
67 *832:110 *1139:62 0
68 *837:8 *1139:29 0
69 *837:21 *1139:29 0
70 *841:12 *1139:37 0
71 *841:33 *1139:62 0
72 *842:8 *1139:62 0
73 *843:10 *1139:37 0
74 *843:125 *1139:37 0
75 *843:125 *1139:62 0
76 *854:10 *1139:70 0.000144942
77 *905:81 *1139:29 0
78 *1044:8 *1139:14 0.0001282
79 *1135:85 *1139:70 0
80 *1136:25 *1139:14 0
81 *1136:25 *1139:25 0
82 *1136:31 *1139:25 0
83 *1136:64 *1139:70 0.00029323
*RES
1 *3305:Q *1139:6 20.8446 
2 *1139:6 *1139:14 49.0125 
3 *1139:14 *3061:B1 20 
4 *1139:6 *1139:25 49.4683 
5 *1139:25 *1139:29 38.9211 
6 *1139:29 *1139:37 41.5965 
7 *1139:37 *2822:A1 20 
8 *1139:37 *1139:54 44.0582 
9 *1139:54 *1139:62 45.029 
10 *1139:62 *1139:70 43.8213 
11 *1139:70 *3699:A 40.9682 
*END

*D_NET *1140 0.0258605
*CONN
*I *3700:A I *D sg13g2_buf_1
*I *2826:A1 I *D sg13g2_a21oi_1
*I *3065:B1 I *D sg13g2_a21oi_1
*I *3307:Q O *D sg13g2_dfrbpq_1
*CAP
1 *3700:A 0.000212191
2 *2826:A1 0
3 *3065:B1 0.000721924
4 *3307:Q 0.00027442
5 *1140:56 0.00226425
6 *1140:37 0.00372506
7 *1140:31 0.00241331
8 *1140:23 0.00282253
9 *1140:8 0.00307857
10 *3065:B1 *1142:12 0
11 *1140:8 *1142:12 0
12 *1140:31 *1146:41 0
13 *1140:37 *1146:41 0.00109608
14 *1140:56 *1145:54 0.000553663
15 *2818:B1 *1140:37 0
16 *2821:A1 *1140:37 0
17 *2821:B1 *1140:37 0.000144768
18 *2826:B1 *1140:56 0.000144712
19 *2848:B1 *1140:56 0
20 *3039:A *1140:31 0
21 *3355:A *1140:56 0
22 *3400:A *1140:37 0.000144706
23 *3610:A *1140:56 0
24 *267:10 *1140:37 0
25 *328:10 *3065:B1 0
26 *377:6 *3065:B1 8.0216e-05
27 *474:10 *1140:56 0
28 *704:37 *1140:56 0.000306522
29 *719:30 *1140:31 0.0011256
30 *719:30 *1140:37 0
31 *825:61 *3065:B1 0
32 *831:50 *1140:56 8.00842e-05
33 *832:23 *1140:37 0.000758777
34 *832:23 *1140:56 6.48533e-05
35 *841:18 *1140:37 0.000628999
36 *841:18 *1140:56 1.54008e-05
37 *841:33 *1140:56 0.000128693
38 *979:12 *1140:23 0.00323377
39 *990:16 *1140:23 0
40 *1135:85 *3700:A 0.000112826
41 *1136:35 *1140:37 4.79017e-05
42 *1136:50 *1140:37 0.000259194
43 *1136:50 *1140:56 0
44 *1136:56 *1140:56 0.00124497
45 *1136:64 *1140:56 0
46 *1139:62 *1140:56 0
47 *1139:70 *3700:A 0.000176541
*RES
1 *3307:Q *1140:8 43.0694 
2 *1140:8 *3065:B1 47.313 
3 *1140:8 *1140:23 41.3004 
4 *1140:23 *1140:31 48.3636 
5 *1140:31 *1140:37 18.231 
6 *1140:37 *2826:A1 20 
7 *1140:37 *1140:56 42.6806 
8 *1140:56 *3700:A 42.0497 
*END

*D_NET *1141 0.0170866
*CONN
*I *3701:A I *D sg13g2_buf_1
*I *2831:B2 I *D sg13g2_a22oi_1
*I *3069:B1 I *D sg13g2_a21oi_1
*I *3309:Q O *D sg13g2_dfrbpq_1
*CAP
1 *3701:A 0
2 *2831:B2 7.86497e-05
3 *3069:B1 0.00018036
4 *3309:Q 0.000330707
5 *1141:52 0.00123542
6 *1141:37 0.00140505
7 *1141:33 0.00495774
8 *1141:27 0.00517748
9 *1141:8 0.000821786
10 *2865:A1 *1141:52 0.000242077
11 *3069:A1 *3069:B1 0
12 *3069:A1 *1141:8 0.00012816
13 *3072:A *1141:27 0
14 *3072:B *1141:27 4.36621e-05
15 *3183:RESET_B *1141:33 0
16 *3219:RESET_B *1141:33 0
17 *3219:D *1141:33 0
18 *3309:D *1141:27 1.54008e-05
19 *3489:A *3069:B1 0
20 *3695:A *1141:52 0.00118059
21 *329:8 *1141:27 0.000447597
22 *392:12 *1141:52 0
23 *458:14 *2831:B2 0
24 *458:14 *1141:52 0
25 *697:188 *1141:27 0
26 *697:188 *1141:33 0
27 *708:19 *1141:27 0
28 *710:21 *1141:33 8.00842e-05
29 *722:72 *1141:33 0.000312889
30 *726:44 *1141:33 0
31 *743:14 *1141:27 0
32 *743:14 *1141:33 0
33 *743:21 *1141:33 0
34 *746:23 *1141:33 0
35 *747:28 *1141:33 4.73078e-05
36 *767:8 *1141:33 0
37 *814:31 *1141:33 0.000112651
38 *824:18 *1141:33 0
39 *843:20 *1141:33 0
40 *854:24 *1141:52 0
41 *895:38 *1141:8 0
42 *907:46 *1141:33 0.000209728
43 *908:22 *1141:33 0
44 *1131:31 *1141:52 0
45 *1132:10 *1141:33 7.9225e-05
*RES
1 *3309:Q *1141:8 44.0582 
2 *1141:8 *3069:B1 41.4008 
3 *1141:8 *1141:27 24.2436 
4 *1141:27 *1141:33 46.2264 
5 *1141:33 *1141:37 21.1845 
6 *1141:37 *2831:B2 40.5974 
7 *1141:37 *1141:52 33.6784 
8 *1141:52 *3701:A 20 
*END

*D_NET *1142 0.0246287
*CONN
*I *3702:A I *D sg13g2_buf_1
*I *2834:A1 I *D sg13g2_a21oi_1
*I *3073:B1 I *D sg13g2_a21oi_1
*I *3311:Q O *D sg13g2_dfrbpq_1
*CAP
1 *3702:A 8.18594e-05
2 *2834:A1 0
3 *3073:B1 0
4 *3311:Q 0
5 *1142:58 0.00175223
6 *1142:52 0.0017629
7 *1142:39 0.00474955
8 *1142:12 0.000789251
9 *1142:4 0.00544626
10 *3702:A *1144:57 0.00014402
11 *1142:58 *1146:41 0.000726648
12 *1142:58 *1146:60 0.00113143
13 *2822:A2 *1142:39 4.77425e-05
14 *2837:A1 *1142:39 0
15 *3065:B1 *1142:12 0
16 *3185:RESET_B *1142:39 0.000662441
17 *3189:RESET_B *1142:39 0
18 *3285:RESET_B *1142:39 0
19 *3285:D *1142:39 8.02434e-05
20 *3287:RESET_B *1142:39 0.000274507
21 *3293:RESET_B *1142:39 0.000274583
22 *3295:RESET_B *1142:39 0
23 *3295:CLK *1142:39 0
24 *21:10 *1142:58 0.000345318
25 *22:12 *3702:A 0.00014402
26 *459:10 *1142:39 0
27 *704:37 *1142:58 0
28 *711:68 *1142:39 0
29 *784:25 *1142:52 0.00023464
30 *831:27 *1142:39 0
31 *841:12 *1142:39 0
32 *841:33 *1142:39 0.000144253
33 *841:33 *1142:52 1.54556e-05
34 *841:48 *1142:52 0.00026702
35 *841:121 *1142:39 0
36 *875:16 *1142:12 0
37 *905:81 *1142:39 0
38 *1136:31 *1142:39 0
39 *1136:50 *1142:58 0.000467377
40 *1136:56 *1142:58 0
41 *1136:64 *1142:58 0.00148281
42 *1139:25 *1142:12 0
43 *1139:25 *1142:39 0.00053264
44 *1139:29 *1142:39 0.00283099
45 *1139:54 *1142:39 0.000240525
46 *1139:62 *1142:39 0
47 *1139:62 *1142:58 0
48 *1140:8 *1142:12 0
*RES
1 *3311:Q *1142:4 20 
2 *1142:4 *1142:12 48.3327 
3 *1142:12 *3073:B1 20 
4 *1142:4 *1142:39 49.6151 
5 *1142:39 *2834:A1 20 
6 *1142:39 *1142:52 41.6274 
7 *1142:52 *1142:58 39.9511 
8 *1142:58 *3702:A 40.9682 
*END

*D_NET *1143 0.0172044
*CONN
*I *3703:A I *D sg13g2_buf_1
*I *2838:A1 I *D sg13g2_a21oi_1
*I *3012:B1 I *D sg13g2_a21oi_1
*I *3281:Q O *D sg13g2_dfrbpq_1
*CAP
1 *3703:A 0
2 *2838:A1 0.000388002
3 *3012:B1 4.85156e-05
4 *3281:Q 0.00240512
5 *1143:75 0.00159214
6 *1143:52 0.00301333
7 *1143:48 0.00313148
8 *1143:14 0.000222324
9 *1143:8 0.00048063
10 *1143:48 *3016:B1 0.000311517
11 *1143:48 *1144:28 0
12 *1143:52 *1144:28 0
13 *1143:75 *3707:A 0
14 *1143:75 *1144:57 0.000193365
15 *1143:75 *1147:26 0
16 *2808:B1 *1143:48 8.02434e-05
17 *2808:A2 *1143:52 0
18 *2838:B1 *2838:A1 0.000287672
19 *3029:A *1143:48 0
20 *3029:D *1143:48 0
21 *3030:A1 *1143:48 0.000112426
22 *3179:CLK *1143:48 0
23 *3195:CLK *2838:A1 7.51285e-05
24 *3195:CLK *1143:75 0.000159183
25 *3281:CLK *1143:8 0
26 *3283:RESET_B *1143:48 0
27 *3283:CLK *1143:48 0
28 *24:12 *1143:75 0
29 *27:12 *1143:75 0
30 *315:12 *3012:B1 0
31 *375:30 *1143:48 0
32 *378:14 *3012:B1 8.01445e-05
33 *391:10 *1143:52 0.000532061
34 *391:10 *1143:75 0
35 *392:8 *1143:75 0
36 *444:10 *1143:52 0.000209867
37 *514:18 *1143:14 0.000309525
38 *602:16 *1143:48 0
39 *697:264 *1143:48 0
40 *697:287 *2838:A1 0
41 *701:22 *1143:48 0
42 *718:36 *1143:48 0
43 *718:36 *1143:75 0
44 *751:29 *2838:A1 0.00027443
45 *775:8 *1143:52 0
46 *778:29 *1143:8 0
47 *791:12 *1143:75 0.000564676
48 *831:52 *2838:A1 0.000372054
49 *831:52 *1143:75 0.000181192
50 *835:64 *1143:52 0.000240885
51 *835:89 *1143:75 0.000306531
52 *841:68 *2838:A1 0.000301404
53 *887:92 *1143:48 0.000402801
54 *898:97 *1143:8 0.000927744
55 *908:84 *1143:48 0
*RES
1 *3281:Q *1143:8 44.3054 
2 *1143:8 *1143:14 42.0497 
3 *1143:14 *3012:B1 40.5356 
4 *3281:Q *1143:48 40.8214 
5 *1143:48 *1143:52 29.8365 
6 *1143:52 *2838:A1 45.083 
7 *1143:52 *1143:75 35.1616 
8 *1143:75 *3703:A 20 
*END

*D_NET *1144 0.0193329
*CONN
*I *3016:B1 I *D sg13g2_a21oi_1
*I *3704:A I *D sg13g2_buf_1
*I *2842:A1 I *D sg13g2_a21oi_1
*I *3283:Q O *D sg13g2_dfrbpq_1
*CAP
1 *3016:B1 0.000293235
2 *3704:A 0
3 *2842:A1 7.82649e-05
4 *3283:Q 0.000633703
5 *1144:57 0.00072726
6 *1144:36 0.00142237
7 *1144:28 0.00511174
8 *1144:10 0.00396731
9 *1144:36 *1147:32 0.00187739
10 *2840:A1 *1144:28 0
11 *2855:B1 *1144:36 0.000281366
12 *2860:A1 *1144:28 8.93523e-05
13 *3016:A1 *3016:B1 0
14 *3179:RESET_B *1144:28 0.000339569
15 *3205:CLK *1144:57 0.000338741
16 *3227:CLK *1144:28 0
17 *3283:RESET_B *3016:B1 0.000208255
18 *3283:RESET_B *1144:28 7.99846e-05
19 *3283:D *3016:B1 0
20 *3289:RESET_B *1144:10 0.000111016
21 *3421:A *1144:57 0
22 *3702:A *1144:57 0.00014402
23 *22:12 *1144:57 0
24 *25:10 *1144:57 0.00039909
25 *28:8 *1144:57 0.00039909
26 *391:10 *1144:28 0.000563408
27 *391:20 *1144:36 0.000126358
28 *476:18 *1144:36 0
29 *478:18 *1144:36 0.000494451
30 *478:26 *1144:36 7.57164e-05
31 *479:10 *1144:36 0
32 *602:16 *3016:B1 1.54008e-05
33 *697:264 *3016:B1 0
34 *697:264 *1144:28 0
35 *697:268 *1144:28 0
36 *697:283 *1144:28 0
37 *701:22 *1144:28 8.0216e-05
38 *701:28 *1144:28 0
39 *703:44 *1144:36 0
40 *717:46 *2842:A1 0.000112535
41 *719:30 *1144:10 0.000111016
42 *788:37 *1144:36 0
43 *791:12 *1144:28 0.00013507
44 *791:12 *1144:57 0.000371094
45 *798:24 *1144:10 0
46 *798:24 *1144:28 0
47 *832:37 *1144:36 0
48 *835:64 *1144:28 0.000241016
49 *905:125 *1144:28 0
50 *1135:85 *1144:28 0
51 *1139:70 *1144:57 0
52 *1143:48 *3016:B1 0.000311517
53 *1143:48 *1144:28 0
54 *1143:52 *1144:28 0
55 *1143:75 *1144:57 0.000193365
*RES
1 *3283:Q *1144:10 45.7989 
2 *1144:10 *1144:28 48.5722 
3 *1144:28 *1144:36 35.1101 
4 *1144:36 *2842:A1 40.7519 
5 *1144:28 *1144:57 48.6623 
6 *1144:57 *3704:A 20 
7 *1144:10 *3016:B1 43.1312 
*END

*D_NET *1145 0.0206034
*CONN
*I *3705:A I *D sg13g2_buf_1
*I *2846:A1 I *D sg13g2_a21oi_1
*I *3020:B1 I *D sg13g2_a21oi_1
*I *3285:Q O *D sg13g2_dfrbpq_1
*CAP
1 *3705:A 0
2 *2846:A1 0
3 *3020:B1 0
4 *3285:Q 7.39508e-05
5 *1145:54 0.000817742
6 *1145:37 0.00515345
7 *1145:27 0.00463407
8 *1145:14 0.00126504
9 *1145:8 0.00104062
10 *1145:14 *1146:8 0
11 *1145:37 *1148:37 0
12 *1145:54 *3708:A 0
13 *1145:54 *1148:37 0
14 *2846:A2 *1145:37 0.000483511
15 *2846:A2 *1145:54 1.54008e-05
16 *2849:A1 *1145:54 0.000492661
17 *3020:A2 *1145:14 0
18 *3020:A2 *1145:27 0
19 *3026:B1 *1145:37 0.000468699
20 *3029:B *1145:37 0
21 *3029:D *1145:37 0
22 *3031:A *1145:37 0.00024211
23 *3031:B *1145:37 0
24 *3034:A1 *1145:14 0
25 *3037:B *1145:37 0
26 *3037:C *1145:37 0
27 *3199:D *1145:54 0
28 *3460:A *1145:37 0.000112436
29 *3508:A *1145:37 0.000208576
30 *3609:A *1145:54 0
31 *318:8 *1145:14 0
32 *373:24 *1145:37 0.000760745
33 *596:8 *1145:27 0.000445048
34 *596:21 *1145:27 0.000177127
35 *603:8 *1145:14 0.000339315
36 *616:10 *1145:37 0
37 *718:20 *1145:37 0
38 *718:36 *1145:37 0.00291515
39 *813:27 *1145:37 0
40 *813:38 *1145:37 0
41 *824:12 *1145:27 0
42 *825:67 *1145:14 0
43 *841:48 *1145:37 0.000404054
44 *908:84 *1145:37 0
45 *1136:64 *1145:54 0
46 *1140:56 *1145:54 0.000553663
*RES
1 *3285:Q *1145:8 40.7519 
2 *1145:8 *1145:14 30.4957 
3 *1145:14 *3020:B1 20 
4 *1145:14 *1145:27 43.3893 
5 *1145:27 *1145:37 44.1541 
6 *1145:37 *2846:A1 20 
7 *1145:37 *1145:54 48.9713 
8 *1145:54 *3705:A 20 
*END

*D_NET *1146 0.0211499
*CONN
*I *3706:A I *D sg13g2_buf_1
*I *2850:A1 I *D sg13g2_a21oi_1
*I *3024:B1 I *D sg13g2_a21oi_1
*I *3287:Q O *D sg13g2_dfrbpq_1
*CAP
1 *3706:A 0
2 *2850:A1 0
3 *3024:B1 4.74181e-05
4 *3287:Q 0.000739677
5 *1146:60 0.00110034
6 *1146:49 0.000264717
7 *1146:41 0.00467802
8 *1146:27 0.00334773
9 *1146:21 0.00121292
10 *1146:8 0.00196525
11 *2837:A1 *1146:41 4.77347e-05
12 *2837:A2 *1146:41 0
13 *2869:A1 *1146:60 0
14 *3039:A *1146:41 0
15 *3185:D *1146:41 0.000176099
16 *3289:CLK *1146:41 0.00118039
17 *3409:A *1146:41 4.77425e-05
18 *3610:A *1146:60 0
19 *25:10 *1146:60 0.000130344
20 *28:8 *1146:60 0.000345897
21 *375:20 *1146:27 0
22 *464:12 *1146:49 0
23 *596:21 *1146:8 0.000179389
24 *596:59 *1146:41 0
25 *702:8 *1146:41 0.00017735
26 *766:55 *1146:27 7.33256e-05
27 *781:10 *1146:49 0
28 *823:12 *1146:8 0.00012816
29 *824:8 *1146:8 0
30 *831:25 *1146:41 0.000241979
31 *831:27 *1146:41 0.000726265
32 *832:110 *1146:41 0
33 *836:10 *1146:49 0.000450066
34 *841:12 *1146:41 0
35 *841:121 *1146:41 0
36 *842:12 *1146:60 0.000194264
37 *842:16 *1146:60 0.000597149
38 *979:12 *1146:21 0
39 *1136:31 *1146:41 0
40 *1136:35 *1146:41 0
41 *1136:50 *1146:41 0.000143489
42 *1140:31 *1146:41 0
43 *1140:37 *1146:41 0.00109608
44 *1142:58 *1146:41 0.000726648
45 *1142:58 *1146:60 0.00113143
46 *1145:14 *1146:8 0
*RES
1 *3287:Q *1146:8 48.5078 
2 *1146:8 *3024:B1 40.3193 
3 *1146:8 *1146:21 31.7832 
4 *1146:21 *1146:27 40.3502 
5 *1146:27 *1146:41 34.4329 
6 *1146:41 *1146:49 43.0488 
7 *1146:49 *2850:A1 20 
8 *1146:41 *1146:60 33.3385 
9 *1146:60 *3706:A 40 
*END

*D_NET *1147 0.0187833
*CONN
*I *3028:B1 I *D sg13g2_a21oi_1
*I *3707:A I *D sg13g2_buf_1
*I *2855:B2 I *D sg13g2_a22oi_1
*I *3289:Q O *D sg13g2_dfrbpq_1
*CAP
1 *3028:B1 0.000189512
2 *3707:A 0.00049978
3 *2855:B2 4.81216e-05
4 *3289:Q 0.000515542
5 *1147:32 0.000618343
6 *1147:26 0.00175938
7 *1147:20 0.00329967
8 *1147:10 0.00279981
9 *1147:8 0.000515542
10 *3028:B1 *1148:37 0
11 *1147:20 *1148:37 0.00315127
12 *3289:RESET_B *1147:20 0.000283621
13 *3609:A *3707:A 0
14 *3609:A *1147:26 0
15 *393:8 *1147:20 0
16 *393:23 *1147:20 0
17 *464:12 *1147:26 0
18 *479:10 *2855:B2 4.77425e-05
19 *718:44 *1147:26 0.000235771
20 *719:30 *1147:20 0.000177548
21 *719:36 *1147:20 0.000887897
22 *774:8 *1147:20 4.7803e-05
23 *795:28 *1147:8 0
24 *823:69 *3028:B1 1.54008e-05
25 *823:80 *3028:B1 0.000226446
26 *823:80 *1147:8 0
27 *823:80 *1147:20 0
28 *836:12 *1147:26 0
29 *854:10 *1147:32 0.000531565
30 *854:14 *1147:32 0.00097493
31 *854:24 *2855:B2 4.77702e-05
32 *854:59 *2855:B2 3.24458e-05
33 *908:84 *1147:8 0
34 *1143:75 *3707:A 0
35 *1143:75 *1147:26 0
36 *1144:36 *1147:32 0.00187739
*RES
1 *3289:Q *1147:8 45.2942 
2 *1147:8 *1147:10 20 
3 *1147:10 *1147:20 47.7276 
4 *1147:20 *1147:26 26.0152 
5 *1147:26 *1147:32 49.7438 
6 *1147:32 *2855:B2 20.5356 
7 *1147:26 *3707:A 24.429 
8 *1147:10 *3028:B1 21.9673 
*END

*D_NET *1148 0.0211208
*CONN
*I *3708:A I *D sg13g2_buf_1
*I *2859:B2 I *D sg13g2_a22oi_1
*I *3032:B1 I *D sg13g2_a21oi_1
*I *3291:Q O *D sg13g2_dfrbpq_1
*CAP
1 *3708:A 0.000575044
2 *2859:B2 0
3 *3032:B1 2.96932e-05
4 *3291:Q 0.000720042
5 *1148:43 0.000507691
6 *1148:37 0.00493856
7 *1148:27 0.00436282
8 *1148:12 0.000536684
9 *1148:10 0.000720042
10 *2846:A2 *1148:37 0
11 *3028:B1 *1148:37 0
12 *3199:RESET_B *1148:37 0
13 *3199:D *3708:A 0.000193973
14 *3199:D *1148:37 4.77699e-05
15 *3291:CLK *1148:10 0
16 *3460:A *1148:37 0
17 *3610:A *3708:A 0
18 *27:12 *3708:A 0
19 *320:10 *3032:B1 1.54556e-05
20 *320:10 *1148:10 0.000554163
21 *476:18 *1148:43 0.00166783
22 *620:8 *1148:27 0
23 *711:64 *1148:10 0
24 *718:20 *1148:37 0.0011152
25 *719:36 *3708:A 0
26 *719:36 *1148:37 0
27 *788:37 *1148:43 0
28 *813:38 *1148:37 0.000436239
29 *813:49 *1148:37 0.000743125
30 *823:46 *1148:27 0
31 *823:52 *1148:27 0
32 *824:87 *3032:B1 4.79124e-05
33 *824:87 *1148:27 0.000128717
34 *841:48 *1148:37 0
35 *854:10 *1148:43 0.000552918
36 *854:14 *1148:43 7.56299e-05
37 *1136:25 *3032:B1 0
38 *1136:25 *1148:27 0
39 *1145:37 *1148:37 0
40 *1145:54 *3708:A 0
41 *1145:54 *1148:37 0
42 *1147:20 *1148:37 0.00315127
*RES
1 *3291:Q *1148:10 49.3215 
2 *1148:10 *1148:12 20 
3 *1148:12 *3032:B1 20.3193 
4 *1148:12 *1148:27 44.7792 
5 *1148:27 *1148:37 40.5666 
6 *1148:37 *1148:43 47.7662 
7 *1148:43 *2859:B2 20 
8 *1148:37 *3708:A 23.8788 
*END
