*SPEF "ieee 1481-1999"
*DESIGN "boot_spi_macro"
*DATE "22:42:58 Friday September 18, 2026"
*VENDOR "The OpenROAD Project"
*PROGRAM "OpenROAD"
*VERSION "dcf36133a369abc8f3c5e5738cd4d82e4903c0e0"
*DESIGN_FLOW "NAME_SCOPE LOCAL" "PIN_CAP NONE"
*DIVIDER /
*DELIMITER :
*BUS_DELIMITER []
*T_UNIT 1 NS
*C_UNIT 1 PF
*R_UNIT 1 OHM
*L_UNIT 1 HENRY

*NAME_MAP
*3 net
*4 boot_addr[10]
*5 boot_addr[11]
*6 boot_addr[12]
*7 boot_addr[13]
*8 boot_addr[14]
*9 boot_addr[15]
*10 boot_addr[16]
*11 boot_addr[17]
*12 boot_addr[18]
*13 boot_addr[19]
*14 net159
*15 boot_addr[20]
*16 boot_addr[21]
*17 boot_addr[22]
*18 boot_addr[23]
*19 boot_addr[24]
*20 boot_addr[25]
*21 boot_addr[26]
*22 boot_addr[27]
*23 boot_addr[28]
*24 boot_addr[29]
*25 boot_addr[2]
*26 boot_addr[30]
*27 boot_addr[31]
*28 boot_addr[3]
*29 boot_addr[4]
*30 boot_addr[5]
*31 boot_addr[6]
*32 boot_addr[7]
*33 boot_addr[8]
*34 boot_addr[9]
*35 boot_done
*36 boot_wdata[0]
*37 boot_wdata[10]
*38 boot_wdata[11]
*39 boot_wdata[12]
*40 boot_wdata[13]
*41 boot_wdata[14]
*42 boot_wdata[15]
*43 boot_wdata[16]
*44 boot_wdata[17]
*45 boot_wdata[18]
*46 boot_wdata[19]
*47 boot_wdata[1]
*48 boot_wdata[20]
*49 boot_wdata[21]
*50 boot_wdata[22]
*51 boot_wdata[23]
*52 boot_wdata[24]
*53 boot_wdata[25]
*54 boot_wdata[26]
*55 boot_wdata[27]
*56 boot_wdata[28]
*57 boot_wdata[29]
*58 boot_wdata[2]
*59 boot_wdata[30]
*60 boot_wdata[31]
*61 boot_wdata[3]
*62 boot_wdata[4]
*63 boot_wdata[5]
*64 boot_wdata[6]
*65 boot_wdata[7]
*66 boot_wdata[8]
*67 boot_wdata[9]
*68 boot_we
*69 clk_i
*70 cpu_rst_n
*71 rst_ni
*72 spi_cs_n
*73 spi_miso
*74 spi_mosi
*75 spi_sclk
*76 _0000_
*77 _0001_
*78 _0002_
*79 _0003_
*80 _0004_
*81 _0005_
*82 _0006_
*83 _0007_
*84 _0008_
*85 _0009_
*86 _0010_
*87 _0011_
*88 _0012_
*89 _0013_
*90 _0014_
*91 _0015_
*92 _0016_
*93 _0017_
*94 _0018_
*95 _0019_
*96 _0020_
*97 _0021_
*98 _0022_
*99 _0023_
*100 _0024_
*101 _0025_
*102 _0026_
*103 _0027_
*104 _0028_
*105 _0029_
*106 _0030_
*107 _0031_
*108 _0032_
*109 _0033_
*110 _0034_
*111 _0035_
*112 _0036_
*113 _0037_
*114 _0038_
*115 _0039_
*116 _0040_
*117 _0041_
*118 _0042_
*119 _0043_
*120 _0044_
*121 _0045_
*122 _0046_
*123 _0047_
*124 _0048_
*125 _0049_
*126 _0050_
*127 _0051_
*128 _0052_
*129 _0053_
*130 _0054_
*131 _0055_
*132 _0056_
*133 _0057_
*134 _0058_
*135 _0059_
*136 _0060_
*137 _0061_
*138 _0062_
*139 _0063_
*140 _0064_
*141 _0065_
*142 _0066_
*143 _0067_
*144 _0068_
*145 _0069_
*146 _0070_
*147 _0071_
*148 _0072_
*149 _0073_
*150 _0074_
*151 _0075_
*152 _0076_
*153 _0077_
*154 _0078_
*155 _0079_
*156 _0080_
*157 _0081_
*158 _0082_
*159 _0083_
*160 _0084_
*161 _0085_
*162 _0086_
*163 _0087_
*164 _0088_
*165 _0089_
*166 _0090_
*167 _0091_
*168 _0092_
*169 _0093_
*170 _0094_
*171 _0095_
*172 _0096_
*173 _0097_
*174 _0098_
*175 _0099_
*176 _0100_
*177 _0101_
*178 _0102_
*179 _0103_
*180 _0104_
*181 _0105_
*182 _0106_
*183 _0107_
*184 _0108_
*185 _0109_
*186 _0110_
*187 _0111_
*188 _0112_
*189 _0113_
*190 _0114_
*191 _0115_
*192 _0116_
*193 _0117_
*194 _0118_
*195 _0119_
*196 _0120_
*197 _0121_
*198 _0122_
*199 _0123_
*200 _0124_
*201 _0125_
*202 _0126_
*203 _0127_
*204 _0128_
*205 _0129_
*206 _0130_
*207 _0131_
*208 _0132_
*209 _0133_
*210 _0134_
*211 _0135_
*212 _0136_
*213 _0137_
*214 _0138_
*215 _0139_
*216 _0140_
*217 _0141_
*218 _0142_
*219 _0143_
*220 _0144_
*221 _0145_
*222 _0146_
*223 _0147_
*224 _0148_
*225 _0149_
*226 _0150_
*227 _0151_
*228 _0152_
*229 _0153_
*230 _0154_
*231 _0155_
*232 _0156_
*233 _0157_
*234 _0158_
*235 _0159_
*236 _0160_
*237 _0161_
*238 _0162_
*239 _0163_
*240 _0164_
*241 _0165_
*242 _0166_
*243 _0167_
*244 _0168_
*245 _0169_
*246 _0170_
*247 _0171_
*248 _0172_
*249 _0173_
*250 _0174_
*251 _0175_
*252 _0176_
*253 _0177_
*254 _0178_
*255 _0179_
*256 _0180_
*257 _0181_
*258 _0182_
*259 _0183_
*260 _0184_
*261 _0185_
*262 _0186_
*263 _0187_
*264 _0188_
*265 _0189_
*266 _0190_
*267 _0191_
*268 _0192_
*269 _0193_
*270 _0194_
*271 _0195_
*272 _0196_
*273 _0197_
*274 _0198_
*275 _0199_
*276 _0200_
*277 _0201_
*278 _0202_
*279 _0203_
*280 _0204_
*281 _0205_
*282 _0206_
*283 _0207_
*284 _0208_
*285 _0209_
*286 _0210_
*287 _0211_
*288 _0212_
*289 _0213_
*290 _0214_
*291 _0215_
*292 _0216_
*293 _0217_
*294 _0218_
*295 _0219_
*296 _0220_
*297 _0221_
*298 _0222_
*299 _0223_
*300 _0224_
*301 _0225_
*302 _0226_
*303 _0227_
*304 _0228_
*305 _0229_
*306 _0230_
*307 _0231_
*308 _0232_
*309 _0233_
*310 _0234_
*311 _0235_
*312 _0236_
*313 _0237_
*314 _0238_
*315 _0239_
*316 _0240_
*317 _0241_
*318 _0242_
*319 _0243_
*320 _0244_
*321 _0245_
*322 _0246_
*323 _0247_
*324 _0248_
*325 _0249_
*326 _0250_
*327 _0251_
*328 _0252_
*329 _0253_
*330 _0254_
*331 _0255_
*332 _0256_
*333 _0257_
*334 _0258_
*335 _0259_
*336 _0260_
*337 _0261_
*338 _0262_
*339 _0263_
*340 _0264_
*341 _0265_
*342 _0266_
*343 _0267_
*344 _0268_
*345 _0269_
*346 _0270_
*347 _0271_
*348 _0272_
*349 _0273_
*350 _0274_
*351 _0275_
*352 _0276_
*353 _0277_
*354 _0278_
*355 _0279_
*356 _0280_
*357 _0281_
*358 _0282_
*359 _0283_
*360 _0284_
*361 _0285_
*362 _0286_
*363 _0287_
*364 _0288_
*365 _0289_
*366 _0290_
*367 _0291_
*368 _0292_
*369 _0293_
*370 _0294_
*371 _0295_
*372 _0296_
*373 _0297_
*374 _0298_
*375 _0299_
*376 _0300_
*377 _0301_
*378 _0302_
*379 _0303_
*380 _0304_
*381 _0305_
*382 _0306_
*383 _0307_
*384 _0308_
*385 _0309_
*386 _0310_
*387 _0311_
*388 _0312_
*389 _0313_
*390 _0314_
*391 _0315_
*392 _0316_
*393 _0317_
*394 _0318_
*395 _0319_
*396 _0320_
*397 _0321_
*398 _0322_
*399 _0323_
*400 _0324_
*401 _0325_
*402 _0326_
*403 _0327_
*404 _0328_
*405 _0329_
*406 _0330_
*407 _0331_
*408 _0332_
*409 _0333_
*410 _0334_
*411 _0335_
*412 _0336_
*413 _0337_
*414 _0338_
*415 _0339_
*416 _0340_
*417 _0341_
*418 _0342_
*419 _0343_
*420 _0344_
*421 _0345_
*422 _0346_
*423 _0347_
*424 _0348_
*425 _0349_
*426 _0350_
*427 _0351_
*428 _0352_
*429 _0353_
*430 _0354_
*431 _0355_
*432 _0356_
*433 _0357_
*434 _0358_
*435 _0359_
*436 _0360_
*437 _0361_
*438 _0362_
*439 _0363_
*440 _0364_
*441 _0365_
*442 _0366_
*443 _0367_
*444 _0368_
*445 _0369_
*446 _0370_
*447 _0371_
*448 _0372_
*449 _0373_
*450 _0374_
*451 _0375_
*452 _0376_
*453 _0377_
*454 _0378_
*455 _0379_
*456 _0380_
*457 _0381_
*458 _0382_
*459 _0383_
*460 _0384_
*461 _0385_
*462 _0386_
*463 _0387_
*464 _0388_
*465 _0389_
*466 _0390_
*467 _0391_
*468 _0392_
*469 _0393_
*470 _0394_
*471 _0395_
*472 _0396_
*473 _0397_
*474 _0398_
*475 _0399_
*476 _0400_
*477 _0401_
*478 _0402_
*479 _0403_
*480 _0404_
*481 _0405_
*482 _0406_
*483 _0407_
*484 _0408_
*485 _0409_
*486 _0410_
*487 _0411_
*488 _0412_
*489 _0413_
*490 _0414_
*491 _0415_
*492 _0416_
*493 _0417_
*494 _0418_
*495 _0419_
*496 _0420_
*497 _0421_
*498 _0422_
*499 _0423_
*500 _0424_
*501 _0425_
*502 _0426_
*503 _0427_
*504 _0428_
*505 _0429_
*506 _0430_
*507 _0431_
*508 _0432_
*509 _0433_
*510 _0434_
*511 _0435_
*512 _0436_
*513 _0437_
*514 _0438_
*515 _0439_
*516 _0440_
*517 _0441_
*518 _0442_
*519 _0443_
*520 _0444_
*521 _0445_
*522 _0446_
*523 _0447_
*524 _0448_
*525 _0449_
*526 _0450_
*527 _0451_
*528 _0452_
*529 _0453_
*530 _0454_
*531 _0455_
*532 _0456_
*533 _0457_
*534 _0458_
*535 _0459_
*536 _0460_
*537 _0461_
*538 _0462_
*539 _0463_
*540 _0464_
*541 _0465_
*542 _0466_
*543 _0467_
*544 _0468_
*545 _0469_
*546 _0470_
*547 _0471_
*548 _0472_
*549 _0473_
*550 _0474_
*551 _0475_
*552 _0476_
*553 _0477_
*554 _0478_
*555 _0479_
*556 _0480_
*557 _0481_
*558 _0482_
*559 _0483_
*560 _0484_
*561 _0485_
*562 _0486_
*563 _0487_
*564 _0488_
*565 _0489_
*566 _0490_
*567 _0491_
*568 _0492_
*569 _0493_
*570 _0494_
*571 _0495_
*572 _0496_
*573 _0497_
*574 _0498_
*575 _0499_
*576 _0500_
*577 _0501_
*578 _0502_
*579 _0503_
*580 _0504_
*581 _0505_
*582 _0506_
*583 _0507_
*584 _0508_
*585 _0509_
*586 _0510_
*587 _0511_
*588 _0512_
*589 _0513_
*590 _0514_
*591 _0515_
*592 _0516_
*593 _0517_
*594 _0518_
*595 _0519_
*596 _0520_
*597 _0521_
*598 _0522_
*599 _0523_
*600 _0524_
*601 _0525_
*602 _0526_
*603 _0527_
*604 _0528_
*605 clknet_0_clk_i
*606 clknet_4_0_0_clk_i
*607 clknet_4_10_0_clk_i
*608 clknet_4_11_0_clk_i
*609 clknet_4_12_0_clk_i
*610 clknet_4_13_0_clk_i
*611 clknet_4_14_0_clk_i
*612 clknet_4_15_0_clk_i
*613 clknet_4_1_0_clk_i
*614 clknet_4_2_0_clk_i
*615 clknet_4_3_0_clk_i
*616 clknet_4_4_0_clk_i
*617 clknet_4_5_0_clk_i
*618 clknet_4_6_0_clk_i
*619 clknet_4_7_0_clk_i
*620 clknet_4_8_0_clk_i
*621 clknet_4_9_0_clk_i
*622 clknet_5_0__leaf_clk_i
*623 clknet_5_10__leaf_clk_i
*624 clknet_5_11__leaf_clk_i
*625 clknet_5_12__leaf_clk_i
*626 clknet_5_13__leaf_clk_i
*627 clknet_5_14__leaf_clk_i
*628 clknet_5_15__leaf_clk_i
*629 clknet_5_16__leaf_clk_i
*630 clknet_5_17__leaf_clk_i
*631 clknet_5_18__leaf_clk_i
*632 clknet_5_19__leaf_clk_i
*633 clknet_5_1__leaf_clk_i
*634 clknet_5_20__leaf_clk_i
*635 clknet_5_21__leaf_clk_i
*636 clknet_5_22__leaf_clk_i
*637 clknet_5_23__leaf_clk_i
*638 clknet_5_24__leaf_clk_i
*639 clknet_5_25__leaf_clk_i
*640 clknet_5_26__leaf_clk_i
*641 clknet_5_27__leaf_clk_i
*642 clknet_5_28__leaf_clk_i
*643 clknet_5_29__leaf_clk_i
*644 clknet_5_2__leaf_clk_i
*645 clknet_5_30__leaf_clk_i
*646 clknet_5_31__leaf_clk_i
*647 clknet_5_3__leaf_clk_i
*648 clknet_5_4__leaf_clk_i
*649 clknet_5_5__leaf_clk_i
*650 clknet_5_6__leaf_clk_i
*651 clknet_5_7__leaf_clk_i
*652 clknet_5_8__leaf_clk_i
*653 clknet_5_9__leaf_clk_i
*654 net1
*655 net10
*656 net100
*657 net101
*658 net102
*659 net103
*660 net104
*661 net105
*662 net106
*663 net107
*664 net108
*665 net109
*666 net11
*667 net110
*668 net111
*669 net112
*670 net113
*671 net114
*672 net115
*673 net116
*674 net117
*675 net118
*676 net119
*677 net12
*678 net120
*679 net121
*680 net122
*681 net123
*682 net124
*683 net125
*684 net126
*685 net127
*686 net128
*687 net129
*688 net13
*689 net130
*690 net131
*691 net132
*692 net133
*693 net134
*694 net135
*695 net136
*696 net137
*697 net138
*698 net139
*699 net14
*700 net140
*701 net141
*702 net142
*703 net143
*704 net144
*705 net145
*706 net146
*707 net147
*708 net148
*709 net149
*710 net15
*711 net150
*712 net151
*713 net152
*714 net153
*715 net154
*716 net155
*717 net156
*718 net157
*719 net158
*720 net16
*721 net160
*722 net161
*723 net162
*724 net163
*725 net164
*726 net165
*727 net166
*728 net167
*729 net168
*730 net169
*731 net17
*732 net170
*733 net171
*734 net172
*735 net173
*736 net174
*737 net175
*738 net176
*739 net177
*740 net178
*741 net179
*742 net18
*743 net180
*744 net181
*745 net182
*746 net183
*747 net184
*748 net185
*749 net186
*750 net187
*751 net188
*752 net189
*753 net19
*754 net190
*755 net191
*756 net192
*757 net193
*758 net194
*759 net195
*760 net196
*761 net197
*762 net198
*763 net199
*764 net2
*765 net20
*766 net200
*767 net201
*768 net202
*769 net203
*770 net204
*771 net205
*772 net206
*773 net207
*774 net208
*775 net209
*776 net21
*777 net210
*778 net211
*779 net212
*780 net213
*781 net214
*782 net215
*783 net216
*784 net217
*785 net218
*786 net219
*787 net22
*788 net220
*789 net221
*790 net222
*791 net223
*792 net224
*793 net225
*794 net226
*795 net227
*796 net228
*797 net229
*798 net23
*799 net230
*800 net231
*801 net232
*802 net233
*803 net234
*804 net235
*805 net236
*806 net237
*807 net238
*808 net239
*809 net24
*810 net240
*811 net241
*812 net242
*813 net243
*814 net244
*815 net245
*816 net246
*817 net247
*818 net248
*819 net249
*820 net25
*821 net250
*822 net251
*823 net252
*824 net253
*825 net254
*826 net255
*827 net256
*828 net257
*829 net258
*830 net259
*831 net26
*832 net260
*833 net261
*834 net262
*835 net263
*836 net264
*837 net265
*838 net266
*839 net267
*840 net268
*841 net269
*842 net27
*843 net270
*844 net271
*845 net272
*846 net273
*847 net274
*848 net275
*849 net276
*850 net277
*851 net278
*852 net279
*853 net28
*854 net280
*855 net281
*856 net282
*857 net283
*858 net284
*859 net285
*860 net286
*861 net287
*862 net288
*863 net289
*864 net29
*865 net290
*866 net291
*867 net292
*868 net293
*869 net294
*870 net295
*871 net296
*872 net297
*873 net298
*874 net299
*875 net3
*876 net30
*877 net300
*878 net301
*879 net302
*880 net303
*881 net304
*882 net305
*883 net306
*884 net307
*885 net308
*886 net309
*887 net31
*888 net310
*889 net311
*890 net312
*891 net313
*892 net314
*893 net315
*894 net316
*895 net317
*896 net318
*897 net319
*898 net32
*899 net320
*900 net321
*901 net322
*902 net323
*903 net324
*904 net325
*905 net326
*906 net327
*907 net328
*908 net329
*909 net33
*910 net330
*911 net331
*912 net332
*913 net333
*914 net334
*915 net335
*916 net336
*917 net337
*918 net338
*919 net339
*920 net34
*921 net340
*922 net341
*923 net342
*924 net343
*925 net344
*926 net345
*927 net346
*928 net347
*929 net348
*930 net349
*931 net35
*932 net350
*933 net351
*934 net352
*935 net353
*936 net354
*937 net355
*938 net356
*939 net357
*940 net358
*941 net359
*942 net36
*943 net360
*944 net361
*945 net362
*946 net363
*947 net364
*948 net365
*949 net366
*950 net367
*951 net368
*952 net369
*953 net37
*954 net370
*955 net371
*956 net372
*957 net373
*958 net374
*959 net375
*960 net376
*961 net377
*962 net378
*963 net379
*964 net38
*965 net380
*966 net381
*967 net382
*968 net39
*969 net4
*970 net40
*971 net41
*972 net42
*973 net43
*974 net44
*975 net45
*976 net46
*977 net47
*978 net48
*979 net49
*980 net5
*981 net50
*982 net51
*983 net52
*984 net53
*985 net54
*986 net55
*987 net56
*988 net57
*989 net58
*990 net59
*991 net6
*992 net60
*993 net61
*994 net62
*995 net63
*996 net64
*997 net65
*998 net66
*999 net67
*1000 net68
*1001 net69
*1002 net7
*1003 net70
*1004 net71
*1005 net72
*1006 net73
*1007 net74
*1008 net75
*1009 net76
*1010 net77
*1011 net78
*1012 net79
*1013 net8
*1014 net80
*1015 net81
*1016 net82
*1017 net83
*1018 net84
*1019 net85
*1020 net86
*1021 net87
*1022 net88
*1023 net89
*1024 net9
*1025 net90
*1026 net91
*1027 net92
*1028 net93
*1029 net94
*1030 net95
*1031 net96
*1032 net97
*1033 net98
*1034 net99
*1035 spi_done
*1036 spi_rx\[0\]
*1037 spi_rx\[1\]
*1038 spi_rx\[2\]
*1039 spi_rx\[3\]
*1040 spi_rx\[4\]
*1041 spi_rx\[5\]
*1042 spi_rx\[6\]
*1043 spi_rx\[7\]
*1044 spi_start
*1045 spi_tx\[0\]
*1046 u_boot_ctrl\.byte_cnt\[0\]
*1047 u_boot_ctrl\.byte_cnt\[1\]
*1048 u_boot_ctrl\.state\[0\]
*1049 u_boot_ctrl\.state\[1\]
*1050 u_boot_ctrl\.state\[2\]
*1051 u_boot_ctrl\.state\[3\]
*1052 u_boot_ctrl\.state\[4\]
*1053 u_boot_ctrl\.state\[5\]
*1054 u_boot_ctrl\.state\[7\]
*1055 u_boot_ctrl\.state\[8\]
*1056 u_boot_ctrl\.state\[9\]
*1057 u_boot_ctrl\.word_asm\[0\]
*1058 u_boot_ctrl\.word_asm\[10\]
*1059 u_boot_ctrl\.word_asm\[11\]
*1060 u_boot_ctrl\.word_asm\[12\]
*1061 u_boot_ctrl\.word_asm\[13\]
*1062 u_boot_ctrl\.word_asm\[14\]
*1063 u_boot_ctrl\.word_asm\[15\]
*1064 u_boot_ctrl\.word_asm\[16\]
*1065 u_boot_ctrl\.word_asm\[17\]
*1066 u_boot_ctrl\.word_asm\[18\]
*1067 u_boot_ctrl\.word_asm\[19\]
*1068 u_boot_ctrl\.word_asm\[1\]
*1069 u_boot_ctrl\.word_asm\[20\]
*1070 u_boot_ctrl\.word_asm\[21\]
*1071 u_boot_ctrl\.word_asm\[22\]
*1072 u_boot_ctrl\.word_asm\[23\]
*1073 u_boot_ctrl\.word_asm\[24\]
*1074 u_boot_ctrl\.word_asm\[25\]
*1075 u_boot_ctrl\.word_asm\[26\]
*1076 u_boot_ctrl\.word_asm\[27\]
*1077 u_boot_ctrl\.word_asm\[28\]
*1078 u_boot_ctrl\.word_asm\[29\]
*1079 u_boot_ctrl\.word_asm\[2\]
*1080 u_boot_ctrl\.word_asm\[30\]
*1081 u_boot_ctrl\.word_asm\[31\]
*1082 u_boot_ctrl\.word_asm\[3\]
*1083 u_boot_ctrl\.word_asm\[4\]
*1084 u_boot_ctrl\.word_asm\[5\]
*1085 u_boot_ctrl\.word_asm\[6\]
*1086 u_boot_ctrl\.word_asm\[7\]
*1087 u_boot_ctrl\.word_asm\[8\]
*1088 u_boot_ctrl\.word_asm\[9\]
*1089 u_boot_ctrl\.word_cnt\[0\]
*1090 u_boot_ctrl\.word_cnt\[10\]
*1091 u_boot_ctrl\.word_cnt\[11\]
*1092 u_boot_ctrl\.word_cnt\[12\]
*1093 u_boot_ctrl\.word_cnt\[13\]
*1094 u_boot_ctrl\.word_cnt\[14\]
*1095 u_boot_ctrl\.word_cnt\[15\]
*1096 u_boot_ctrl\.word_cnt\[16\]
*1097 u_boot_ctrl\.word_cnt\[17\]
*1098 u_boot_ctrl\.word_cnt\[18\]
*1099 u_boot_ctrl\.word_cnt\[19\]
*1100 u_boot_ctrl\.word_cnt\[1\]
*1101 u_boot_ctrl\.word_cnt\[20\]
*1102 u_boot_ctrl\.word_cnt\[21\]
*1103 u_boot_ctrl\.word_cnt\[22\]
*1104 u_boot_ctrl\.word_cnt\[23\]
*1105 u_boot_ctrl\.word_cnt\[24\]
*1106 u_boot_ctrl\.word_cnt\[25\]
*1107 u_boot_ctrl\.word_cnt\[26\]
*1108 u_boot_ctrl\.word_cnt\[27\]
*1109 u_boot_ctrl\.word_cnt\[28\]
*1110 u_boot_ctrl\.word_cnt\[29\]
*1111 u_boot_ctrl\.word_cnt\[2\]
*1112 u_boot_ctrl\.word_cnt\[30\]
*1113 u_boot_ctrl\.word_cnt\[31\]
*1114 u_boot_ctrl\.word_cnt\[3\]
*1115 u_boot_ctrl\.word_cnt\[4\]
*1116 u_boot_ctrl\.word_cnt\[5\]
*1117 u_boot_ctrl\.word_cnt\[6\]
*1118 u_boot_ctrl\.word_cnt\[7\]
*1119 u_boot_ctrl\.word_cnt\[8\]
*1120 u_boot_ctrl\.word_cnt\[9\]
*1121 u_spi\.bit_cnt\[0\]
*1122 u_spi\.bit_cnt\[1\]
*1123 u_spi\.bit_cnt\[2\]
*1124 u_spi\.bit_cnt\[3\]
*1125 u_spi\.busy
*1126 u_spi\.div_cnt\[0\]
*1127 u_spi\.div_cnt\[1\]
*1128 u_spi\.div_cnt\[2\]
*1129 u_spi\.div_cnt\[3\]
*1130 u_spi\.tx_shift\[0\]
*1131 u_spi\.tx_shift\[1\]
*1132 u_spi\.tx_shift\[2\]
*1133 u_spi\.tx_shift\[3\]
*1134 u_spi\.tx_shift\[4\]
*1135 u_spi\.tx_shift\[5\]
*1136 u_spi\.tx_shift\[6\]
*1137 FILLER_0_0
*1138 FILLER_0_105
*1139 FILLER_0_112
*1140 FILLER_0_119
*1141 FILLER_0_126
*1142 FILLER_0_133
*1143 FILLER_0_14
*1144 FILLER_0_140
*1145 FILLER_0_144
*1146 FILLER_0_149
*1147 FILLER_0_156
*1148 FILLER_0_163
*1149 FILLER_0_170
*1150 FILLER_0_179
*1151 FILLER_0_185
*1152 FILLER_0_192
*1153 FILLER_0_199
*1154 FILLER_0_206
*1155 FILLER_0_21
*1156 FILLER_0_213
*1157 FILLER_0_219
*1158 FILLER_0_226
*1159 FILLER_0_230
*1160 FILLER_0_235
*1161 FILLER_0_242
*1162 FILLER_0_247
*1163 FILLER_0_254
*1164 FILLER_0_261
*1165 FILLER_0_268
*1166 FILLER_0_270
*1167 FILLER_0_275
*1168 FILLER_0_28
*1169 FILLER_0_282
*1170 FILLER_0_289
*1171 FILLER_0_295
*1172 FILLER_0_302
*1173 FILLER_0_309
*1174 FILLER_0_316
*1175 FILLER_0_323
*1176 FILLER_0_330
*1177 FILLER_0_337
*1178 FILLER_0_344
*1179 FILLER_0_35
*1180 FILLER_0_351
*1181 FILLER_0_358
*1182 FILLER_0_365
*1183 FILLER_0_372
*1184 FILLER_0_379
*1185 FILLER_0_386
*1186 FILLER_0_405
*1187 FILLER_0_412
*1188 FILLER_0_419
*1189 FILLER_0_42
*1190 FILLER_0_426
*1191 FILLER_0_430
*1192 FILLER_0_439
*1193 FILLER_0_446
*1194 FILLER_0_453
*1195 FILLER_0_460
*1196 FILLER_0_467
*1197 FILLER_0_474
*1198 FILLER_0_481
*1199 FILLER_0_488
*1200 FILLER_0_49
*1201 FILLER_0_495
*1202 FILLER_0_502
*1203 FILLER_0_56
*1204 FILLER_0_63
*1205 FILLER_0_7
*1206 FILLER_0_70
*1207 FILLER_0_77
*1208 FILLER_0_84
*1209 FILLER_0_91
*1210 FILLER_0_98
*1211 FILLER_10_0
*1212 FILLER_10_105
*1213 FILLER_10_112
*1214 FILLER_10_119
*1215 FILLER_10_126
*1216 FILLER_10_133
*1217 FILLER_10_14
*1218 FILLER_10_140
*1219 FILLER_10_147
*1220 FILLER_10_154
*1221 FILLER_10_161
*1222 FILLER_10_168
*1223 FILLER_10_175
*1224 FILLER_10_182
*1225 FILLER_10_189
*1226 FILLER_10_196
*1227 FILLER_10_203
*1228 FILLER_10_21
*1229 FILLER_10_210
*1230 FILLER_10_217
*1231 FILLER_10_224
*1232 FILLER_10_231
*1233 FILLER_10_238
*1234 FILLER_10_245
*1235 FILLER_10_274
*1236 FILLER_10_279
*1237 FILLER_10_28
*1238 FILLER_10_286
*1239 FILLER_10_293
*1240 FILLER_10_300
*1241 FILLER_10_307
*1242 FILLER_10_314
*1243 FILLER_10_321
*1244 FILLER_10_328
*1245 FILLER_10_335
*1246 FILLER_10_340
*1247 FILLER_10_347
*1248 FILLER_10_35
*1249 FILLER_10_368
*1250 FILLER_10_372
*1251 FILLER_10_377
*1252 FILLER_10_384
*1253 FILLER_10_391
*1254 FILLER_10_398
*1255 FILLER_10_402
*1256 FILLER_10_42
*1257 FILLER_10_436
*1258 FILLER_10_443
*1259 FILLER_10_447
*1260 FILLER_10_457
*1261 FILLER_10_459
*1262 FILLER_10_49
*1263 FILLER_10_56
*1264 FILLER_10_63
*1265 FILLER_10_7
*1266 FILLER_10_70
*1267 FILLER_10_77
*1268 FILLER_10_84
*1269 FILLER_10_91
*1270 FILLER_10_98
*1271 FILLER_11_0
*1272 FILLER_11_105
*1273 FILLER_11_112
*1274 FILLER_11_119
*1275 FILLER_11_126
*1276 FILLER_11_133
*1277 FILLER_11_14
*1278 FILLER_11_140
*1279 FILLER_11_147
*1280 FILLER_11_154
*1281 FILLER_11_161
*1282 FILLER_11_168
*1283 FILLER_11_175
*1284 FILLER_11_182
*1285 FILLER_11_189
*1286 FILLER_11_196
*1287 FILLER_11_203
*1288 FILLER_11_21
*1289 FILLER_11_210
*1290 FILLER_11_216
*1291 FILLER_11_223
*1292 FILLER_11_227
*1293 FILLER_11_233
*1294 FILLER_11_235
*1295 FILLER_11_263
*1296 FILLER_11_28
*1297 FILLER_11_297
*1298 FILLER_11_304
*1299 FILLER_11_311
*1300 FILLER_11_318
*1301 FILLER_11_325
*1302 FILLER_11_330
*1303 FILLER_11_337
*1304 FILLER_11_343
*1305 FILLER_11_345
*1306 FILLER_11_35
*1307 FILLER_11_391
*1308 FILLER_11_402
*1309 FILLER_11_406
*1310 FILLER_11_415
*1311 FILLER_11_42
*1312 FILLER_11_422
*1313 FILLER_11_429
*1314 FILLER_11_436
*1315 FILLER_11_443
*1316 FILLER_11_447
*1317 FILLER_11_461
*1318 FILLER_11_474
*1319 FILLER_11_481
*1320 FILLER_11_489
*1321 FILLER_11_49
*1322 FILLER_11_496
*1323 FILLER_11_503
*1324 FILLER_11_505
*1325 FILLER_11_56
*1326 FILLER_11_63
*1327 FILLER_11_7
*1328 FILLER_11_70
*1329 FILLER_11_77
*1330 FILLER_11_84
*1331 FILLER_11_91
*1332 FILLER_11_98
*1333 FILLER_12_0
*1334 FILLER_12_105
*1335 FILLER_12_112
*1336 FILLER_12_119
*1337 FILLER_12_126
*1338 FILLER_12_133
*1339 FILLER_12_14
*1340 FILLER_12_140
*1341 FILLER_12_147
*1342 FILLER_12_154
*1343 FILLER_12_161
*1344 FILLER_12_168
*1345 FILLER_12_175
*1346 FILLER_12_182
*1347 FILLER_12_189
*1348 FILLER_12_196
*1349 FILLER_12_203
*1350 FILLER_12_21
*1351 FILLER_12_240
*1352 FILLER_12_246
*1353 FILLER_12_253
*1354 FILLER_12_264
*1355 FILLER_12_271
*1356 FILLER_12_273
*1357 FILLER_12_28
*1358 FILLER_12_284
*1359 FILLER_12_291
*1360 FILLER_12_35
*1361 FILLER_12_351
*1362 FILLER_12_365
*1363 FILLER_12_372
*1364 FILLER_12_379
*1365 FILLER_12_408
*1366 FILLER_12_42
*1367 FILLER_12_424
*1368 FILLER_12_429
*1369 FILLER_12_436
*1370 FILLER_12_443
*1371 FILLER_12_489
*1372 FILLER_12_49
*1373 FILLER_12_496
*1374 FILLER_12_500
*1375 FILLER_12_56
*1376 FILLER_12_63
*1377 FILLER_12_7
*1378 FILLER_12_70
*1379 FILLER_12_77
*1380 FILLER_12_84
*1381 FILLER_12_91
*1382 FILLER_12_98
*1383 FILLER_13_0
*1384 FILLER_13_105
*1385 FILLER_13_112
*1386 FILLER_13_119
*1387 FILLER_13_126
*1388 FILLER_13_133
*1389 FILLER_13_14
*1390 FILLER_13_140
*1391 FILLER_13_147
*1392 FILLER_13_154
*1393 FILLER_13_161
*1394 FILLER_13_168
*1395 FILLER_13_175
*1396 FILLER_13_182
*1397 FILLER_13_189
*1398 FILLER_13_196
*1399 FILLER_13_203
*1400 FILLER_13_21
*1401 FILLER_13_210
*1402 FILLER_13_217
*1403 FILLER_13_224
*1404 FILLER_13_231
*1405 FILLER_13_238
*1406 FILLER_13_245
*1407 FILLER_13_252
*1408 FILLER_13_259
*1409 FILLER_13_266
*1410 FILLER_13_273
*1411 FILLER_13_28
*1412 FILLER_13_280
*1413 FILLER_13_288
*1414 FILLER_13_301
*1415 FILLER_13_306
*1416 FILLER_13_313
*1417 FILLER_13_320
*1418 FILLER_13_327
*1419 FILLER_13_339
*1420 FILLER_13_346
*1421 FILLER_13_35
*1422 FILLER_13_350
*1423 FILLER_13_357
*1424 FILLER_13_364
*1425 FILLER_13_371
*1426 FILLER_13_375
*1427 FILLER_13_419
*1428 FILLER_13_42
*1429 FILLER_13_447
*1430 FILLER_13_454
*1431 FILLER_13_461
*1432 FILLER_13_49
*1433 FILLER_13_56
*1434 FILLER_13_63
*1435 FILLER_13_7
*1436 FILLER_13_70
*1437 FILLER_13_77
*1438 FILLER_13_84
*1439 FILLER_13_91
*1440 FILLER_13_98
*1441 FILLER_14_0
*1442 FILLER_14_105
*1443 FILLER_14_112
*1444 FILLER_14_119
*1445 FILLER_14_126
*1446 FILLER_14_133
*1447 FILLER_14_14
*1448 FILLER_14_140
*1449 FILLER_14_147
*1450 FILLER_14_154
*1451 FILLER_14_161
*1452 FILLER_14_168
*1453 FILLER_14_175
*1454 FILLER_14_182
*1455 FILLER_14_189
*1456 FILLER_14_196
*1457 FILLER_14_203
*1458 FILLER_14_21
*1459 FILLER_14_210
*1460 FILLER_14_217
*1461 FILLER_14_224
*1462 FILLER_14_231
*1463 FILLER_14_238
*1464 FILLER_14_245
*1465 FILLER_14_274
*1466 FILLER_14_28
*1467 FILLER_14_281
*1468 FILLER_14_288
*1469 FILLER_14_295
*1470 FILLER_14_305
*1471 FILLER_14_312
*1472 FILLER_14_319
*1473 FILLER_14_326
*1474 FILLER_14_333
*1475 FILLER_14_346
*1476 FILLER_14_35
*1477 FILLER_14_353
*1478 FILLER_14_360
*1479 FILLER_14_367
*1480 FILLER_14_374
*1481 FILLER_14_385
*1482 FILLER_14_390
*1483 FILLER_14_394
*1484 FILLER_14_399
*1485 FILLER_14_416
*1486 FILLER_14_42
*1487 FILLER_14_422
*1488 FILLER_14_429
*1489 FILLER_14_436
*1490 FILLER_14_440
*1491 FILLER_14_447
*1492 FILLER_14_454
*1493 FILLER_14_461
*1494 FILLER_14_468
*1495 FILLER_14_475
*1496 FILLER_14_49
*1497 FILLER_14_56
*1498 FILLER_14_63
*1499 FILLER_14_7
*1500 FILLER_14_70
*1501 FILLER_14_77
*1502 FILLER_14_84
*1503 FILLER_14_91
*1504 FILLER_14_98
*1505 FILLER_15_0
*1506 FILLER_15_105
*1507 FILLER_15_112
*1508 FILLER_15_119
*1509 FILLER_15_126
*1510 FILLER_15_133
*1511 FILLER_15_14
*1512 FILLER_15_140
*1513 FILLER_15_147
*1514 FILLER_15_154
*1515 FILLER_15_161
*1516 FILLER_15_168
*1517 FILLER_15_175
*1518 FILLER_15_182
*1519 FILLER_15_189
*1520 FILLER_15_196
*1521 FILLER_15_203
*1522 FILLER_15_21
*1523 FILLER_15_210
*1524 FILLER_15_217
*1525 FILLER_15_224
*1526 FILLER_15_262
*1527 FILLER_15_269
*1528 FILLER_15_276
*1529 FILLER_15_28
*1530 FILLER_15_283
*1531 FILLER_15_308
*1532 FILLER_15_312
*1533 FILLER_15_318
*1534 FILLER_15_320
*1535 FILLER_15_330
*1536 FILLER_15_337
*1537 FILLER_15_344
*1538 FILLER_15_35
*1539 FILLER_15_357
*1540 FILLER_15_385
*1541 FILLER_15_392
*1542 FILLER_15_399
*1543 FILLER_15_406
*1544 FILLER_15_410
*1545 FILLER_15_417
*1546 FILLER_15_42
*1547 FILLER_15_421
*1548 FILLER_15_432
*1549 FILLER_15_434
*1550 FILLER_15_472
*1551 FILLER_15_476
*1552 FILLER_15_49
*1553 FILLER_15_56
*1554 FILLER_15_63
*1555 FILLER_15_7
*1556 FILLER_15_70
*1557 FILLER_15_77
*1558 FILLER_15_84
*1559 FILLER_15_91
*1560 FILLER_15_98
*1561 FILLER_16_0
*1562 FILLER_16_105
*1563 FILLER_16_112
*1564 FILLER_16_119
*1565 FILLER_16_126
*1566 FILLER_16_133
*1567 FILLER_16_14
*1568 FILLER_16_140
*1569 FILLER_16_147
*1570 FILLER_16_154
*1571 FILLER_16_161
*1572 FILLER_16_168
*1573 FILLER_16_175
*1574 FILLER_16_182
*1575 FILLER_16_189
*1576 FILLER_16_196
*1577 FILLER_16_203
*1578 FILLER_16_21
*1579 FILLER_16_210
*1580 FILLER_16_217
*1581 FILLER_16_224
*1582 FILLER_16_228
*1583 FILLER_16_234
*1584 FILLER_16_241
*1585 FILLER_16_248
*1586 FILLER_16_254
*1587 FILLER_16_261
*1588 FILLER_16_263
*1589 FILLER_16_269
*1590 FILLER_16_276
*1591 FILLER_16_28
*1592 FILLER_16_283
*1593 FILLER_16_294
*1594 FILLER_16_308
*1595 FILLER_16_35
*1596 FILLER_16_359
*1597 FILLER_16_367
*1598 FILLER_16_374
*1599 FILLER_16_381
*1600 FILLER_16_388
*1601 FILLER_16_395
*1602 FILLER_16_42
*1603 FILLER_16_431
*1604 FILLER_16_438
*1605 FILLER_16_445
*1606 FILLER_16_449
*1607 FILLER_16_455
*1608 FILLER_16_462
*1609 FILLER_16_469
*1610 FILLER_16_473
*1611 FILLER_16_480
*1612 FILLER_16_484
*1613 FILLER_16_489
*1614 FILLER_16_49
*1615 FILLER_16_496
*1616 FILLER_16_56
*1617 FILLER_16_63
*1618 FILLER_16_7
*1619 FILLER_16_70
*1620 FILLER_16_77
*1621 FILLER_16_84
*1622 FILLER_16_91
*1623 FILLER_16_98
*1624 FILLER_17_0
*1625 FILLER_17_105
*1626 FILLER_17_112
*1627 FILLER_17_119
*1628 FILLER_17_126
*1629 FILLER_17_133
*1630 FILLER_17_14
*1631 FILLER_17_140
*1632 FILLER_17_147
*1633 FILLER_17_154
*1634 FILLER_17_161
*1635 FILLER_17_168
*1636 FILLER_17_175
*1637 FILLER_17_182
*1638 FILLER_17_189
*1639 FILLER_17_196
*1640 FILLER_17_203
*1641 FILLER_17_21
*1642 FILLER_17_210
*1643 FILLER_17_217
*1644 FILLER_17_224
*1645 FILLER_17_231
*1646 FILLER_17_233
*1647 FILLER_17_259
*1648 FILLER_17_266
*1649 FILLER_17_28
*1650 FILLER_17_310
*1651 FILLER_17_317
*1652 FILLER_17_324
*1653 FILLER_17_331
*1654 FILLER_17_338
*1655 FILLER_17_345
*1656 FILLER_17_349
*1657 FILLER_17_35
*1658 FILLER_17_378
*1659 FILLER_17_385
*1660 FILLER_17_392
*1661 FILLER_17_399
*1662 FILLER_17_404
*1663 FILLER_17_408
*1664 FILLER_17_413
*1665 FILLER_17_42
*1666 FILLER_17_420
*1667 FILLER_17_427
*1668 FILLER_17_431
*1669 FILLER_17_445
*1670 FILLER_17_452
*1671 FILLER_17_459
*1672 FILLER_17_466
*1673 FILLER_17_477
*1674 FILLER_17_49
*1675 FILLER_17_56
*1676 FILLER_17_63
*1677 FILLER_17_7
*1678 FILLER_17_70
*1679 FILLER_17_77
*1680 FILLER_17_84
*1681 FILLER_17_91
*1682 FILLER_17_98
*1683 FILLER_18_0
*1684 FILLER_18_105
*1685 FILLER_18_112
*1686 FILLER_18_119
*1687 FILLER_18_126
*1688 FILLER_18_133
*1689 FILLER_18_14
*1690 FILLER_18_140
*1691 FILLER_18_147
*1692 FILLER_18_154
*1693 FILLER_18_161
*1694 FILLER_18_168
*1695 FILLER_18_175
*1696 FILLER_18_182
*1697 FILLER_18_189
*1698 FILLER_18_196
*1699 FILLER_18_203
*1700 FILLER_18_21
*1701 FILLER_18_210
*1702 FILLER_18_217
*1703 FILLER_18_224
*1704 FILLER_18_228
*1705 FILLER_18_260
*1706 FILLER_18_267
*1707 FILLER_18_274
*1708 FILLER_18_279
*1709 FILLER_18_28
*1710 FILLER_18_286
*1711 FILLER_18_293
*1712 FILLER_18_302
*1713 FILLER_18_309
*1714 FILLER_18_316
*1715 FILLER_18_323
*1716 FILLER_18_330
*1717 FILLER_18_337
*1718 FILLER_18_346
*1719 FILLER_18_35
*1720 FILLER_18_352
*1721 FILLER_18_359
*1722 FILLER_18_366
*1723 FILLER_18_377
*1724 FILLER_18_388
*1725 FILLER_18_401
*1726 FILLER_18_408
*1727 FILLER_18_415
*1728 FILLER_18_42
*1729 FILLER_18_422
*1730 FILLER_18_429
*1731 FILLER_18_436
*1732 FILLER_18_447
*1733 FILLER_18_454
*1734 FILLER_18_465
*1735 FILLER_18_472
*1736 FILLER_18_479
*1737 FILLER_18_486
*1738 FILLER_18_49
*1739 FILLER_18_493
*1740 FILLER_18_500
*1741 FILLER_18_504
*1742 FILLER_18_56
*1743 FILLER_18_63
*1744 FILLER_18_7
*1745 FILLER_18_70
*1746 FILLER_18_77
*1747 FILLER_18_84
*1748 FILLER_18_91
*1749 FILLER_18_98
*1750 FILLER_19_0
*1751 FILLER_19_105
*1752 FILLER_19_112
*1753 FILLER_19_119
*1754 FILLER_19_126
*1755 FILLER_19_133
*1756 FILLER_19_14
*1757 FILLER_19_140
*1758 FILLER_19_147
*1759 FILLER_19_154
*1760 FILLER_19_161
*1761 FILLER_19_168
*1762 FILLER_19_175
*1763 FILLER_19_182
*1764 FILLER_19_189
*1765 FILLER_19_196
*1766 FILLER_19_203
*1767 FILLER_19_207
*1768 FILLER_19_21
*1769 FILLER_19_213
*1770 FILLER_19_220
*1771 FILLER_19_227
*1772 FILLER_19_236
*1773 FILLER_19_238
*1774 FILLER_19_248
*1775 FILLER_19_266
*1776 FILLER_19_273
*1777 FILLER_19_28
*1778 FILLER_19_280
*1779 FILLER_19_287
*1780 FILLER_19_294
*1781 FILLER_19_298
*1782 FILLER_19_308
*1783 FILLER_19_310
*1784 FILLER_19_35
*1785 FILLER_19_365
*1786 FILLER_19_372
*1787 FILLER_19_416
*1788 FILLER_19_42
*1789 FILLER_19_423
*1790 FILLER_19_430
*1791 FILLER_19_437
*1792 FILLER_19_466
*1793 FILLER_19_483
*1794 FILLER_19_489
*1795 FILLER_19_49
*1796 FILLER_19_496
*1797 FILLER_19_56
*1798 FILLER_19_63
*1799 FILLER_19_7
*1800 FILLER_19_70
*1801 FILLER_19_77
*1802 FILLER_19_84
*1803 FILLER_19_91
*1804 FILLER_19_98
*1805 FILLER_1_0
*1806 FILLER_1_105
*1807 FILLER_1_112
*1808 FILLER_1_119
*1809 FILLER_1_126
*1810 FILLER_1_133
*1811 FILLER_1_14
*1812 FILLER_1_140
*1813 FILLER_1_147
*1814 FILLER_1_154
*1815 FILLER_1_161
*1816 FILLER_1_168
*1817 FILLER_1_175
*1818 FILLER_1_182
*1819 FILLER_1_189
*1820 FILLER_1_196
*1821 FILLER_1_203
*1822 FILLER_1_21
*1823 FILLER_1_210
*1824 FILLER_1_217
*1825 FILLER_1_224
*1826 FILLER_1_231
*1827 FILLER_1_238
*1828 FILLER_1_245
*1829 FILLER_1_252
*1830 FILLER_1_259
*1831 FILLER_1_266
*1832 FILLER_1_273
*1833 FILLER_1_28
*1834 FILLER_1_280
*1835 FILLER_1_287
*1836 FILLER_1_294
*1837 FILLER_1_301
*1838 FILLER_1_329
*1839 FILLER_1_336
*1840 FILLER_1_343
*1841 FILLER_1_347
*1842 FILLER_1_35
*1843 FILLER_1_408
*1844 FILLER_1_42
*1845 FILLER_1_439
*1846 FILLER_1_473
*1847 FILLER_1_480
*1848 FILLER_1_487
*1849 FILLER_1_49
*1850 FILLER_1_494
*1851 FILLER_1_501
*1852 FILLER_1_505
*1853 FILLER_1_56
*1854 FILLER_1_63
*1855 FILLER_1_7
*1856 FILLER_1_70
*1857 FILLER_1_77
*1858 FILLER_1_84
*1859 FILLER_1_91
*1860 FILLER_1_98
*1861 FILLER_20_0
*1862 FILLER_20_105
*1863 FILLER_20_112
*1864 FILLER_20_119
*1865 FILLER_20_126
*1866 FILLER_20_133
*1867 FILLER_20_14
*1868 FILLER_20_140
*1869 FILLER_20_147
*1870 FILLER_20_154
*1871 FILLER_20_161
*1872 FILLER_20_168
*1873 FILLER_20_175
*1874 FILLER_20_182
*1875 FILLER_20_189
*1876 FILLER_20_196
*1877 FILLER_20_203
*1878 FILLER_20_21
*1879 FILLER_20_231
*1880 FILLER_20_233
*1881 FILLER_20_239
*1882 FILLER_20_246
*1883 FILLER_20_253
*1884 FILLER_20_263
*1885 FILLER_20_270
*1886 FILLER_20_277
*1887 FILLER_20_28
*1888 FILLER_20_284
*1889 FILLER_20_291
*1890 FILLER_20_298
*1891 FILLER_20_308
*1892 FILLER_20_337
*1893 FILLER_20_341
*1894 FILLER_20_347
*1895 FILLER_20_35
*1896 FILLER_20_354
*1897 FILLER_20_361
*1898 FILLER_20_368
*1899 FILLER_20_375
*1900 FILLER_20_382
*1901 FILLER_20_389
*1902 FILLER_20_396
*1903 FILLER_20_403
*1904 FILLER_20_407
*1905 FILLER_20_42
*1906 FILLER_20_435
*1907 FILLER_20_450
*1908 FILLER_20_466
*1909 FILLER_20_473
*1910 FILLER_20_477
*1911 FILLER_20_49
*1912 FILLER_20_56
*1913 FILLER_20_63
*1914 FILLER_20_7
*1915 FILLER_20_70
*1916 FILLER_20_77
*1917 FILLER_20_84
*1918 FILLER_20_91
*1919 FILLER_20_98
*1920 FILLER_21_0
*1921 FILLER_21_105
*1922 FILLER_21_112
*1923 FILLER_21_119
*1924 FILLER_21_126
*1925 FILLER_21_133
*1926 FILLER_21_14
*1927 FILLER_21_140
*1928 FILLER_21_147
*1929 FILLER_21_154
*1930 FILLER_21_161
*1931 FILLER_21_168
*1932 FILLER_21_175
*1933 FILLER_21_182
*1934 FILLER_21_189
*1935 FILLER_21_196
*1936 FILLER_21_203
*1937 FILLER_21_21
*1938 FILLER_21_210
*1939 FILLER_21_217
*1940 FILLER_21_224
*1941 FILLER_21_231
*1942 FILLER_21_238
*1943 FILLER_21_245
*1944 FILLER_21_252
*1945 FILLER_21_271
*1946 FILLER_21_278
*1947 FILLER_21_28
*1948 FILLER_21_285
*1949 FILLER_21_298
*1950 FILLER_21_305
*1951 FILLER_21_312
*1952 FILLER_21_320
*1953 FILLER_21_327
*1954 FILLER_21_334
*1955 FILLER_21_338
*1956 FILLER_21_349
*1957 FILLER_21_35
*1958 FILLER_21_356
*1959 FILLER_21_363
*1960 FILLER_21_370
*1961 FILLER_21_377
*1962 FILLER_21_379
*1963 FILLER_21_384
*1964 FILLER_21_391
*1965 FILLER_21_398
*1966 FILLER_21_405
*1967 FILLER_21_42
*1968 FILLER_21_421
*1969 FILLER_21_428
*1970 FILLER_21_435
*1971 FILLER_21_442
*1972 FILLER_21_449
*1973 FILLER_21_455
*1974 FILLER_21_462
*1975 FILLER_21_485
*1976 FILLER_21_49
*1977 FILLER_21_492
*1978 FILLER_21_499
*1979 FILLER_21_501
*1980 FILLER_21_56
*1981 FILLER_21_63
*1982 FILLER_21_7
*1983 FILLER_21_70
*1984 FILLER_21_77
*1985 FILLER_21_84
*1986 FILLER_21_91
*1987 FILLER_21_98
*1988 FILLER_22_102
*1989 FILLER_22_109
*1990 FILLER_22_11
*1991 FILLER_22_116
*1992 FILLER_22_123
*1993 FILLER_22_130
*1994 FILLER_22_137
*1995 FILLER_22_144
*1996 FILLER_22_151
*1997 FILLER_22_158
*1998 FILLER_22_165
*1999 FILLER_22_172
*2000 FILLER_22_179
*2001 FILLER_22_18
*2002 FILLER_22_186
*2003 FILLER_22_193
*2004 FILLER_22_200
*2005 FILLER_22_207
*2006 FILLER_22_214
*2007 FILLER_22_221
*2008 FILLER_22_242
*2009 FILLER_22_249
*2010 FILLER_22_25
*2011 FILLER_22_256
*2012 FILLER_22_260
*2013 FILLER_22_288
*2014 FILLER_22_319
*2015 FILLER_22_32
*2016 FILLER_22_326
*2017 FILLER_22_333
*2018 FILLER_22_340
*2019 FILLER_22_347
*2020 FILLER_22_379
*2021 FILLER_22_385
*2022 FILLER_22_39
*2023 FILLER_22_4
*2024 FILLER_22_424
*2025 FILLER_22_431
*2026 FILLER_22_438
*2027 FILLER_22_442
*2028 FILLER_22_46
*2029 FILLER_22_461
*2030 FILLER_22_468
*2031 FILLER_22_484
*2032 FILLER_22_489
*2033 FILLER_22_496
*2034 FILLER_22_53
*2035 FILLER_22_60
*2036 FILLER_22_67
*2037 FILLER_22_74
*2038 FILLER_22_81
*2039 FILLER_22_88
*2040 FILLER_22_95
*2041 FILLER_23_101
*2042 FILLER_23_108
*2043 FILLER_23_113
*2044 FILLER_23_122
*2045 FILLER_23_129
*2046 FILLER_23_136
*2047 FILLER_23_143
*2048 FILLER_23_15
*2049 FILLER_23_150
*2050 FILLER_23_157
*2051 FILLER_23_164
*2052 FILLER_23_171
*2053 FILLER_23_178
*2054 FILLER_23_185
*2055 FILLER_23_192
*2056 FILLER_23_199
*2057 FILLER_23_211
*2058 FILLER_23_218
*2059 FILLER_23_22
*2060 FILLER_23_225
*2061 FILLER_23_248
*2062 FILLER_23_255
*2063 FILLER_23_262
*2064 FILLER_23_270
*2065 FILLER_23_277
*2066 FILLER_23_29
*2067 FILLER_23_311
*2068 FILLER_23_318
*2069 FILLER_23_322
*2070 FILLER_23_328
*2071 FILLER_23_335
*2072 FILLER_23_342
*2073 FILLER_23_346
*2074 FILLER_23_353
*2075 FILLER_23_36
*2076 FILLER_23_361
*2077 FILLER_23_368
*2078 FILLER_23_375
*2079 FILLER_23_408
*2080 FILLER_23_419
*2081 FILLER_23_43
*2082 FILLER_23_50
*2083 FILLER_23_62
*2084 FILLER_23_73
*2085 FILLER_23_8
*2086 FILLER_23_80
*2087 FILLER_23_87
*2088 FILLER_23_94
*2089 FILLER_24_0
*2090 FILLER_24_103
*2091 FILLER_24_131
*2092 FILLER_24_135
*2093 FILLER_24_14
*2094 FILLER_24_140
*2095 FILLER_24_142
*2096 FILLER_24_148
*2097 FILLER_24_155
*2098 FILLER_24_162
*2099 FILLER_24_169
*2100 FILLER_24_176
*2101 FILLER_24_183
*2102 FILLER_24_190
*2103 FILLER_24_197
*2104 FILLER_24_201
*2105 FILLER_24_21
*2106 FILLER_24_229
*2107 FILLER_24_236
*2108 FILLER_24_243
*2109 FILLER_24_250
*2110 FILLER_24_257
*2111 FILLER_24_264
*2112 FILLER_24_271
*2113 FILLER_24_278
*2114 FILLER_24_28
*2115 FILLER_24_285
*2116 FILLER_24_301
*2117 FILLER_24_305
*2118 FILLER_24_346
*2119 FILLER_24_35
*2120 FILLER_24_356
*2121 FILLER_24_363
*2122 FILLER_24_370
*2123 FILLER_24_377
*2124 FILLER_24_384
*2125 FILLER_24_388
*2126 FILLER_24_42
*2127 FILLER_24_420
*2128 FILLER_24_424
*2129 FILLER_24_429
*2130 FILLER_24_436
*2131 FILLER_24_443
*2132 FILLER_24_447
*2133 FILLER_24_453
*2134 FILLER_24_457
*2135 FILLER_24_487
*2136 FILLER_24_49
*2137 FILLER_24_7
*2138 FILLER_24_78
*2139 FILLER_24_85
*2140 FILLER_24_92
*2141 FILLER_24_99
*2142 FILLER_25_0
*2143 FILLER_25_102
*2144 FILLER_25_109
*2145 FILLER_25_113
*2146 FILLER_25_120
*2147 FILLER_25_127
*2148 FILLER_25_14
*2149 FILLER_25_158
*2150 FILLER_25_162
*2151 FILLER_25_191
*2152 FILLER_25_198
*2153 FILLER_25_205
*2154 FILLER_25_21
*2155 FILLER_25_212
*2156 FILLER_25_219
*2157 FILLER_25_226
*2158 FILLER_25_233
*2159 FILLER_25_240
*2160 FILLER_25_244
*2161 FILLER_25_250
*2162 FILLER_25_257
*2163 FILLER_25_263
*2164 FILLER_25_270
*2165 FILLER_25_277
*2166 FILLER_25_28
*2167 FILLER_25_284
*2168 FILLER_25_291
*2169 FILLER_25_300
*2170 FILLER_25_307
*2171 FILLER_25_314
*2172 FILLER_25_321
*2173 FILLER_25_328
*2174 FILLER_25_335
*2175 FILLER_25_342
*2176 FILLER_25_346
*2177 FILLER_25_35
*2178 FILLER_25_361
*2179 FILLER_25_372
*2180 FILLER_25_379
*2181 FILLER_25_386
*2182 FILLER_25_393
*2183 FILLER_25_397
*2184 FILLER_25_416
*2185 FILLER_25_42
*2186 FILLER_25_423
*2187 FILLER_25_430
*2188 FILLER_25_437
*2189 FILLER_25_444
*2190 FILLER_25_451
*2191 FILLER_25_458
*2192 FILLER_25_475
*2193 FILLER_25_49
*2194 FILLER_25_60
*2195 FILLER_25_67
*2196 FILLER_25_7
*2197 FILLER_25_74
*2198 FILLER_25_81
*2199 FILLER_25_88
*2200 FILLER_25_95
*2201 FILLER_26_0
*2202 FILLER_26_101
*2203 FILLER_26_108
*2204 FILLER_26_115
*2205 FILLER_26_122
*2206 FILLER_26_129
*2207 FILLER_26_136
*2208 FILLER_26_14
*2209 FILLER_26_143
*2210 FILLER_26_149
*2211 FILLER_26_156
*2212 FILLER_26_163
*2213 FILLER_26_167
*2214 FILLER_26_177
*2215 FILLER_26_184
*2216 FILLER_26_191
*2217 FILLER_26_198
*2218 FILLER_26_204
*2219 FILLER_26_21
*2220 FILLER_26_211
*2221 FILLER_26_218
*2222 FILLER_26_225
*2223 FILLER_26_233
*2224 FILLER_26_240
*2225 FILLER_26_242
*2226 FILLER_26_248
*2227 FILLER_26_28
*2228 FILLER_26_281
*2229 FILLER_26_288
*2230 FILLER_26_299
*2231 FILLER_26_306
*2232 FILLER_26_313
*2233 FILLER_26_320
*2234 FILLER_26_327
*2235 FILLER_26_334
*2236 FILLER_26_341
*2237 FILLER_26_345
*2238 FILLER_26_35
*2239 FILLER_26_353
*2240 FILLER_26_390
*2241 FILLER_26_42
*2242 FILLER_26_429
*2243 FILLER_26_436
*2244 FILLER_26_447
*2245 FILLER_26_454
*2246 FILLER_26_464
*2247 FILLER_26_471
*2248 FILLER_26_478
*2249 FILLER_26_489
*2250 FILLER_26_49
*2251 FILLER_26_496
*2252 FILLER_26_503
*2253 FILLER_26_505
*2254 FILLER_26_56
*2255 FILLER_26_63
*2256 FILLER_26_7
*2257 FILLER_26_70
*2258 FILLER_26_77
*2259 FILLER_26_84
*2260 FILLER_26_88
*2261 FILLER_26_94
*2262 FILLER_27_0
*2263 FILLER_27_112
*2264 FILLER_27_119
*2265 FILLER_27_124
*2266 FILLER_27_131
*2267 FILLER_27_138
*2268 FILLER_27_14
*2269 FILLER_27_145
*2270 FILLER_27_159
*2271 FILLER_27_166
*2272 FILLER_27_173
*2273 FILLER_27_180
*2274 FILLER_27_184
*2275 FILLER_27_21
*2276 FILLER_27_213
*2277 FILLER_27_220
*2278 FILLER_27_251
*2279 FILLER_27_259
*2280 FILLER_27_266
*2281 FILLER_27_273
*2282 FILLER_27_28
*2283 FILLER_27_280
*2284 FILLER_27_301
*2285 FILLER_27_330
*2286 FILLER_27_343
*2287 FILLER_27_35
*2288 FILLER_27_350
*2289 FILLER_27_354
*2290 FILLER_27_360
*2291 FILLER_27_367
*2292 FILLER_27_374
*2293 FILLER_27_381
*2294 FILLER_27_386
*2295 FILLER_27_393
*2296 FILLER_27_400
*2297 FILLER_27_411
*2298 FILLER_27_413
*2299 FILLER_27_418
*2300 FILLER_27_42
*2301 FILLER_27_425
*2302 FILLER_27_432
*2303 FILLER_27_465
*2304 FILLER_27_472
*2305 FILLER_27_474
*2306 FILLER_27_480
*2307 FILLER_27_487
*2308 FILLER_27_49
*2309 FILLER_27_494
*2310 FILLER_27_501
*2311 FILLER_27_56
*2312 FILLER_27_63
*2313 FILLER_27_7
*2314 FILLER_27_70
*2315 FILLER_27_74
*2316 FILLER_28_0
*2317 FILLER_28_105
*2318 FILLER_28_112
*2319 FILLER_28_114
*2320 FILLER_28_14
*2321 FILLER_28_142
*2322 FILLER_28_144
*2323 FILLER_28_177
*2324 FILLER_28_184
*2325 FILLER_28_197
*2326 FILLER_28_204
*2327 FILLER_28_21
*2328 FILLER_28_211
*2329 FILLER_28_218
*2330 FILLER_28_225
*2331 FILLER_28_233
*2332 FILLER_28_240
*2333 FILLER_28_247
*2334 FILLER_28_254
*2335 FILLER_28_261
*2336 FILLER_28_268
*2337 FILLER_28_275
*2338 FILLER_28_28
*2339 FILLER_28_282
*2340 FILLER_28_289
*2341 FILLER_28_296
*2342 FILLER_28_303
*2343 FILLER_28_307
*2344 FILLER_28_321
*2345 FILLER_28_328
*2346 FILLER_28_332
*2347 FILLER_28_338
*2348 FILLER_28_344
*2349 FILLER_28_348
*2350 FILLER_28_35
*2351 FILLER_28_363
*2352 FILLER_28_370
*2353 FILLER_28_377
*2354 FILLER_28_384
*2355 FILLER_28_391
*2356 FILLER_28_398
*2357 FILLER_28_405
*2358 FILLER_28_412
*2359 FILLER_28_419
*2360 FILLER_28_42
*2361 FILLER_28_426
*2362 FILLER_28_433
*2363 FILLER_28_440
*2364 FILLER_28_442
*2365 FILLER_28_447
*2366 FILLER_28_454
*2367 FILLER_28_461
*2368 FILLER_28_465
*2369 FILLER_28_476
*2370 FILLER_28_478
*2371 FILLER_28_49
*2372 FILLER_28_56
*2373 FILLER_28_63
*2374 FILLER_28_7
*2375 FILLER_28_70
*2376 FILLER_28_77
*2377 FILLER_28_84
*2378 FILLER_28_91
*2379 FILLER_28_98
*2380 FILLER_29_102
*2381 FILLER_29_109
*2382 FILLER_29_11
*2383 FILLER_29_116
*2384 FILLER_29_123
*2385 FILLER_29_130
*2386 FILLER_29_137
*2387 FILLER_29_144
*2388 FILLER_29_151
*2389 FILLER_29_158
*2390 FILLER_29_165
*2391 FILLER_29_172
*2392 FILLER_29_179
*2393 FILLER_29_18
*2394 FILLER_29_186
*2395 FILLER_29_193
*2396 FILLER_29_200
*2397 FILLER_29_207
*2398 FILLER_29_214
*2399 FILLER_29_218
*2400 FILLER_29_224
*2401 FILLER_29_231
*2402 FILLER_29_238
*2403 FILLER_29_245
*2404 FILLER_29_25
*2405 FILLER_29_251
*2406 FILLER_29_285
*2407 FILLER_29_302
*2408 FILLER_29_309
*2409 FILLER_29_316
*2410 FILLER_29_32
*2411 FILLER_29_323
*2412 FILLER_29_330
*2413 FILLER_29_337
*2414 FILLER_29_344
*2415 FILLER_29_351
*2416 FILLER_29_355
*2417 FILLER_29_360
*2418 FILLER_29_367
*2419 FILLER_29_374
*2420 FILLER_29_381
*2421 FILLER_29_387
*2422 FILLER_29_389
*2423 FILLER_29_39
*2424 FILLER_29_395
*2425 FILLER_29_4
*2426 FILLER_29_402
*2427 FILLER_29_404
*2428 FILLER_29_419
*2429 FILLER_29_426
*2430 FILLER_29_433
*2431 FILLER_29_440
*2432 FILLER_29_453
*2433 FILLER_29_46
*2434 FILLER_29_460
*2435 FILLER_29_467
*2436 FILLER_29_474
*2437 FILLER_29_481
*2438 FILLER_29_489
*2439 FILLER_29_496
*2440 FILLER_29_503
*2441 FILLER_29_505
*2442 FILLER_29_53
*2443 FILLER_29_60
*2444 FILLER_29_67
*2445 FILLER_29_74
*2446 FILLER_29_81
*2447 FILLER_29_88
*2448 FILLER_29_95
*2449 FILLER_2_0
*2450 FILLER_2_105
*2451 FILLER_2_112
*2452 FILLER_2_119
*2453 FILLER_2_126
*2454 FILLER_2_133
*2455 FILLER_2_14
*2456 FILLER_2_140
*2457 FILLER_2_147
*2458 FILLER_2_154
*2459 FILLER_2_161
*2460 FILLER_2_168
*2461 FILLER_2_175
*2462 FILLER_2_182
*2463 FILLER_2_189
*2464 FILLER_2_196
*2465 FILLER_2_203
*2466 FILLER_2_21
*2467 FILLER_2_210
*2468 FILLER_2_217
*2469 FILLER_2_224
*2470 FILLER_2_231
*2471 FILLER_2_238
*2472 FILLER_2_245
*2473 FILLER_2_252
*2474 FILLER_2_259
*2475 FILLER_2_266
*2476 FILLER_2_273
*2477 FILLER_2_28
*2478 FILLER_2_280
*2479 FILLER_2_287
*2480 FILLER_2_294
*2481 FILLER_2_315
*2482 FILLER_2_322
*2483 FILLER_2_329
*2484 FILLER_2_335
*2485 FILLER_2_342
*2486 FILLER_2_346
*2487 FILLER_2_35
*2488 FILLER_2_357
*2489 FILLER_2_363
*2490 FILLER_2_370
*2491 FILLER_2_377
*2492 FILLER_2_396
*2493 FILLER_2_403
*2494 FILLER_2_407
*2495 FILLER_2_42
*2496 FILLER_2_427
*2497 FILLER_2_434
*2498 FILLER_2_448
*2499 FILLER_2_450
*2500 FILLER_2_455
*2501 FILLER_2_462
*2502 FILLER_2_469
*2503 FILLER_2_476
*2504 FILLER_2_483
*2505 FILLER_2_49
*2506 FILLER_2_490
*2507 FILLER_2_497
*2508 FILLER_2_504
*2509 FILLER_2_56
*2510 FILLER_2_63
*2511 FILLER_2_7
*2512 FILLER_2_70
*2513 FILLER_2_77
*2514 FILLER_2_84
*2515 FILLER_2_91
*2516 FILLER_2_98
*2517 FILLER_30_0
*2518 FILLER_30_129
*2519 FILLER_30_136
*2520 FILLER_30_14
*2521 FILLER_30_157
*2522 FILLER_30_164
*2523 FILLER_30_171
*2524 FILLER_30_178
*2525 FILLER_30_183
*2526 FILLER_30_190
*2527 FILLER_30_197
*2528 FILLER_30_21
*2529 FILLER_30_233
*2530 FILLER_30_240
*2531 FILLER_30_247
*2532 FILLER_30_28
*2533 FILLER_30_281
*2534 FILLER_30_288
*2535 FILLER_30_292
*2536 FILLER_30_32
*2537 FILLER_30_324
*2538 FILLER_30_38
*2539 FILLER_30_407
*2540 FILLER_30_44
*2541 FILLER_30_459
*2542 FILLER_30_501
*2543 FILLER_30_51
*2544 FILLER_30_58
*2545 FILLER_30_65
*2546 FILLER_30_7
*2547 FILLER_30_72
*2548 FILLER_30_79
*2549 FILLER_30_86
*2550 FILLER_30_93
*2551 FILLER_31_105
*2552 FILLER_31_112
*2553 FILLER_31_116
*2554 FILLER_31_122
*2555 FILLER_31_129
*2556 FILLER_31_136
*2557 FILLER_31_16
*2558 FILLER_31_165
*2559 FILLER_31_169
*2560 FILLER_31_201
*2561 FILLER_31_208
*2562 FILLER_31_218
*2563 FILLER_31_224
*2564 FILLER_31_23
*2565 FILLER_31_231
*2566 FILLER_31_237
*2567 FILLER_31_244
*2568 FILLER_31_251
*2569 FILLER_31_258
*2570 FILLER_31_267
*2571 FILLER_31_27
*2572 FILLER_31_274
*2573 FILLER_31_281
*2574 FILLER_31_288
*2575 FILLER_31_295
*2576 FILLER_31_306
*2577 FILLER_31_313
*2578 FILLER_31_320
*2579 FILLER_31_327
*2580 FILLER_31_335
*2581 FILLER_31_342
*2582 FILLER_31_349
*2583 FILLER_31_356
*2584 FILLER_31_363
*2585 FILLER_31_370
*2586 FILLER_31_377
*2587 FILLER_31_388
*2588 FILLER_31_395
*2589 FILLER_31_399
*2590 FILLER_31_4
*2591 FILLER_31_429
*2592 FILLER_31_436
*2593 FILLER_31_55
*2594 FILLER_31_63
*2595 FILLER_31_70
*2596 FILLER_31_74
*2597 FILLER_31_82
*2598 FILLER_31_89
*2599 FILLER_32_0
*2600 FILLER_32_115
*2601 FILLER_32_122
*2602 FILLER_32_129
*2603 FILLER_32_136
*2604 FILLER_32_148
*2605 FILLER_32_155
*2606 FILLER_32_162
*2607 FILLER_32_169
*2608 FILLER_32_176
*2609 FILLER_32_182
*2610 FILLER_32_189
*2611 FILLER_32_196
*2612 FILLER_32_203
*2613 FILLER_32_210
*2614 FILLER_32_217
*2615 FILLER_32_224
*2616 FILLER_32_255
*2617 FILLER_32_281
*2618 FILLER_32_288
*2619 FILLER_32_295
*2620 FILLER_32_302
*2621 FILLER_32_309
*2622 FILLER_32_316
*2623 FILLER_32_32
*2624 FILLER_32_323
*2625 FILLER_32_330
*2626 FILLER_32_337
*2627 FILLER_32_344
*2628 FILLER_32_351
*2629 FILLER_32_358
*2630 FILLER_32_36
*2631 FILLER_32_364
*2632 FILLER_32_371
*2633 FILLER_32_378
*2634 FILLER_32_385
*2635 FILLER_32_392
*2636 FILLER_32_394
*2637 FILLER_32_420
*2638 FILLER_32_427
*2639 FILLER_32_434
*2640 FILLER_32_441
*2641 FILLER_32_458
*2642 FILLER_32_46
*2643 FILLER_32_465
*2644 FILLER_32_489
*2645 FILLER_32_496
*2646 FILLER_32_500
*2647 FILLER_32_88
*2648 FILLER_33_0
*2649 FILLER_33_102
*2650 FILLER_33_106
*2651 FILLER_33_114
*2652 FILLER_33_122
*2653 FILLER_33_13
*2654 FILLER_33_137
*2655 FILLER_33_154
*2656 FILLER_33_161
*2657 FILLER_33_165
*2658 FILLER_33_173
*2659 FILLER_33_185
*2660 FILLER_33_192
*2661 FILLER_33_199
*2662 FILLER_33_20
*2663 FILLER_33_207
*2664 FILLER_33_214
*2665 FILLER_33_221
*2666 FILLER_33_228
*2667 FILLER_33_235
*2668 FILLER_33_242
*2669 FILLER_33_249
*2670 FILLER_33_257
*2671 FILLER_33_264
*2672 FILLER_33_27
*2673 FILLER_33_271
*2674 FILLER_33_277
*2675 FILLER_33_283
*2676 FILLER_33_303
*2677 FILLER_33_310
*2678 FILLER_33_317
*2679 FILLER_33_324
*2680 FILLER_33_331
*2681 FILLER_33_338
*2682 FILLER_33_34
*2683 FILLER_33_345
*2684 FILLER_33_352
*2685 FILLER_33_356
*2686 FILLER_33_363
*2687 FILLER_33_370
*2688 FILLER_33_377
*2689 FILLER_33_379
*2690 FILLER_33_390
*2691 FILLER_33_396
*2692 FILLER_33_403
*2693 FILLER_33_41
*2694 FILLER_33_410
*2695 FILLER_33_416
*2696 FILLER_33_426
*2697 FILLER_33_446
*2698 FILLER_33_453
*2699 FILLER_33_460
*2700 FILLER_33_467
*2701 FILLER_33_474
*2702 FILLER_33_48
*2703 FILLER_33_480
*2704 FILLER_33_484
*2705 FILLER_33_489
*2706 FILLER_33_496
*2707 FILLER_33_500
*2708 FILLER_33_55
*2709 FILLER_33_62
*2710 FILLER_33_69
*2711 FILLER_33_7
*2712 FILLER_33_73
*2713 FILLER_33_77
*2714 FILLER_33_84
*2715 FILLER_33_91
*2716 FILLER_33_95
*2717 FILLER_34_104
*2718 FILLER_34_111
*2719 FILLER_34_118
*2720 FILLER_34_125
*2721 FILLER_34_132
*2722 FILLER_34_134
*2723 FILLER_34_166
*2724 FILLER_34_173
*2725 FILLER_34_180
*2726 FILLER_34_193
*2727 FILLER_34_21
*2728 FILLER_34_224
*2729 FILLER_34_228
*2730 FILLER_34_264
*2731 FILLER_34_266
*2732 FILLER_34_28
*2733 FILLER_34_281
*2734 FILLER_34_283
*2735 FILLER_34_290
*2736 FILLER_34_318
*2737 FILLER_34_325
*2738 FILLER_34_332
*2739 FILLER_34_339
*2740 FILLER_34_346
*2741 FILLER_34_35
*2742 FILLER_34_353
*2743 FILLER_34_4
*2744 FILLER_34_42
*2745 FILLER_34_441
*2746 FILLER_34_443
*2747 FILLER_34_449
*2748 FILLER_34_456
*2749 FILLER_34_463
*2750 FILLER_34_465
*2751 FILLER_34_476
*2752 FILLER_34_478
*2753 FILLER_34_48
*2754 FILLER_34_55
*2755 FILLER_34_62
*2756 FILLER_34_66
*2757 FILLER_34_73
*2758 FILLER_34_83
*2759 FILLER_34_90
*2760 FILLER_34_97
*2761 FILLER_35_0
*2762 FILLER_35_106
*2763 FILLER_35_125
*2764 FILLER_35_132
*2765 FILLER_35_139
*2766 FILLER_35_146
*2767 FILLER_35_159
*2768 FILLER_35_163
*2769 FILLER_35_171
*2770 FILLER_35_178
*2771 FILLER_35_188
*2772 FILLER_35_195
*2773 FILLER_35_202
*2774 FILLER_35_209
*2775 FILLER_35_216
*2776 FILLER_35_223
*2777 FILLER_35_230
*2778 FILLER_35_234
*2779 FILLER_35_239
*2780 FILLER_35_246
*2781 FILLER_35_253
*2782 FILLER_35_260
*2783 FILLER_35_275
*2784 FILLER_35_282
*2785 FILLER_35_289
*2786 FILLER_35_291
*2787 FILLER_35_296
*2788 FILLER_35_303
*2789 FILLER_35_310
*2790 FILLER_35_317
*2791 FILLER_35_325
*2792 FILLER_35_332
*2793 FILLER_35_339
*2794 FILLER_35_34
*2795 FILLER_35_346
*2796 FILLER_35_353
*2797 FILLER_35_364
*2798 FILLER_35_371
*2799 FILLER_35_373
*2800 FILLER_35_38
*2801 FILLER_35_383
*2802 FILLER_35_390
*2803 FILLER_35_397
*2804 FILLER_35_404
*2805 FILLER_35_411
*2806 FILLER_35_468
*2807 FILLER_35_475
*2808 FILLER_35_482
*2809 FILLER_35_489
*2810 FILLER_35_496
*2811 FILLER_35_500
*2812 FILLER_35_71
*2813 FILLER_35_78
*2814 FILLER_35_85
*2815 FILLER_35_87
*2816 FILLER_35_92
*2817 FILLER_35_99
*2818 FILLER_36_0
*2819 FILLER_36_11
*2820 FILLER_36_110
*2821 FILLER_36_127
*2822 FILLER_36_134
*2823 FILLER_36_138
*2824 FILLER_36_16
*2825 FILLER_36_185
*2826 FILLER_36_192
*2827 FILLER_36_210
*2828 FILLER_36_212
*2829 FILLER_36_217
*2830 FILLER_36_224
*2831 FILLER_36_23
*2832 FILLER_36_231
*2833 FILLER_36_238
*2834 FILLER_36_245
*2835 FILLER_36_252
*2836 FILLER_36_259
*2837 FILLER_36_261
*2838 FILLER_36_273
*2839 FILLER_36_280
*2840 FILLER_36_287
*2841 FILLER_36_294
*2842 FILLER_36_30
*2843 FILLER_36_301
*2844 FILLER_36_308
*2845 FILLER_36_315
*2846 FILLER_36_322
*2847 FILLER_36_329
*2848 FILLER_36_336
*2849 FILLER_36_343
*2850 FILLER_36_352
*2851 FILLER_36_359
*2852 FILLER_36_366
*2853 FILLER_36_37
*2854 FILLER_36_373
*2855 FILLER_36_377
*2856 FILLER_36_383
*2857 FILLER_36_388
*2858 FILLER_36_395
*2859 FILLER_36_402
*2860 FILLER_36_409
*2861 FILLER_36_416
*2862 FILLER_36_423
*2863 FILLER_36_430
*2864 FILLER_36_434
*2865 FILLER_36_441
*2866 FILLER_36_451
*2867 FILLER_36_458
*2868 FILLER_36_465
*2869 FILLER_36_467
*2870 FILLER_36_478
*2871 FILLER_36_489
*2872 FILLER_36_496
*2873 FILLER_36_500
*2874 FILLER_36_66
*2875 FILLER_36_7
*2876 FILLER_36_70
*2877 FILLER_36_78
*2878 FILLER_36_82
*2879 FILLER_37_0
*2880 FILLER_37_106
*2881 FILLER_37_113
*2882 FILLER_37_120
*2883 FILLER_37_127
*2884 FILLER_37_134
*2885 FILLER_37_14
*2886 FILLER_37_141
*2887 FILLER_37_148
*2888 FILLER_37_156
*2889 FILLER_37_163
*2890 FILLER_37_167
*2891 FILLER_37_175
*2892 FILLER_37_182
*2893 FILLER_37_189
*2894 FILLER_37_196
*2895 FILLER_37_198
*2896 FILLER_37_207
*2897 FILLER_37_21
*2898 FILLER_37_235
*2899 FILLER_37_241
*2900 FILLER_37_248
*2901 FILLER_37_255
*2902 FILLER_37_262
*2903 FILLER_37_269
*2904 FILLER_37_28
*2905 FILLER_37_298
*2906 FILLER_37_305
*2907 FILLER_37_312
*2908 FILLER_37_319
*2909 FILLER_37_326
*2910 FILLER_37_333
*2911 FILLER_37_337
*2912 FILLER_37_356
*2913 FILLER_37_363
*2914 FILLER_37_370
*2915 FILLER_37_374
*2916 FILLER_37_39
*2917 FILLER_37_394
*2918 FILLER_37_401
*2919 FILLER_37_405
*2920 FILLER_37_417
*2921 FILLER_37_422
*2922 FILLER_37_429
*2923 FILLER_37_436
*2924 FILLER_37_443
*2925 FILLER_37_445
*2926 FILLER_37_450
*2927 FILLER_37_457
*2928 FILLER_37_464
*2929 FILLER_37_471
*2930 FILLER_37_473
*2931 FILLER_37_48
*2932 FILLER_37_55
*2933 FILLER_37_62
*2934 FILLER_37_66
*2935 FILLER_37_7
*2936 FILLER_37_71
*2937 FILLER_37_78
*2938 FILLER_37_85
*2939 FILLER_37_92
*2940 FILLER_37_99
*2941 FILLER_38_102
*2942 FILLER_38_109
*2943 FILLER_38_124
*2944 FILLER_38_131
*2945 FILLER_38_138
*2946 FILLER_38_145
*2947 FILLER_38_152
*2948 FILLER_38_159
*2949 FILLER_38_16
*2950 FILLER_38_166
*2951 FILLER_38_168
*2952 FILLER_38_172
*2953 FILLER_38_179
*2954 FILLER_38_186
*2955 FILLER_38_193
*2956 FILLER_38_201
*2957 FILLER_38_208
*2958 FILLER_38_215
*2959 FILLER_38_222
*2960 FILLER_38_229
*2961 FILLER_38_23
*2962 FILLER_38_231
*2963 FILLER_38_259
*2964 FILLER_38_264
*2965 FILLER_38_266
*2966 FILLER_38_274
*2967 FILLER_38_280
*2968 FILLER_38_287
*2969 FILLER_38_294
*2970 FILLER_38_307
*2971 FILLER_38_314
*2972 FILLER_38_321
*2973 FILLER_38_328
*2974 FILLER_38_335
*2975 FILLER_38_339
*2976 FILLER_38_368
*2977 FILLER_38_375
*2978 FILLER_38_4
*2979 FILLER_38_406
*2980 FILLER_38_440
*2981 FILLER_38_444
*2982 FILLER_38_455
*2983 FILLER_38_462
*2984 FILLER_38_464
*2985 FILLER_38_490
*2986 FILLER_38_497
*2987 FILLER_38_504
*2988 FILLER_38_57
*2989 FILLER_38_64
*2990 FILLER_38_71
*2991 FILLER_38_88
*2992 FILLER_38_95
*2993 FILLER_39_0
*2994 FILLER_39_103
*2995 FILLER_39_110
*2996 FILLER_39_130
*2997 FILLER_39_136
*2998 FILLER_39_142
*2999 FILLER_39_149
*3000 FILLER_39_156
*3001 FILLER_39_160
*3002 FILLER_39_177
*3003 FILLER_39_208
*3004 FILLER_39_215
*3005 FILLER_39_222
*3006 FILLER_39_229
*3007 FILLER_39_236
*3008 FILLER_39_243
*3009 FILLER_39_250
*3010 FILLER_39_256
*3011 FILLER_39_263
*3012 FILLER_39_265
*3013 FILLER_39_273
*3014 FILLER_39_280
*3015 FILLER_39_287
*3016 FILLER_39_294
*3017 FILLER_39_298
*3018 FILLER_39_310
*3019 FILLER_39_32
*3020 FILLER_39_339
*3021 FILLER_39_346
*3022 FILLER_39_351
*3023 FILLER_39_358
*3024 FILLER_39_365
*3025 FILLER_39_372
*3026 FILLER_39_379
*3027 FILLER_39_386
*3028 FILLER_39_39
*3029 FILLER_39_390
*3030 FILLER_39_396
*3031 FILLER_39_398
*3032 FILLER_39_408
*3033 FILLER_39_419
*3034 FILLER_39_426
*3035 FILLER_39_433
*3036 FILLER_39_440
*3037 FILLER_39_444
*3038 FILLER_39_46
*3039 FILLER_39_490
*3040 FILLER_39_497
*3041 FILLER_39_504
*3042 FILLER_39_53
*3043 FILLER_39_60
*3044 FILLER_39_64
*3045 FILLER_39_80
*3046 FILLER_39_87
*3047 FILLER_39_95
*3048 FILLER_3_0
*3049 FILLER_3_105
*3050 FILLER_3_112
*3051 FILLER_3_119
*3052 FILLER_3_126
*3053 FILLER_3_133
*3054 FILLER_3_14
*3055 FILLER_3_140
*3056 FILLER_3_147
*3057 FILLER_3_154
*3058 FILLER_3_161
*3059 FILLER_3_168
*3060 FILLER_3_175
*3061 FILLER_3_182
*3062 FILLER_3_189
*3063 FILLER_3_196
*3064 FILLER_3_203
*3065 FILLER_3_21
*3066 FILLER_3_210
*3067 FILLER_3_217
*3068 FILLER_3_224
*3069 FILLER_3_231
*3070 FILLER_3_238
*3071 FILLER_3_245
*3072 FILLER_3_252
*3073 FILLER_3_259
*3074 FILLER_3_266
*3075 FILLER_3_273
*3076 FILLER_3_28
*3077 FILLER_3_280
*3078 FILLER_3_287
*3079 FILLER_3_294
*3080 FILLER_3_301
*3081 FILLER_3_308
*3082 FILLER_3_315
*3083 FILLER_3_322
*3084 FILLER_3_35
*3085 FILLER_3_353
*3086 FILLER_3_360
*3087 FILLER_3_367
*3088 FILLER_3_374
*3089 FILLER_3_381
*3090 FILLER_3_389
*3091 FILLER_3_396
*3092 FILLER_3_403
*3093 FILLER_3_410
*3094 FILLER_3_417
*3095 FILLER_3_42
*3096 FILLER_3_424
*3097 FILLER_3_431
*3098 FILLER_3_438
*3099 FILLER_3_445
*3100 FILLER_3_447
*3101 FILLER_3_452
*3102 FILLER_3_459
*3103 FILLER_3_466
*3104 FILLER_3_473
*3105 FILLER_3_480
*3106 FILLER_3_487
*3107 FILLER_3_49
*3108 FILLER_3_494
*3109 FILLER_3_501
*3110 FILLER_3_505
*3111 FILLER_3_56
*3112 FILLER_3_63
*3113 FILLER_3_7
*3114 FILLER_3_70
*3115 FILLER_3_77
*3116 FILLER_3_84
*3117 FILLER_3_91
*3118 FILLER_3_98
*3119 FILLER_40_112
*3120 FILLER_40_122
*3121 FILLER_40_126
*3122 FILLER_40_13
*3123 FILLER_40_132
*3124 FILLER_40_160
*3125 FILLER_40_167
*3126 FILLER_40_177
*3127 FILLER_40_184
*3128 FILLER_40_190
*3129 FILLER_40_197
*3130 FILLER_40_20
*3131 FILLER_40_204
*3132 FILLER_40_211
*3133 FILLER_40_218
*3134 FILLER_40_225
*3135 FILLER_40_232
*3136 FILLER_40_234
*3137 FILLER_40_239
*3138 FILLER_40_246
*3139 FILLER_40_253
*3140 FILLER_40_260
*3141 FILLER_40_27
*3142 FILLER_40_271
*3143 FILLER_40_278
*3144 FILLER_40_285
*3145 FILLER_40_292
*3146 FILLER_40_299
*3147 FILLER_40_313
*3148 FILLER_40_321
*3149 FILLER_40_328
*3150 FILLER_40_330
*3151 FILLER_40_335
*3152 FILLER_40_34
*3153 FILLER_40_342
*3154 FILLER_40_349
*3155 FILLER_40_356
*3156 FILLER_40_363
*3157 FILLER_40_370
*3158 FILLER_40_377
*3159 FILLER_40_384
*3160 FILLER_40_393
*3161 FILLER_40_4
*3162 FILLER_40_400
*3163 FILLER_40_407
*3164 FILLER_40_41
*3165 FILLER_40_418
*3166 FILLER_40_425
*3167 FILLER_40_43
*3168 FILLER_40_432
*3169 FILLER_40_439
*3170 FILLER_40_446
*3171 FILLER_40_454
*3172 FILLER_40_461
*3173 FILLER_40_468
*3174 FILLER_40_48
*3175 FILLER_40_55
*3176 FILLER_40_57
*3177 FILLER_40_66
*3178 FILLER_40_68
*3179 FILLER_40_73
*3180 FILLER_40_80
*3181 FILLER_40_87
*3182 FILLER_41_0
*3183 FILLER_41_104
*3184 FILLER_41_111
*3185 FILLER_41_118
*3186 FILLER_41_125
*3187 FILLER_41_132
*3188 FILLER_41_139
*3189 FILLER_41_14
*3190 FILLER_41_146
*3191 FILLER_41_153
*3192 FILLER_41_160
*3193 FILLER_41_167
*3194 FILLER_41_179
*3195 FILLER_41_186
*3196 FILLER_41_193
*3197 FILLER_41_200
*3198 FILLER_41_207
*3199 FILLER_41_21
*3200 FILLER_41_212
*3201 FILLER_41_219
*3202 FILLER_41_226
*3203 FILLER_41_257
*3204 FILLER_41_261
*3205 FILLER_41_28
*3206 FILLER_41_289
*3207 FILLER_41_293
*3208 FILLER_41_324
*3209 FILLER_41_331
*3210 FILLER_41_333
*3211 FILLER_41_343
*3212 FILLER_41_35
*3213 FILLER_41_350
*3214 FILLER_41_362
*3215 FILLER_41_364
*3216 FILLER_41_370
*3217 FILLER_41_377
*3218 FILLER_41_379
*3219 FILLER_41_417
*3220 FILLER_41_424
*3221 FILLER_41_435
*3222 FILLER_41_442
*3223 FILLER_41_449
*3224 FILLER_41_456
*3225 FILLER_41_463
*3226 FILLER_41_470
*3227 FILLER_41_477
*3228 FILLER_41_484
*3229 FILLER_41_491
*3230 FILLER_41_66
*3231 FILLER_41_7
*3232 FILLER_41_70
*3233 FILLER_41_81
*3234 FILLER_41_90
*3235 FILLER_41_97
*3236 FILLER_42_0
*3237 FILLER_42_101
*3238 FILLER_42_105
*3239 FILLER_42_110
*3240 FILLER_42_117
*3241 FILLER_42_130
*3242 FILLER_42_137
*3243 FILLER_42_144
*3244 FILLER_42_151
*3245 FILLER_42_158
*3246 FILLER_42_165
*3247 FILLER_42_172
*3248 FILLER_42_179
*3249 FILLER_42_186
*3250 FILLER_42_193
*3251 FILLER_42_235
*3252 FILLER_42_242
*3253 FILLER_42_249
*3254 FILLER_42_256
*3255 FILLER_42_263
*3256 FILLER_42_270
*3257 FILLER_42_277
*3258 FILLER_42_287
*3259 FILLER_42_294
*3260 FILLER_42_300
*3261 FILLER_42_307
*3262 FILLER_42_314
*3263 FILLER_42_321
*3264 FILLER_42_328
*3265 FILLER_42_36
*3266 FILLER_42_404
*3267 FILLER_42_411
*3268 FILLER_42_418
*3269 FILLER_42_420
*3270 FILLER_42_43
*3271 FILLER_42_457
*3272 FILLER_42_479
*3273 FILLER_42_483
*3274 FILLER_42_489
*3275 FILLER_42_496
*3276 FILLER_42_50
*3277 FILLER_42_57
*3278 FILLER_42_64
*3279 FILLER_42_73
*3280 FILLER_42_80
*3281 FILLER_42_87
*3282 FILLER_42_94
*3283 FILLER_43_128
*3284 FILLER_43_135
*3285 FILLER_43_139
*3286 FILLER_43_147
*3287 FILLER_43_154
*3288 FILLER_43_156
*3289 FILLER_43_163
*3290 FILLER_43_170
*3291 FILLER_43_174
*3292 FILLER_43_187
*3293 FILLER_43_19
*3294 FILLER_43_194
*3295 FILLER_43_201
*3296 FILLER_43_208
*3297 FILLER_43_215
*3298 FILLER_43_225
*3299 FILLER_43_232
*3300 FILLER_43_238
*3301 FILLER_43_240
*3302 FILLER_43_245
*3303 FILLER_43_252
*3304 FILLER_43_259
*3305 FILLER_43_26
*3306 FILLER_43_263
*3307 FILLER_43_270
*3308 FILLER_43_275
*3309 FILLER_43_316
*3310 FILLER_43_323
*3311 FILLER_43_33
*3312 FILLER_43_330
*3313 FILLER_43_338
*3314 FILLER_43_345
*3315 FILLER_43_352
*3316 FILLER_43_356
*3317 FILLER_43_365
*3318 FILLER_43_372
*3319 FILLER_43_380
*3320 FILLER_43_382
*3321 FILLER_43_395
*3322 FILLER_43_4
*3323 FILLER_43_40
*3324 FILLER_43_402
*3325 FILLER_43_408
*3326 FILLER_43_412
*3327 FILLER_43_418
*3328 FILLER_43_420
*3329 FILLER_43_426
*3330 FILLER_43_433
*3331 FILLER_43_440
*3332 FILLER_43_462
*3333 FILLER_43_464
*3334 FILLER_43_47
*3335 FILLER_43_474
*3336 FILLER_43_478
*3337 FILLER_43_76
*3338 FILLER_43_8
*3339 FILLER_43_83
*3340 FILLER_43_88
*3341 FILLER_43_95
*3342 FILLER_43_99
*3343 FILLER_44_0
*3344 FILLER_44_104
*3345 FILLER_44_111
*3346 FILLER_44_117
*3347 FILLER_44_124
*3348 FILLER_44_131
*3349 FILLER_44_138
*3350 FILLER_44_14
*3351 FILLER_44_145
*3352 FILLER_44_171
*3353 FILLER_44_175
*3354 FILLER_44_196
*3355 FILLER_44_200
*3356 FILLER_44_205
*3357 FILLER_44_21
*3358 FILLER_44_212
*3359 FILLER_44_219
*3360 FILLER_44_226
*3361 FILLER_44_263
*3362 FILLER_44_265
*3363 FILLER_44_28
*3364 FILLER_44_293
*3365 FILLER_44_295
*3366 FILLER_44_332
*3367 FILLER_44_339
*3368 FILLER_44_346
*3369 FILLER_44_35
*3370 FILLER_44_353
*3371 FILLER_44_360
*3372 FILLER_44_367
*3373 FILLER_44_37
*3374 FILLER_44_374
*3375 FILLER_44_380
*3376 FILLER_44_384
*3377 FILLER_44_391
*3378 FILLER_44_433
*3379 FILLER_44_440
*3380 FILLER_44_442
*3381 FILLER_44_475
*3382 FILLER_44_482
*3383 FILLER_44_489
*3384 FILLER_44_496
*3385 FILLER_44_503
*3386 FILLER_44_505
*3387 FILLER_44_65
*3388 FILLER_44_69
*3389 FILLER_44_7
*3390 FILLER_44_97
*3391 FILLER_45_100
*3392 FILLER_45_107
*3393 FILLER_45_132
*3394 FILLER_45_139
*3395 FILLER_45_146
*3396 FILLER_45_153
*3397 FILLER_45_160
*3398 FILLER_45_166
*3399 FILLER_45_17
*3400 FILLER_45_170
*3401 FILLER_45_175
*3402 FILLER_45_182
*3403 FILLER_45_189
*3404 FILLER_45_228
*3405 FILLER_45_235
*3406 FILLER_45_24
*3407 FILLER_45_242
*3408 FILLER_45_249
*3409 FILLER_45_256
*3410 FILLER_45_263
*3411 FILLER_45_270
*3412 FILLER_45_277
*3413 FILLER_45_284
*3414 FILLER_45_291
*3415 FILLER_45_298
*3416 FILLER_45_308
*3417 FILLER_45_31
*3418 FILLER_45_314
*3419 FILLER_45_321
*3420 FILLER_45_328
*3421 FILLER_45_335
*3422 FILLER_45_347
*3423 FILLER_45_354
*3424 FILLER_45_361
*3425 FILLER_45_368
*3426 FILLER_45_38
*3427 FILLER_45_388
*3428 FILLER_45_4
*3429 FILLER_45_402
*3430 FILLER_45_42
*3431 FILLER_45_445
*3432 FILLER_45_452
*3433 FILLER_45_457
*3434 FILLER_45_464
*3435 FILLER_45_47
*3436 FILLER_45_471
*3437 FILLER_45_473
*3438 FILLER_45_484
*3439 FILLER_45_489
*3440 FILLER_45_496
*3441 FILLER_45_54
*3442 FILLER_45_61
*3443 FILLER_45_68
*3444 FILLER_45_79
*3445 FILLER_45_86
*3446 FILLER_45_93
*3447 FILLER_46_0
*3448 FILLER_46_112
*3449 FILLER_46_119
*3450 FILLER_46_126
*3451 FILLER_46_133
*3452 FILLER_46_140
*3453 FILLER_46_148
*3454 FILLER_46_155
*3455 FILLER_46_162
*3456 FILLER_46_169
*3457 FILLER_46_176
*3458 FILLER_46_183
*3459 FILLER_46_190
*3460 FILLER_46_197
*3461 FILLER_46_204
*3462 FILLER_46_211
*3463 FILLER_46_218
*3464 FILLER_46_229
*3465 FILLER_46_234
*3466 FILLER_46_240
*3467 FILLER_46_247
*3468 FILLER_46_254
*3469 FILLER_46_266
*3470 FILLER_46_268
*3471 FILLER_46_294
*3472 FILLER_46_296
*3473 FILLER_46_301
*3474 FILLER_46_308
*3475 FILLER_46_32
*3476 FILLER_46_355
*3477 FILLER_46_370
*3478 FILLER_46_39
*3479 FILLER_46_399
*3480 FILLER_46_411
*3481 FILLER_46_417
*3482 FILLER_46_424
*3483 FILLER_46_431
*3484 FILLER_46_433
*3485 FILLER_46_444
*3486 FILLER_46_45
*3487 FILLER_46_451
*3488 FILLER_46_458
*3489 FILLER_46_465
*3490 FILLER_46_472
*3491 FILLER_46_51
*3492 FILLER_46_73
*3493 FILLER_46_80
*3494 FILLER_46_87
*3495 FILLER_46_91
*3496 FILLER_47_0
*3497 FILLER_47_103
*3498 FILLER_47_110
*3499 FILLER_47_117
*3500 FILLER_47_124
*3501 FILLER_47_131
*3502 FILLER_47_138
*3503 FILLER_47_145
*3504 FILLER_47_15
*3505 FILLER_47_163
*3506 FILLER_47_170
*3507 FILLER_47_177
*3508 FILLER_47_195
*3509 FILLER_47_201
*3510 FILLER_47_208
*3511 FILLER_47_215
*3512 FILLER_47_22
*3513 FILLER_47_222
*3514 FILLER_47_251
*3515 FILLER_47_258
*3516 FILLER_47_268
*3517 FILLER_47_275
*3518 FILLER_47_29
*3519 FILLER_47_309
*3520 FILLER_47_316
*3521 FILLER_47_323
*3522 FILLER_47_339
*3523 FILLER_47_346
*3524 FILLER_47_353
*3525 FILLER_47_36
*3526 FILLER_47_360
*3527 FILLER_47_367
*3528 FILLER_47_374
*3529 FILLER_47_376
*3530 FILLER_47_381
*3531 FILLER_47_388
*3532 FILLER_47_406
*3533 FILLER_47_433
*3534 FILLER_47_440
*3535 FILLER_47_447
*3536 FILLER_47_451
*3537 FILLER_47_456
*3538 FILLER_47_46
*3539 FILLER_47_463
*3540 FILLER_47_470
*3541 FILLER_47_477
*3542 FILLER_47_484
*3543 FILLER_47_491
*3544 FILLER_47_498
*3545 FILLER_47_52
*3546 FILLER_47_59
*3547 FILLER_47_7
*3548 FILLER_47_71
*3549 FILLER_47_77
*3550 FILLER_47_84
*3551 FILLER_47_91
*3552 FILLER_47_95
*3553 FILLER_48_0
*3554 FILLER_48_105
*3555 FILLER_48_107
*3556 FILLER_48_120
*3557 FILLER_48_127
*3558 FILLER_48_133
*3559 FILLER_48_14
*3560 FILLER_48_140
*3561 FILLER_48_147
*3562 FILLER_48_154
*3563 FILLER_48_161
*3564 FILLER_48_165
*3565 FILLER_48_179
*3566 FILLER_48_186
*3567 FILLER_48_193
*3568 FILLER_48_200
*3569 FILLER_48_207
*3570 FILLER_48_21
*3571 FILLER_48_214
*3572 FILLER_48_221
*3573 FILLER_48_228
*3574 FILLER_48_235
*3575 FILLER_48_240
*3576 FILLER_48_247
*3577 FILLER_48_254
*3578 FILLER_48_28
*3579 FILLER_48_285
*3580 FILLER_48_291
*3581 FILLER_48_302
*3582 FILLER_48_309
*3583 FILLER_48_316
*3584 FILLER_48_323
*3585 FILLER_48_330
*3586 FILLER_48_337
*3587 FILLER_48_344
*3588 FILLER_48_35
*3589 FILLER_48_351
*3590 FILLER_48_358
*3591 FILLER_48_365
*3592 FILLER_48_372
*3593 FILLER_48_379
*3594 FILLER_48_386
*3595 FILLER_48_393
*3596 FILLER_48_400
*3597 FILLER_48_407
*3598 FILLER_48_42
*3599 FILLER_48_435
*3600 FILLER_48_442
*3601 FILLER_48_446
*3602 FILLER_48_474
*3603 FILLER_48_481
*3604 FILLER_48_488
*3605 FILLER_48_49
*3606 FILLER_48_495
*3607 FILLER_48_56
*3608 FILLER_48_7
*3609 FILLER_49_105
*3610 FILLER_49_112
*3611 FILLER_49_119
*3612 FILLER_49_127
*3613 FILLER_49_13
*3614 FILLER_49_134
*3615 FILLER_49_141
*3616 FILLER_49_148
*3617 FILLER_49_155
*3618 FILLER_49_162
*3619 FILLER_49_168
*3620 FILLER_49_175
*3621 FILLER_49_182
*3622 FILLER_49_189
*3623 FILLER_49_196
*3624 FILLER_49_20
*3625 FILLER_49_203
*3626 FILLER_49_210
*3627 FILLER_49_218
*3628 FILLER_49_225
*3629 FILLER_49_232
*3630 FILLER_49_236
*3631 FILLER_49_241
*3632 FILLER_49_248
*3633 FILLER_49_255
*3634 FILLER_49_26
*3635 FILLER_49_262
*3636 FILLER_49_267
*3637 FILLER_49_274
*3638 FILLER_49_281
*3639 FILLER_49_288
*3640 FILLER_49_295
*3641 FILLER_49_302
*3642 FILLER_49_309
*3643 FILLER_49_316
*3644 FILLER_49_323
*3645 FILLER_49_33
*3646 FILLER_49_330
*3647 FILLER_49_334
*3648 FILLER_49_338
*3649 FILLER_49_345
*3650 FILLER_49_352
*3651 FILLER_49_359
*3652 FILLER_49_366
*3653 FILLER_49_373
*3654 FILLER_49_380
*3655 FILLER_49_387
*3656 FILLER_49_394
*3657 FILLER_49_4
*3658 FILLER_49_40
*3659 FILLER_49_401
*3660 FILLER_49_408
*3661 FILLER_49_415
*3662 FILLER_49_422
*3663 FILLER_49_429
*3664 FILLER_49_436
*3665 FILLER_49_443
*3666 FILLER_49_450
*3667 FILLER_49_457
*3668 FILLER_49_464
*3669 FILLER_49_471
*3670 FILLER_49_473
*3671 FILLER_49_49
*3672 FILLER_49_56
*3673 FILLER_49_63
*3674 FILLER_49_70
*3675 FILLER_49_77
*3676 FILLER_49_84
*3677 FILLER_49_91
*3678 FILLER_49_98
*3679 FILLER_4_0
*3680 FILLER_4_105
*3681 FILLER_4_112
*3682 FILLER_4_119
*3683 FILLER_4_126
*3684 FILLER_4_133
*3685 FILLER_4_14
*3686 FILLER_4_140
*3687 FILLER_4_147
*3688 FILLER_4_154
*3689 FILLER_4_161
*3690 FILLER_4_168
*3691 FILLER_4_175
*3692 FILLER_4_182
*3693 FILLER_4_189
*3694 FILLER_4_196
*3695 FILLER_4_203
*3696 FILLER_4_21
*3697 FILLER_4_210
*3698 FILLER_4_217
*3699 FILLER_4_224
*3700 FILLER_4_231
*3701 FILLER_4_238
*3702 FILLER_4_245
*3703 FILLER_4_252
*3704 FILLER_4_256
*3705 FILLER_4_263
*3706 FILLER_4_270
*3707 FILLER_4_28
*3708 FILLER_4_282
*3709 FILLER_4_289
*3710 FILLER_4_296
*3711 FILLER_4_298
*3712 FILLER_4_304
*3713 FILLER_4_320
*3714 FILLER_4_326
*3715 FILLER_4_333
*3716 FILLER_4_35
*3717 FILLER_4_362
*3718 FILLER_4_371
*3719 FILLER_4_377
*3720 FILLER_4_384
*3721 FILLER_4_391
*3722 FILLER_4_398
*3723 FILLER_4_405
*3724 FILLER_4_412
*3725 FILLER_4_419
*3726 FILLER_4_42
*3727 FILLER_4_426
*3728 FILLER_4_438
*3729 FILLER_4_442
*3730 FILLER_4_452
*3731 FILLER_4_459
*3732 FILLER_4_461
*3733 FILLER_4_466
*3734 FILLER_4_470
*3735 FILLER_4_480
*3736 FILLER_4_487
*3737 FILLER_4_49
*3738 FILLER_4_494
*3739 FILLER_4_501
*3740 FILLER_4_505
*3741 FILLER_4_56
*3742 FILLER_4_63
*3743 FILLER_4_7
*3744 FILLER_4_70
*3745 FILLER_4_77
*3746 FILLER_4_84
*3747 FILLER_4_91
*3748 FILLER_4_98
*3749 FILLER_50_0
*3750 FILLER_50_105
*3751 FILLER_50_112
*3752 FILLER_50_119
*3753 FILLER_50_126
*3754 FILLER_50_133
*3755 FILLER_50_137
*3756 FILLER_50_152
*3757 FILLER_50_159
*3758 FILLER_50_166
*3759 FILLER_50_182
*3760 FILLER_50_184
*3761 FILLER_50_258
*3762 FILLER_50_274
*3763 FILLER_50_278
*3764 FILLER_50_293
*3765 FILLER_50_295
*3766 FILLER_50_301
*3767 FILLER_50_310
*3768 FILLER_50_317
*3769 FILLER_50_32
*3770 FILLER_50_324
*3771 FILLER_50_331
*3772 FILLER_50_338
*3773 FILLER_50_345
*3774 FILLER_50_352
*3775 FILLER_50_359
*3776 FILLER_50_366
*3777 FILLER_50_373
*3778 FILLER_50_380
*3779 FILLER_50_387
*3780 FILLER_50_39
*3781 FILLER_50_394
*3782 FILLER_50_401
*3783 FILLER_50_408
*3784 FILLER_50_415
*3785 FILLER_50_422
*3786 FILLER_50_429
*3787 FILLER_50_436
*3788 FILLER_50_443
*3789 FILLER_50_450
*3790 FILLER_50_457
*3791 FILLER_50_464
*3792 FILLER_50_471
*3793 FILLER_50_478
*3794 FILLER_50_489
*3795 FILLER_50_496
*3796 FILLER_50_503
*3797 FILLER_50_505
*3798 FILLER_50_52
*3799 FILLER_50_59
*3800 FILLER_50_66
*3801 FILLER_50_73
*3802 FILLER_50_80
*3803 FILLER_50_87
*3804 FILLER_50_91
*3805 FILLER_50_98
*3806 FILLER_51_0
*3807 FILLER_51_102
*3808 FILLER_51_15
*3809 FILLER_51_160
*3810 FILLER_51_167
*3811 FILLER_51_174
*3812 FILLER_51_181
*3813 FILLER_51_188
*3814 FILLER_51_195
*3815 FILLER_51_202
*3816 FILLER_51_209
*3817 FILLER_51_216
*3818 FILLER_51_22
*3819 FILLER_51_223
*3820 FILLER_51_230
*3821 FILLER_51_237
*3822 FILLER_51_244
*3823 FILLER_51_251
*3824 FILLER_51_258
*3825 FILLER_51_265
*3826 FILLER_51_29
*3827 FILLER_51_324
*3828 FILLER_51_331
*3829 FILLER_51_338
*3830 FILLER_51_345
*3831 FILLER_51_352
*3832 FILLER_51_359
*3833 FILLER_51_36
*3834 FILLER_51_366
*3835 FILLER_51_373
*3836 FILLER_51_380
*3837 FILLER_51_387
*3838 FILLER_51_394
*3839 FILLER_51_401
*3840 FILLER_51_408
*3841 FILLER_51_415
*3842 FILLER_51_422
*3843 FILLER_51_429
*3844 FILLER_51_43
*3845 FILLER_51_436
*3846 FILLER_51_443
*3847 FILLER_51_450
*3848 FILLER_51_457
*3849 FILLER_51_464
*3850 FILLER_51_471
*3851 FILLER_51_478
*3852 FILLER_51_485
*3853 FILLER_51_492
*3854 FILLER_51_499
*3855 FILLER_51_7
*3856 FILLER_51_71
*3857 FILLER_51_80
*3858 FILLER_51_87
*3859 FILLER_51_98
*3860 FILLER_52_0
*3861 FILLER_52_106
*3862 FILLER_52_11
*3863 FILLER_52_110
*3864 FILLER_52_139
*3865 FILLER_52_146
*3866 FILLER_52_153
*3867 FILLER_52_160
*3868 FILLER_52_168
*3869 FILLER_52_17
*3870 FILLER_52_178
*3871 FILLER_52_185
*3872 FILLER_52_189
*3873 FILLER_52_195
*3874 FILLER_52_205
*3875 FILLER_52_212
*3876 FILLER_52_219
*3877 FILLER_52_226
*3878 FILLER_52_233
*3879 FILLER_52_24
*3880 FILLER_52_240
*3881 FILLER_52_247
*3882 FILLER_52_254
*3883 FILLER_52_261
*3884 FILLER_52_268
*3885 FILLER_52_276
*3886 FILLER_52_293
*3887 FILLER_52_301
*3888 FILLER_52_306
*3889 FILLER_52_31
*3890 FILLER_52_313
*3891 FILLER_52_320
*3892 FILLER_52_327
*3893 FILLER_52_334
*3894 FILLER_52_341
*3895 FILLER_52_348
*3896 FILLER_52_355
*3897 FILLER_52_362
*3898 FILLER_52_369
*3899 FILLER_52_376
*3900 FILLER_52_38
*3901 FILLER_52_383
*3902 FILLER_52_390
*3903 FILLER_52_397
*3904 FILLER_52_404
*3905 FILLER_52_411
*3906 FILLER_52_418
*3907 FILLER_52_42
*3908 FILLER_52_425
*3909 FILLER_52_432
*3910 FILLER_52_439
*3911 FILLER_52_446
*3912 FILLER_52_453
*3913 FILLER_52_460
*3914 FILLER_52_467
*3915 FILLER_52_474
*3916 FILLER_52_481
*3917 FILLER_52_488
*3918 FILLER_52_495
*3919 FILLER_52_502
*3920 FILLER_52_7
*3921 FILLER_52_99
*3922 FILLER_53_0
*3923 FILLER_53_126
*3924 FILLER_53_133
*3925 FILLER_53_140
*3926 FILLER_53_147
*3927 FILLER_53_154
*3928 FILLER_53_158
*3929 FILLER_53_174
*3930 FILLER_53_181
*3931 FILLER_53_185
*3932 FILLER_53_208
*3933 FILLER_53_215
*3934 FILLER_53_222
*3935 FILLER_53_260
*3936 FILLER_53_267
*3937 FILLER_53_274
*3938 FILLER_53_276
*3939 FILLER_53_282
*3940 FILLER_53_289
*3941 FILLER_53_296
*3942 FILLER_53_303
*3943 FILLER_53_310
*3944 FILLER_53_314
*3945 FILLER_53_340
*3946 FILLER_53_347
*3947 FILLER_53_35
*3948 FILLER_53_354
*3949 FILLER_53_361
*3950 FILLER_53_368
*3951 FILLER_53_375
*3952 FILLER_53_382
*3953 FILLER_53_389
*3954 FILLER_53_396
*3955 FILLER_53_403
*3956 FILLER_53_410
*3957 FILLER_53_417
*3958 FILLER_53_42
*3959 FILLER_53_424
*3960 FILLER_53_431
*3961 FILLER_53_438
*3962 FILLER_53_445
*3963 FILLER_53_452
*3964 FILLER_53_459
*3965 FILLER_53_466
*3966 FILLER_53_473
*3967 FILLER_53_480
*3968 FILLER_53_487
*3969 FILLER_53_49
*3970 FILLER_53_494
*3971 FILLER_53_501
*3972 FILLER_53_505
*3973 FILLER_53_51
*3974 FILLER_53_55
*3975 FILLER_53_62
*3976 FILLER_53_69
*3977 FILLER_53_7
*3978 FILLER_53_76
*3979 FILLER_53_81
*3980 FILLER_53_88
*3981 FILLER_53_95
*3982 FILLER_53_99
*3983 FILLER_54_121
*3984 FILLER_54_128
*3985 FILLER_54_132
*3986 FILLER_54_139
*3987 FILLER_54_146
*3988 FILLER_54_153
*3989 FILLER_54_160
*3990 FILLER_54_167
*3991 FILLER_54_174
*3992 FILLER_54_181
*3993 FILLER_54_188
*3994 FILLER_54_195
*3995 FILLER_54_202
*3996 FILLER_54_206
*3997 FILLER_54_22
*3998 FILLER_54_239
*3999 FILLER_54_246
*4000 FILLER_54_250
*4001 FILLER_54_279
*4002 FILLER_54_283
*4003 FILLER_54_288
*4004 FILLER_54_29
*4005 FILLER_54_294
*4006 FILLER_54_296
*4007 FILLER_54_302
*4008 FILLER_54_309
*4009 FILLER_54_316
*4010 FILLER_54_323
*4011 FILLER_54_330
*4012 FILLER_54_337
*4013 FILLER_54_344
*4014 FILLER_54_351
*4015 FILLER_54_358
*4016 FILLER_54_36
*4017 FILLER_54_365
*4018 FILLER_54_372
*4019 FILLER_54_379
*4020 FILLER_54_386
*4021 FILLER_54_393
*4022 FILLER_54_4
*4023 FILLER_54_400
*4024 FILLER_54_407
*4025 FILLER_54_414
*4026 FILLER_54_421
*4027 FILLER_54_428
*4028 FILLER_54_43
*4029 FILLER_54_435
*4030 FILLER_54_442
*4031 FILLER_54_449
*4032 FILLER_54_456
*4033 FILLER_54_463
*4034 FILLER_54_470
*4035 FILLER_54_477
*4036 FILLER_54_484
*4037 FILLER_54_491
*4038 FILLER_54_498
*4039 FILLER_54_50
*4040 FILLER_54_505
*4041 FILLER_54_57
*4042 FILLER_54_64
*4043 FILLER_54_71
*4044 FILLER_54_75
*4045 FILLER_54_81
*4046 FILLER_54_88
*4047 FILLER_55_0
*4048 FILLER_55_106
*4049 FILLER_55_113
*4050 FILLER_55_120
*4051 FILLER_55_14
*4052 FILLER_55_157
*4053 FILLER_55_16
*4054 FILLER_55_163
*4055 FILLER_55_170
*4056 FILLER_55_177
*4057 FILLER_55_184
*4058 FILLER_55_191
*4059 FILLER_55_198
*4060 FILLER_55_205
*4061 FILLER_55_21
*4062 FILLER_55_212
*4063 FILLER_55_218
*4064 FILLER_55_225
*4065 FILLER_55_232
*4066 FILLER_55_239
*4067 FILLER_55_243
*4068 FILLER_55_273
*4069 FILLER_55_28
*4070 FILLER_55_280
*4071 FILLER_55_284
*4072 FILLER_55_312
*4073 FILLER_55_319
*4074 FILLER_55_326
*4075 FILLER_55_333
*4076 FILLER_55_340
*4077 FILLER_55_347
*4078 FILLER_55_35
*4079 FILLER_55_354
*4080 FILLER_55_361
*4081 FILLER_55_368
*4082 FILLER_55_375
*4083 FILLER_55_382
*4084 FILLER_55_389
*4085 FILLER_55_396
*4086 FILLER_55_403
*4087 FILLER_55_410
*4088 FILLER_55_417
*4089 FILLER_55_42
*4090 FILLER_55_424
*4091 FILLER_55_431
*4092 FILLER_55_438
*4093 FILLER_55_445
*4094 FILLER_55_452
*4095 FILLER_55_459
*4096 FILLER_55_466
*4097 FILLER_55_473
*4098 FILLER_55_480
*4099 FILLER_55_487
*4100 FILLER_55_49
*4101 FILLER_55_494
*4102 FILLER_55_501
*4103 FILLER_55_505
*4104 FILLER_55_56
*4105 FILLER_55_63
*4106 FILLER_55_7
*4107 FILLER_55_73
*4108 FILLER_55_81
*4109 FILLER_55_88
*4110 FILLER_55_99
*4111 FILLER_56_0
*4112 FILLER_56_100
*4113 FILLER_56_116
*4114 FILLER_56_123
*4115 FILLER_56_130
*4116 FILLER_56_136
*4117 FILLER_56_14
*4118 FILLER_56_145
*4119 FILLER_56_149
*4120 FILLER_56_163
*4121 FILLER_56_165
*4122 FILLER_56_186
*4123 FILLER_56_193
*4124 FILLER_56_200
*4125 FILLER_56_21
*4126 FILLER_56_210
*4127 FILLER_56_217
*4128 FILLER_56_224
*4129 FILLER_56_231
*4130 FILLER_56_237
*4131 FILLER_56_244
*4132 FILLER_56_251
*4133 FILLER_56_253
*4134 FILLER_56_28
*4135 FILLER_56_284
*4136 FILLER_56_291
*4137 FILLER_56_298
*4138 FILLER_56_305
*4139 FILLER_56_312
*4140 FILLER_56_319
*4141 FILLER_56_326
*4142 FILLER_56_333
*4143 FILLER_56_340
*4144 FILLER_56_347
*4145 FILLER_56_35
*4146 FILLER_56_354
*4147 FILLER_56_361
*4148 FILLER_56_368
*4149 FILLER_56_375
*4150 FILLER_56_382
*4151 FILLER_56_389
*4152 FILLER_56_396
*4153 FILLER_56_403
*4154 FILLER_56_410
*4155 FILLER_56_417
*4156 FILLER_56_42
*4157 FILLER_56_424
*4158 FILLER_56_431
*4159 FILLER_56_438
*4160 FILLER_56_445
*4161 FILLER_56_452
*4162 FILLER_56_459
*4163 FILLER_56_466
*4164 FILLER_56_473
*4165 FILLER_56_480
*4166 FILLER_56_487
*4167 FILLER_56_49
*4168 FILLER_56_494
*4169 FILLER_56_501
*4170 FILLER_56_505
*4171 FILLER_56_56
*4172 FILLER_56_58
*4173 FILLER_56_7
*4174 FILLER_56_86
*4175 FILLER_56_93
*4176 FILLER_57_0
*4177 FILLER_57_102
*4178 FILLER_57_112
*4179 FILLER_57_119
*4180 FILLER_57_126
*4181 FILLER_57_133
*4182 FILLER_57_14
*4183 FILLER_57_140
*4184 FILLER_57_147
*4185 FILLER_57_154
*4186 FILLER_57_161
*4187 FILLER_57_168
*4188 FILLER_57_175
*4189 FILLER_57_179
*4190 FILLER_57_21
*4191 FILLER_57_217
*4192 FILLER_57_224
*4193 FILLER_57_231
*4194 FILLER_57_249
*4195 FILLER_57_256
*4196 FILLER_57_258
*4197 FILLER_57_262
*4198 FILLER_57_266
*4199 FILLER_57_272
*4200 FILLER_57_28
*4201 FILLER_57_281
*4202 FILLER_57_288
*4203 FILLER_57_295
*4204 FILLER_57_302
*4205 FILLER_57_309
*4206 FILLER_57_316
*4207 FILLER_57_323
*4208 FILLER_57_330
*4209 FILLER_57_337
*4210 FILLER_57_344
*4211 FILLER_57_35
*4212 FILLER_57_351
*4213 FILLER_57_358
*4214 FILLER_57_365
*4215 FILLER_57_372
*4216 FILLER_57_379
*4217 FILLER_57_386
*4218 FILLER_57_393
*4219 FILLER_57_400
*4220 FILLER_57_407
*4221 FILLER_57_414
*4222 FILLER_57_42
*4223 FILLER_57_421
*4224 FILLER_57_428
*4225 FILLER_57_435
*4226 FILLER_57_442
*4227 FILLER_57_449
*4228 FILLER_57_456
*4229 FILLER_57_463
*4230 FILLER_57_470
*4231 FILLER_57_477
*4232 FILLER_57_484
*4233 FILLER_57_49
*4234 FILLER_57_491
*4235 FILLER_57_498
*4236 FILLER_57_505
*4237 FILLER_57_56
*4238 FILLER_57_63
*4239 FILLER_57_68
*4240 FILLER_57_7
*4241 FILLER_57_75
*4242 FILLER_57_82
*4243 FILLER_57_91
*4244 FILLER_57_98
*4245 FILLER_58_0
*4246 FILLER_58_102
*4247 FILLER_58_130
*4248 FILLER_58_137
*4249 FILLER_58_14
*4250 FILLER_58_144
*4251 FILLER_58_152
*4252 FILLER_58_159
*4253 FILLER_58_166
*4254 FILLER_58_173
*4255 FILLER_58_180
*4256 FILLER_58_184
*4257 FILLER_58_190
*4258 FILLER_58_197
*4259 FILLER_58_204
*4260 FILLER_58_21
*4261 FILLER_58_262
*4262 FILLER_58_266
*4263 FILLER_58_28
*4264 FILLER_58_294
*4265 FILLER_58_301
*4266 FILLER_58_308
*4267 FILLER_58_315
*4268 FILLER_58_322
*4269 FILLER_58_329
*4270 FILLER_58_336
*4271 FILLER_58_343
*4272 FILLER_58_35
*4273 FILLER_58_350
*4274 FILLER_58_357
*4275 FILLER_58_364
*4276 FILLER_58_371
*4277 FILLER_58_378
*4278 FILLER_58_385
*4279 FILLER_58_392
*4280 FILLER_58_399
*4281 FILLER_58_406
*4282 FILLER_58_413
*4283 FILLER_58_42
*4284 FILLER_58_420
*4285 FILLER_58_427
*4286 FILLER_58_434
*4287 FILLER_58_441
*4288 FILLER_58_448
*4289 FILLER_58_455
*4290 FILLER_58_462
*4291 FILLER_58_469
*4292 FILLER_58_476
*4293 FILLER_58_483
*4294 FILLER_58_49
*4295 FILLER_58_490
*4296 FILLER_58_497
*4297 FILLER_58_504
*4298 FILLER_58_56
*4299 FILLER_58_63
*4300 FILLER_58_7
*4301 FILLER_58_70
*4302 FILLER_58_77
*4303 FILLER_58_88
*4304 FILLER_58_95
*4305 FILLER_59_102
*4306 FILLER_59_106
*4307 FILLER_59_11
*4308 FILLER_59_112
*4309 FILLER_59_119
*4310 FILLER_59_126
*4311 FILLER_59_133
*4312 FILLER_59_140
*4313 FILLER_59_142
*4314 FILLER_59_170
*4315 FILLER_59_177
*4316 FILLER_59_18
*4317 FILLER_59_184
*4318 FILLER_59_191
*4319 FILLER_59_198
*4320 FILLER_59_205
*4321 FILLER_59_212
*4322 FILLER_59_219
*4323 FILLER_59_226
*4324 FILLER_59_233
*4325 FILLER_59_240
*4326 FILLER_59_25
*4327 FILLER_59_258
*4328 FILLER_59_265
*4329 FILLER_59_272
*4330 FILLER_59_277
*4331 FILLER_59_284
*4332 FILLER_59_291
*4333 FILLER_59_298
*4334 FILLER_59_305
*4335 FILLER_59_312
*4336 FILLER_59_319
*4337 FILLER_59_32
*4338 FILLER_59_326
*4339 FILLER_59_333
*4340 FILLER_59_340
*4341 FILLER_59_347
*4342 FILLER_59_354
*4343 FILLER_59_361
*4344 FILLER_59_368
*4345 FILLER_59_375
*4346 FILLER_59_382
*4347 FILLER_59_389
*4348 FILLER_59_39
*4349 FILLER_59_396
*4350 FILLER_59_4
*4351 FILLER_59_403
*4352 FILLER_59_410
*4353 FILLER_59_417
*4354 FILLER_59_424
*4355 FILLER_59_431
*4356 FILLER_59_438
*4357 FILLER_59_445
*4358 FILLER_59_452
*4359 FILLER_59_459
*4360 FILLER_59_46
*4361 FILLER_59_466
*4362 FILLER_59_473
*4363 FILLER_59_480
*4364 FILLER_59_487
*4365 FILLER_59_494
*4366 FILLER_59_501
*4367 FILLER_59_505
*4368 FILLER_59_53
*4369 FILLER_59_60
*4370 FILLER_59_67
*4371 FILLER_59_95
*4372 FILLER_5_0
*4373 FILLER_5_105
*4374 FILLER_5_112
*4375 FILLER_5_119
*4376 FILLER_5_126
*4377 FILLER_5_133
*4378 FILLER_5_14
*4379 FILLER_5_140
*4380 FILLER_5_147
*4381 FILLER_5_154
*4382 FILLER_5_161
*4383 FILLER_5_168
*4384 FILLER_5_175
*4385 FILLER_5_182
*4386 FILLER_5_189
*4387 FILLER_5_196
*4388 FILLER_5_203
*4389 FILLER_5_21
*4390 FILLER_5_210
*4391 FILLER_5_217
*4392 FILLER_5_224
*4393 FILLER_5_231
*4394 FILLER_5_238
*4395 FILLER_5_245
*4396 FILLER_5_252
*4397 FILLER_5_254
*4398 FILLER_5_28
*4399 FILLER_5_282
*4400 FILLER_5_289
*4401 FILLER_5_323
*4402 FILLER_5_330
*4403 FILLER_5_339
*4404 FILLER_5_35
*4405 FILLER_5_354
*4406 FILLER_5_395
*4407 FILLER_5_399
*4408 FILLER_5_404
*4409 FILLER_5_410
*4410 FILLER_5_42
*4411 FILLER_5_450
*4412 FILLER_5_456
*4413 FILLER_5_484
*4414 FILLER_5_49
*4415 FILLER_5_491
*4416 FILLER_5_498
*4417 FILLER_5_505
*4418 FILLER_5_56
*4419 FILLER_5_63
*4420 FILLER_5_7
*4421 FILLER_5_70
*4422 FILLER_5_77
*4423 FILLER_5_84
*4424 FILLER_5_91
*4425 FILLER_5_98
*4426 FILLER_60_0
*4427 FILLER_60_105
*4428 FILLER_60_112
*4429 FILLER_60_119
*4430 FILLER_60_126
*4431 FILLER_60_137
*4432 FILLER_60_14
*4433 FILLER_60_146
*4434 FILLER_60_153
*4435 FILLER_60_160
*4436 FILLER_60_167
*4437 FILLER_60_173
*4438 FILLER_60_180
*4439 FILLER_60_184
*4440 FILLER_60_191
*4441 FILLER_60_198
*4442 FILLER_60_202
*4443 FILLER_60_209
*4444 FILLER_60_21
*4445 FILLER_60_216
*4446 FILLER_60_223
*4447 FILLER_60_230
*4448 FILLER_60_237
*4449 FILLER_60_244
*4450 FILLER_60_251
*4451 FILLER_60_258
*4452 FILLER_60_265
*4453 FILLER_60_272
*4454 FILLER_60_279
*4455 FILLER_60_28
*4456 FILLER_60_286
*4457 FILLER_60_293
*4458 FILLER_60_300
*4459 FILLER_60_307
*4460 FILLER_60_314
*4461 FILLER_60_321
*4462 FILLER_60_328
*4463 FILLER_60_335
*4464 FILLER_60_342
*4465 FILLER_60_349
*4466 FILLER_60_35
*4467 FILLER_60_356
*4468 FILLER_60_363
*4469 FILLER_60_370
*4470 FILLER_60_377
*4471 FILLER_60_384
*4472 FILLER_60_391
*4473 FILLER_60_398
*4474 FILLER_60_405
*4475 FILLER_60_412
*4476 FILLER_60_419
*4477 FILLER_60_42
*4478 FILLER_60_426
*4479 FILLER_60_433
*4480 FILLER_60_440
*4481 FILLER_60_447
*4482 FILLER_60_454
*4483 FILLER_60_461
*4484 FILLER_60_468
*4485 FILLER_60_475
*4486 FILLER_60_482
*4487 FILLER_60_489
*4488 FILLER_60_49
*4489 FILLER_60_496
*4490 FILLER_60_503
*4491 FILLER_60_505
*4492 FILLER_60_56
*4493 FILLER_60_63
*4494 FILLER_60_7
*4495 FILLER_60_70
*4496 FILLER_60_72
*4497 FILLER_60_77
*4498 FILLER_60_84
*4499 FILLER_60_91
*4500 FILLER_60_98
*4501 FILLER_61_0
*4502 FILLER_61_102
*4503 FILLER_61_112
*4504 FILLER_61_119
*4505 FILLER_61_121
*4506 FILLER_61_14
*4507 FILLER_61_149
*4508 FILLER_61_156
*4509 FILLER_61_163
*4510 FILLER_61_170
*4511 FILLER_61_203
*4512 FILLER_61_207
*4513 FILLER_61_21
*4514 FILLER_61_222
*4515 FILLER_61_229
*4516 FILLER_61_236
*4517 FILLER_61_241
*4518 FILLER_61_243
*4519 FILLER_61_249
*4520 FILLER_61_256
*4521 FILLER_61_264
*4522 FILLER_61_274
*4523 FILLER_61_28
*4524 FILLER_61_281
*4525 FILLER_61_288
*4526 FILLER_61_295
*4527 FILLER_61_302
*4528 FILLER_61_309
*4529 FILLER_61_316
*4530 FILLER_61_323
*4531 FILLER_61_330
*4532 FILLER_61_337
*4533 FILLER_61_344
*4534 FILLER_61_35
*4535 FILLER_61_351
*4536 FILLER_61_358
*4537 FILLER_61_365
*4538 FILLER_61_372
*4539 FILLER_61_379
*4540 FILLER_61_386
*4541 FILLER_61_393
*4542 FILLER_61_400
*4543 FILLER_61_407
*4544 FILLER_61_414
*4545 FILLER_61_42
*4546 FILLER_61_421
*4547 FILLER_61_428
*4548 FILLER_61_435
*4549 FILLER_61_442
*4550 FILLER_61_449
*4551 FILLER_61_456
*4552 FILLER_61_463
*4553 FILLER_61_470
*4554 FILLER_61_477
*4555 FILLER_61_484
*4556 FILLER_61_49
*4557 FILLER_61_491
*4558 FILLER_61_498
*4559 FILLER_61_505
*4560 FILLER_61_56
*4561 FILLER_61_63
*4562 FILLER_61_7
*4563 FILLER_61_70
*4564 FILLER_61_77
*4565 FILLER_61_84
*4566 FILLER_61_91
*4567 FILLER_61_98
*4568 FILLER_62_0
*4569 FILLER_62_123
*4570 FILLER_62_139
*4571 FILLER_62_14
*4572 FILLER_62_146
*4573 FILLER_62_153
*4574 FILLER_62_160
*4575 FILLER_62_167
*4576 FILLER_62_174
*4577 FILLER_62_185
*4578 FILLER_62_192
*4579 FILLER_62_199
*4580 FILLER_62_203
*4581 FILLER_62_21
*4582 FILLER_62_259
*4583 FILLER_62_28
*4584 FILLER_62_288
*4585 FILLER_62_295
*4586 FILLER_62_302
*4587 FILLER_62_309
*4588 FILLER_62_316
*4589 FILLER_62_323
*4590 FILLER_62_330
*4591 FILLER_62_337
*4592 FILLER_62_344
*4593 FILLER_62_35
*4594 FILLER_62_351
*4595 FILLER_62_358
*4596 FILLER_62_365
*4597 FILLER_62_372
*4598 FILLER_62_379
*4599 FILLER_62_386
*4600 FILLER_62_393
*4601 FILLER_62_400
*4602 FILLER_62_407
*4603 FILLER_62_414
*4604 FILLER_62_42
*4605 FILLER_62_421
*4606 FILLER_62_428
*4607 FILLER_62_435
*4608 FILLER_62_442
*4609 FILLER_62_449
*4610 FILLER_62_456
*4611 FILLER_62_463
*4612 FILLER_62_470
*4613 FILLER_62_477
*4614 FILLER_62_484
*4615 FILLER_62_49
*4616 FILLER_62_491
*4617 FILLER_62_498
*4618 FILLER_62_505
*4619 FILLER_62_56
*4620 FILLER_62_63
*4621 FILLER_62_7
*4622 FILLER_62_70
*4623 FILLER_62_77
*4624 FILLER_62_84
*4625 FILLER_62_91
*4626 FILLER_62_95
*4627 FILLER_63_0
*4628 FILLER_63_100
*4629 FILLER_63_117
*4630 FILLER_63_124
*4631 FILLER_63_131
*4632 FILLER_63_138
*4633 FILLER_63_14
*4634 FILLER_63_145
*4635 FILLER_63_152
*4636 FILLER_63_159
*4637 FILLER_63_166
*4638 FILLER_63_173
*4639 FILLER_63_180
*4640 FILLER_63_187
*4641 FILLER_63_194
*4642 FILLER_63_201
*4643 FILLER_63_209
*4644 FILLER_63_21
*4645 FILLER_63_216
*4646 FILLER_63_223
*4647 FILLER_63_230
*4648 FILLER_63_237
*4649 FILLER_63_243
*4650 FILLER_63_257
*4651 FILLER_63_28
*4652 FILLER_63_284
*4653 FILLER_63_289
*4654 FILLER_63_293
*4655 FILLER_63_299
*4656 FILLER_63_306
*4657 FILLER_63_311
*4658 FILLER_63_318
*4659 FILLER_63_320
*4660 FILLER_63_325
*4661 FILLER_63_332
*4662 FILLER_63_336
*4663 FILLER_63_341
*4664 FILLER_63_348
*4665 FILLER_63_35
*4666 FILLER_63_355
*4667 FILLER_63_362
*4668 FILLER_63_369
*4669 FILLER_63_376
*4670 FILLER_63_383
*4671 FILLER_63_390
*4672 FILLER_63_397
*4673 FILLER_63_404
*4674 FILLER_63_411
*4675 FILLER_63_418
*4676 FILLER_63_42
*4677 FILLER_63_425
*4678 FILLER_63_432
*4679 FILLER_63_439
*4680 FILLER_63_446
*4681 FILLER_63_453
*4682 FILLER_63_460
*4683 FILLER_63_467
*4684 FILLER_63_474
*4685 FILLER_63_481
*4686 FILLER_63_488
*4687 FILLER_63_49
*4688 FILLER_63_495
*4689 FILLER_63_502
*4690 FILLER_63_56
*4691 FILLER_63_61
*4692 FILLER_63_68
*4693 FILLER_63_7
*4694 FILLER_63_75
*4695 FILLER_63_82
*4696 FILLER_63_86
*4697 FILLER_63_91
*4698 FILLER_63_98
*4699 FILLER_6_0
*4700 FILLER_6_105
*4701 FILLER_6_112
*4702 FILLER_6_119
*4703 FILLER_6_126
*4704 FILLER_6_133
*4705 FILLER_6_14
*4706 FILLER_6_140
*4707 FILLER_6_147
*4708 FILLER_6_154
*4709 FILLER_6_161
*4710 FILLER_6_168
*4711 FILLER_6_175
*4712 FILLER_6_182
*4713 FILLER_6_189
*4714 FILLER_6_196
*4715 FILLER_6_203
*4716 FILLER_6_21
*4717 FILLER_6_210
*4718 FILLER_6_217
*4719 FILLER_6_224
*4720 FILLER_6_231
*4721 FILLER_6_238
*4722 FILLER_6_245
*4723 FILLER_6_252
*4724 FILLER_6_259
*4725 FILLER_6_264
*4726 FILLER_6_271
*4727 FILLER_6_278
*4728 FILLER_6_28
*4729 FILLER_6_285
*4730 FILLER_6_292
*4731 FILLER_6_299
*4732 FILLER_6_308
*4733 FILLER_6_315
*4734 FILLER_6_322
*4735 FILLER_6_329
*4736 FILLER_6_336
*4737 FILLER_6_35
*4738 FILLER_6_351
*4739 FILLER_6_357
*4740 FILLER_6_364
*4741 FILLER_6_371
*4742 FILLER_6_378
*4743 FILLER_6_380
*4744 FILLER_6_384
*4745 FILLER_6_388
*4746 FILLER_6_42
*4747 FILLER_6_435
*4748 FILLER_6_442
*4749 FILLER_6_449
*4750 FILLER_6_453
*4751 FILLER_6_464
*4752 FILLER_6_471
*4753 FILLER_6_473
*4754 FILLER_6_49
*4755 FILLER_6_56
*4756 FILLER_6_63
*4757 FILLER_6_7
*4758 FILLER_6_70
*4759 FILLER_6_77
*4760 FILLER_6_84
*4761 FILLER_6_91
*4762 FILLER_6_98
*4763 FILLER_7_0
*4764 FILLER_7_105
*4765 FILLER_7_112
*4766 FILLER_7_119
*4767 FILLER_7_126
*4768 FILLER_7_133
*4769 FILLER_7_14
*4770 FILLER_7_140
*4771 FILLER_7_147
*4772 FILLER_7_154
*4773 FILLER_7_161
*4774 FILLER_7_168
*4775 FILLER_7_175
*4776 FILLER_7_182
*4777 FILLER_7_189
*4778 FILLER_7_196
*4779 FILLER_7_203
*4780 FILLER_7_21
*4781 FILLER_7_210
*4782 FILLER_7_217
*4783 FILLER_7_224
*4784 FILLER_7_231
*4785 FILLER_7_238
*4786 FILLER_7_245
*4787 FILLER_7_252
*4788 FILLER_7_259
*4789 FILLER_7_266
*4790 FILLER_7_273
*4791 FILLER_7_28
*4792 FILLER_7_280
*4793 FILLER_7_287
*4794 FILLER_7_294
*4795 FILLER_7_301
*4796 FILLER_7_308
*4797 FILLER_7_315
*4798 FILLER_7_322
*4799 FILLER_7_329
*4800 FILLER_7_336
*4801 FILLER_7_35
*4802 FILLER_7_376
*4803 FILLER_7_380
*4804 FILLER_7_406
*4805 FILLER_7_413
*4806 FILLER_7_42
*4807 FILLER_7_420
*4808 FILLER_7_431
*4809 FILLER_7_438
*4810 FILLER_7_445
*4811 FILLER_7_452
*4812 FILLER_7_459
*4813 FILLER_7_466
*4814 FILLER_7_473
*4815 FILLER_7_477
*4816 FILLER_7_49
*4817 FILLER_7_492
*4818 FILLER_7_499
*4819 FILLER_7_56
*4820 FILLER_7_63
*4821 FILLER_7_7
*4822 FILLER_7_70
*4823 FILLER_7_77
*4824 FILLER_7_84
*4825 FILLER_7_91
*4826 FILLER_7_98
*4827 FILLER_8_0
*4828 FILLER_8_105
*4829 FILLER_8_112
*4830 FILLER_8_119
*4831 FILLER_8_126
*4832 FILLER_8_133
*4833 FILLER_8_14
*4834 FILLER_8_140
*4835 FILLER_8_147
*4836 FILLER_8_154
*4837 FILLER_8_161
*4838 FILLER_8_168
*4839 FILLER_8_175
*4840 FILLER_8_182
*4841 FILLER_8_189
*4842 FILLER_8_196
*4843 FILLER_8_203
*4844 FILLER_8_21
*4845 FILLER_8_210
*4846 FILLER_8_217
*4847 FILLER_8_224
*4848 FILLER_8_231
*4849 FILLER_8_238
*4850 FILLER_8_245
*4851 FILLER_8_252
*4852 FILLER_8_259
*4853 FILLER_8_266
*4854 FILLER_8_273
*4855 FILLER_8_28
*4856 FILLER_8_280
*4857 FILLER_8_287
*4858 FILLER_8_294
*4859 FILLER_8_301
*4860 FILLER_8_334
*4861 FILLER_8_341
*4862 FILLER_8_349
*4863 FILLER_8_35
*4864 FILLER_8_356
*4865 FILLER_8_363
*4866 FILLER_8_370
*4867 FILLER_8_377
*4868 FILLER_8_388
*4869 FILLER_8_392
*4870 FILLER_8_398
*4871 FILLER_8_405
*4872 FILLER_8_412
*4873 FILLER_8_419
*4874 FILLER_8_42
*4875 FILLER_8_426
*4876 FILLER_8_433
*4877 FILLER_8_440
*4878 FILLER_8_447
*4879 FILLER_8_476
*4880 FILLER_8_483
*4881 FILLER_8_49
*4882 FILLER_8_490
*4883 FILLER_8_497
*4884 FILLER_8_501
*4885 FILLER_8_56
*4886 FILLER_8_63
*4887 FILLER_8_7
*4888 FILLER_8_70
*4889 FILLER_8_77
*4890 FILLER_8_84
*4891 FILLER_8_91
*4892 FILLER_8_98
*4893 FILLER_9_0
*4894 FILLER_9_105
*4895 FILLER_9_112
*4896 FILLER_9_119
*4897 FILLER_9_126
*4898 FILLER_9_133
*4899 FILLER_9_14
*4900 FILLER_9_140
*4901 FILLER_9_147
*4902 FILLER_9_154
*4903 FILLER_9_161
*4904 FILLER_9_168
*4905 FILLER_9_175
*4906 FILLER_9_182
*4907 FILLER_9_189
*4908 FILLER_9_196
*4909 FILLER_9_203
*4910 FILLER_9_21
*4911 FILLER_9_210
*4912 FILLER_9_217
*4913 FILLER_9_224
*4914 FILLER_9_231
*4915 FILLER_9_238
*4916 FILLER_9_245
*4917 FILLER_9_252
*4918 FILLER_9_259
*4919 FILLER_9_266
*4920 FILLER_9_273
*4921 FILLER_9_28
*4922 FILLER_9_280
*4923 FILLER_9_287
*4924 FILLER_9_294
*4925 FILLER_9_301
*4926 FILLER_9_305
*4927 FILLER_9_311
*4928 FILLER_9_318
*4929 FILLER_9_322
*4930 FILLER_9_328
*4931 FILLER_9_332
*4932 FILLER_9_337
*4933 FILLER_9_344
*4934 FILLER_9_35
*4935 FILLER_9_364
*4936 FILLER_9_368
*4937 FILLER_9_401
*4938 FILLER_9_408
*4939 FILLER_9_412
*4940 FILLER_9_418
*4941 FILLER_9_42
*4942 FILLER_9_425
*4943 FILLER_9_432
*4944 FILLER_9_436
*4945 FILLER_9_460
*4946 FILLER_9_462
*4947 FILLER_9_472
*4948 FILLER_9_479
*4949 FILLER_9_486
*4950 FILLER_9_49
*4951 FILLER_9_493
*4952 FILLER_9_500
*4953 FILLER_9_504
*4954 FILLER_9_56
*4955 FILLER_9_63
*4956 FILLER_9_7
*4957 FILLER_9_70
*4958 FILLER_9_77
*4959 FILLER_9_84
*4960 FILLER_9_91
*4961 FILLER_9_98
*4962 _0699_
*4963 _0700_
*4964 _0701_
*4965 _0702_
*4966 _0703_
*4967 _0704_
*4968 _0705_
*4969 _0706_
*4970 _0707_
*4971 _0708_
*4972 _0709_
*4973 _0710_
*4974 _0711_
*4975 _0712_
*4976 _0713_
*4977 _0714_
*4978 _0715_
*4979 _0716_
*4980 _0717_
*4981 _0718_
*4982 _0719_
*4983 _0720_
*4984 _0721_
*4985 _0722_
*4986 _0723_
*4987 _0724_
*4988 _0725_
*4989 _0726_
*4990 _0727_
*4991 _0728_
*4992 _0729_
*4993 _0730_
*4994 _0731_
*4995 _0732_
*4996 _0733_
*4997 _0734_
*4998 _0735_
*4999 _0736_
*5000 _0737_
*5001 _0738_
*5002 _0739_
*5003 _0740_
*5004 _0741_
*5005 _0742_
*5006 _0743_
*5007 _0744_
*5008 _0745_
*5009 _0746_
*5010 _0747_
*5011 _0748_
*5012 _0749_
*5013 _0750_
*5014 _0751_
*5015 _0752_
*5016 _0753_
*5017 _0754_
*5018 _0755_
*5019 _0756_
*5020 _0757_
*5021 _0758_
*5022 _0759_
*5023 _0760_
*5024 _0761_
*5025 _0762_
*5026 _0763_
*5027 _0764_
*5028 _0765_
*5029 _0766_
*5030 _0767_
*5031 _0768_
*5032 _0769_
*5033 _0770_
*5034 _0771_
*5035 _0772_
*5036 _0773_
*5037 _0774_
*5038 _0775_
*5039 _0776_
*5040 _0777_
*5041 _0778_
*5042 _0779_
*5043 _0780_
*5044 _0781_
*5045 _0782_
*5046 _0783_
*5047 _0784_
*5048 _0785_
*5049 _0786_
*5050 _0787_
*5051 _0788_
*5052 _0789_
*5053 _0790_
*5054 _0791_
*5055 _0792_
*5056 _0793_
*5057 _0794_
*5058 _0795_
*5059 _0796_
*5060 _0797_
*5061 _0798_
*5062 _0799_
*5063 _0800_
*5064 _0801_
*5065 _0802_
*5066 _0803_
*5067 _0804_
*5068 _0805_
*5069 _0806_
*5070 _0807_
*5071 _0808_
*5072 _0809_
*5073 _0810_
*5074 _0811_
*5075 _0812_
*5076 _0813_
*5077 _0814_
*5078 _0815_
*5079 _0816_
*5080 _0817_
*5081 _0818_
*5082 _0819_
*5083 _0820_
*5084 _0821_
*5085 _0822_
*5086 _0823_
*5087 _0824_
*5088 _0825_
*5089 _0826_
*5090 _0827_
*5091 _0828_
*5092 _0829_
*5093 _0830_
*5094 _0831_
*5095 _0832_
*5096 _0833_
*5097 _0834_
*5098 _0835_
*5099 _0836_
*5100 _0837_
*5101 _0838_
*5102 _0839_
*5103 _0840_
*5104 _0841_
*5105 _0842_
*5106 _0843_
*5107 _0844_
*5108 _0845_
*5109 _0846_
*5110 _0847_
*5111 _0848_
*5112 _0849_
*5113 _0850_
*5114 _0851_
*5115 _0852_
*5116 _0853_
*5117 _0854_
*5118 _0855_
*5119 _0856_
*5120 _0857_
*5121 _0858_
*5122 _0859_
*5123 _0860_
*5124 _0861_
*5125 _0862_
*5126 _0863_
*5127 _0864_
*5128 _0865_
*5129 _0866_
*5130 _0867_
*5131 _0868_
*5132 _0869_
*5133 _0870_
*5134 _0871_
*5135 _0872_
*5136 _0873_
*5137 _0874_
*5138 _0875_
*5139 _0876_
*5140 _0877_
*5141 _0878_
*5142 _0879_
*5143 _0880_
*5144 _0881_
*5145 _0882_
*5146 _0883_
*5147 _0884_
*5148 _0885_
*5149 _0886_
*5150 _0887_
*5151 _0888_
*5152 _0889_
*5153 _0890_
*5154 _0891_
*5155 _0892_
*5156 _0893_
*5157 _0894_
*5158 _0895_
*5159 _0896_
*5160 _0897_
*5161 _0898_
*5162 _0899_
*5163 _0900_
*5164 _0901_
*5165 _0902_
*5166 _0903_
*5167 _0904_
*5168 _0905_
*5169 _0906_
*5170 _0907_
*5171 _0908_
*5172 _0909_
*5173 _0910_
*5174 _0911_
*5175 _0912_
*5176 _0913_
*5177 _0914_
*5178 _0915_
*5179 _0916_
*5180 _0917_
*5181 _0918_
*5182 _0919_
*5183 _0920_
*5184 _0921_
*5185 _0922_
*5186 _0923_
*5187 _0924_
*5188 _0925_
*5189 _0926_
*5190 _0927_
*5191 _0928_
*5192 _0929_
*5193 _0930_
*5194 _0931_
*5195 _0932_
*5196 _0933_
*5197 _0934_
*5198 _0935_
*5199 _0936_
*5200 _0937_
*5201 _0938_
*5202 _0939_
*5203 _0940_
*5204 _0941_
*5205 _0942_
*5206 _0943_
*5207 _0944_
*5208 _0945_
*5209 _0946_
*5210 _0947_
*5211 _0948_
*5212 _0949_
*5213 _0950_
*5214 _0951_
*5215 _0952_
*5216 _0953_
*5217 _0954_
*5218 _0955_
*5219 _0956_
*5220 _0957_
*5221 _0958_
*5222 _0959_
*5223 _0960_
*5224 _0961_
*5225 _0962_
*5226 _0963_
*5227 _0964_
*5228 _0965_
*5229 _0966_
*5230 _0967_
*5231 _0968_
*5232 _0969_
*5233 _0970_
*5234 _0971_
*5235 _0972_
*5236 _0973_
*5237 _0974_
*5238 _0975_
*5239 _0976_
*5240 _0977_
*5241 _0978_
*5242 _0979_
*5243 _0980_
*5244 _0981_
*5245 _0982_
*5246 _0983_
*5247 _0984_
*5248 _0985_
*5249 _0986_
*5250 _0987_
*5251 _0988_
*5252 _0989_
*5253 _0990_
*5254 _0991_
*5255 _0992_
*5256 _0993_
*5257 _0994_
*5258 _0995_
*5259 _0996_
*5260 _0997_
*5261 _0998_
*5262 _0999_
*5263 _1000_
*5264 _1001_
*5265 _1002_
*5266 _1003_
*5267 _1004_
*5268 _1005_
*5269 _1006_
*5270 _1007_
*5271 _1008_
*5272 _1009_
*5273 _1010_
*5274 _1011_
*5275 _1012_
*5276 _1013_
*5277 _1014_
*5278 _1015_
*5279 _1016_
*5280 _1017_
*5281 _1018_
*5282 _1019_
*5283 _1020_
*5284 _1021_
*5285 _1022_
*5286 _1023_
*5287 _1024_
*5288 _1025_
*5289 _1026_
*5290 _1027_
*5291 _1028_
*5292 _1029_
*5293 _1030_
*5294 _1031_
*5295 _1032_
*5296 _1033_
*5297 _1034_
*5298 _1035_
*5299 _1036_
*5300 _1037_
*5301 _1038_
*5302 _1039_
*5303 _1040_
*5304 _1041_
*5305 _1042_
*5306 _1043_
*5307 _1044_
*5308 _1045_
*5309 _1046_
*5310 _1047_
*5311 _1048_
*5312 _1049_
*5313 _1050_
*5314 _1051_
*5315 _1052_
*5316 _1053_
*5317 _1054_
*5318 _1055_
*5319 _1056_
*5320 _1057_
*5321 _1058_
*5322 _1059_
*5323 _1060_
*5324 _1061_
*5325 _1062_
*5326 _1063_
*5327 _1064_
*5328 _1065_
*5329 _1066_
*5330 _1067_
*5331 _1068_
*5332 _1069_
*5333 _1070_
*5334 _1071_
*5335 _1072_
*5336 _1073_
*5337 _1074_
*5338 _1075_
*5339 _1076_
*5340 _1077_
*5341 _1078_
*5342 _1079_
*5343 _1080_
*5344 _1081_
*5345 _1082_
*5346 _1083_
*5347 _1084_
*5348 _1085_
*5349 _1086_
*5350 _1087_
*5351 _1088_
*5352 _1089_
*5353 _1090_
*5354 _1091_
*5355 _1092_
*5356 _1093_
*5357 _1094_
*5358 _1095_
*5359 _1096_
*5360 _1097_
*5361 _1098_
*5362 _1099_
*5363 _1100_
*5364 _1101_
*5365 _1102_
*5366 _1103_
*5367 _1104_
*5368 _1105_
*5369 _1106_
*5370 _1107_
*5371 _1108_
*5372 _1109_
*5373 _1110_
*5374 _1111_
*5375 _1112_
*5376 _1113_
*5377 _1114_
*5378 _1115_
*5379 _1116_
*5380 _1117_
*5381 _1118_
*5382 _1119_
*5383 _1120_
*5384 _1121_
*5385 _1122_
*5386 _1123_
*5387 _1124_
*5388 _1125_
*5389 _1126_
*5390 _1127_
*5391 _1128_
*5392 _1129_
*5393 _1130_
*5394 _1131_
*5395 _1132_
*5396 _1133_
*5397 _1134_
*5398 _1135_
*5399 _1136_
*5400 _1137_
*5401 _1138_
*5402 _1139_
*5403 _1140_
*5404 _1141_
*5405 _1142_
*5406 _1143_
*5407 _1144_
*5408 _1145_
*5409 _1146_
*5410 _1147_
*5411 _1148_
*5412 _1149_
*5413 _1150_
*5414 _1151_
*5415 _1152_
*5416 _1153_
*5417 _1154_
*5418 _1155_
*5419 _1156_
*5420 _1157_
*5421 _1158_
*5422 _1159_
*5423 _1160_
*5424 _1161_
*5425 _1162_
*5426 _1163_
*5427 _1164_
*5428 _1165_
*5429 _1166_
*5430 _1167_
*5431 _1168_
*5432 _1169_
*5433 _1170_
*5434 _1171_
*5435 _1172_
*5436 _1173_
*5437 _1174_
*5438 _1175_
*5439 _1176_
*5440 _1177_
*5441 _1178_
*5442 _1179_
*5443 _1180_
*5444 _1181_
*5445 _1182_
*5446 _1183_
*5447 _1184_
*5448 _1185_
*5449 _1186_
*5450 _1187_
*5451 _1188_
*5452 _1189_
*5453 _1190_
*5454 _1191_
*5455 _1192_
*5456 _1193_
*5457 _1194_
*5458 _1195_
*5459 _1196_
*5460 _1197_
*5461 _1198_
*5462 _1199_
*5463 _1200_
*5464 _1201_
*5465 _1202_
*5466 _1203_
*5467 _1204_
*5468 _1205_
*5469 _1206_
*5470 _1207_
*5471 _1208_
*5472 _1209_
*5473 _1210_
*5474 _1211_
*5475 _1212_
*5476 _1213_
*5477 _1214_
*5478 _1215_
*5479 _1216_
*5480 _1217_
*5481 _1218_
*5482 _1219_
*5483 _1220_
*5484 _1221_
*5485 _1222_
*5486 _1223_
*5487 _1224_
*5488 _1225_
*5489 _1226_
*5490 _1227_
*5491 _1228_
*5492 _1228__320
*5493 _1229_
*5494 _1229__238
*5495 _1230_
*5496 _1230__236
*5497 _1231_
*5498 _1231__234
*5499 _1232_
*5500 _1232__232
*5501 _1233_
*5502 _1233__230
*5503 _1234_
*5504 _1234__228
*5505 _1235_
*5506 _1235__226
*5507 _1236_
*5508 _1236__224
*5509 _1237_
*5510 _1237__222
*5511 _1238_
*5512 _1238__220
*5513 _1239_
*5514 _1239__218
*5515 _1240_
*5516 _1240__216
*5517 _1241_
*5518 _1241__214
*5519 _1242_
*5520 _1242__212
*5521 _1243_
*5522 _1243__210
*5523 _1244_
*5524 _1244__208
*5525 _1245_
*5526 _1245__206
*5527 _1246_
*5528 _1246__204
*5529 _1247_
*5530 _1247__202
*5531 _1248_
*5532 _1248__200
*5533 _1249_
*5534 _1249__198
*5535 _1250_
*5536 _1250__196
*5537 _1251_
*5538 _1251__194
*5539 _1252_
*5540 _1252__192
*5541 _1253_
*5542 _1253__190
*5543 _1254_
*5544 _1254__188
*5545 _1255_
*5546 _1255__186
*5547 _1256_
*5548 _1256__184
*5549 _1257_
*5550 _1257__182
*5551 _1258_
*5552 _1258__180
*5553 _1259_
*5554 _1259__178
*5555 _1260_
*5556 _1260__176
*5557 _1261_
*5558 _1261__174
*5559 _1262_
*5560 _1262__172
*5561 _1263_
*5562 _1263__170
*5563 _1264_
*5564 _1264__168
*5565 _1265_
*5566 _1265__166
*5567 _1266_
*5568 _1266__164
*5569 _1267_
*5570 _1267__162
*5571 _1268_
*5572 _1268__160
*5573 _1269_
*5574 _1269__318
*5575 _1270_
*5576 _1270__316
*5577 _1271_
*5578 _1271__314
*5579 _1272_
*5580 _1272__312
*5581 _1273_
*5582 _1273__310
*5583 _1274_
*5584 _1274__308
*5585 _1275_
*5586 _1275__306
*5587 _1276_
*5588 _1276__304
*5589 _1277_
*5590 _1277__302
*5591 _1278_
*5592 _1278__300
*5593 _1279_
*5594 _1279__298
*5595 _1280_
*5596 _1280__296
*5597 _1281_
*5598 _1281__294
*5599 _1282_
*5600 _1282__292
*5601 _1283_
*5602 _1283__290
*5603 _1284_
*5604 _1284__288
*5605 _1285_
*5606 _1285__286
*5607 _1286_
*5608 _1286__284
*5609 _1287_
*5610 _1287__282
*5611 _1288_
*5612 _1288__280
*5613 _1289_
*5614 _1289__278
*5615 _1290_
*5616 _1290__276
*5617 _1291_
*5618 _1291__274
*5619 _1292_
*5620 _1292__272
*5621 _1293_
*5622 _1293__270
*5623 _1294_
*5624 _1294__268
*5625 _1295_
*5626 _1295__266
*5627 _1296_
*5628 _1296__264
*5629 _1297_
*5630 _1297__262
*5631 _1298_
*5632 _1298__260
*5633 _1299_
*5634 _1299__258
*5635 _1300_
*5636 _1300__256
*5637 _1301_
*5638 _1301__254
*5639 _1302_
*5640 _1302__252
*5641 _1303_
*5642 _1303__250
*5643 _1304_
*5644 _1304__248
*5645 _1305_
*5646 _1305__246
*5647 _1306_
*5648 _1306__244
*5649 _1307_
*5650 _1307__242
*5651 _1308_
*5652 _1308__240
*5653 _1309_
*5654 _1309__237
*5655 _1310_
*5656 _1310__233
*5657 _1311_
*5658 _1311__229
*5659 _1312_
*5660 _1312__225
*5661 _1313_
*5662 _1313__221
*5663 _1314_
*5664 _1314__217
*5665 _1315_
*5666 _1315__213
*5667 _1316_
*5668 _1316__209
*5669 _1317_
*5670 _1317__205
*5671 _1318_
*5672 _1318__201
*5673 _1319_
*5674 _1319__197
*5675 _1320_
*5676 _1320__193
*5677 _1321_
*5678 _1321__189
*5679 _1322_
*5680 _1322__185
*5681 _1323_
*5682 _1323__181
*5683 _1324_
*5684 _1324__177
*5685 _1325_
*5686 _1325__173
*5687 _1326_
*5688 _1326__171
*5689 _1327_
*5690 _1327__169
*5691 _1328_
*5692 _1328__165
*5693 _1329_
*5694 _1329__161
*5695 _1330_
*5696 _1330__317
*5697 _1331_
*5698 _1331__313
*5699 _1332_
*5700 _1332__309
*5701 _1333_
*5702 _1333__305
*5703 _1334_
*5704 _1334__301
*5705 _1335_
*5706 _1335__297
*5707 _1336_
*5708 _1336__293
*5709 _1337_
*5710 _1337__289
*5711 _1338_
*5712 _1338__285
*5713 _1339_
*5714 _1339__281
*5715 _1340_
*5716 _1340__277
*5717 _1341_
*5718 _1341__273
*5719 _1342_
*5720 _1342__269
*5721 _1343_
*5722 _1343__265
*5723 _1344_
*5724 _1344__261
*5725 _1345_
*5726 _1345__257
*5727 _1346_
*5728 _1346__253
*5729 _1347_
*5730 _1347__249
*5731 _1348_
*5732 _1348__245
*5733 _1349_
*5734 _1349__241
*5735 _1350_
*5736 _1350__235
*5737 _1351_
*5738 _1351__227
*5739 _1352_
*5740 _1352__219
*5741 _1353_
*5742 _1353__211
*5743 _1354_
*5744 _1354__203
*5745 _1355_
*5746 _1355__195
*5747 _1356_
*5748 _1356__187
*5749 _1357_
*5750 _1357__179
*5751 _1358_
*5752 _1358__167
*5753 _1359_
*5754 _1359__319
*5755 _1360_
*5756 _1360__311
*5757 _1361_
*5758 _1361__303
*5759 _1362_
*5760 _1362__299
*5761 _1363_
*5762 _1363__291
*5763 _1364_
*5764 _1364__283
*5765 _1365_
*5766 _1365__275
*5767 _1366_
*5768 _1366__267
*5769 _1367_
*5770 _1367__259
*5771 _1368_
*5772 _1368__251
*5773 _1369_
*5774 _1369__243
*5775 _1370_
*5776 _1370__231
*5777 _1371_
*5778 _1371__215
*5779 _1372_
*5780 _1372__199
*5781 _1373_
*5782 _1373__183
*5783 _1374_
*5784 _1374__163
*5785 _1375_
*5786 _1375__307
*5787 _1376_
*5788 _1376__287
*5789 _1377_
*5790 _1377__271
*5791 _1378_
*5792 _1378__255
*5793 _1379_
*5794 _1379__239
*5795 _1380_
*5796 _1380__207
*5797 _1381_
*5798 _1381__175
*5799 _1382_
*5800 _1382__295
*5801 _1383_
*5802 _1383__263
*5803 _1384_
*5804 _1384__223
*5805 _1385_
*5806 _1385__315
*5807 _1386_
*5808 _1386__247
*5809 _1387_
*5810 _1387__321
*5811 _1388_
*5812 _1388__322
*5813 _1389_
*5814 _1389__323
*5815 _1390_
*5816 _1390__324
*5817 _1391_
*5818 _1391__325
*5819 _1392_
*5820 _1392__326
*5821 _1393_
*5822 _1393__327
*5823 _1394_
*5824 _1394__328
*5825 _1395_
*5826 _1395__329
*5827 _1396_
*5828 _1396__191
*5829 _1397_
*5830 _1397__279
*5831 boot_spi_macro
*5832 boot_spi_macro_159
*5833 clkbuf_0_clk_i
*5834 clkbuf_4_0_0_clk_i
*5835 clkbuf_4_10_0_clk_i
*5836 clkbuf_4_11_0_clk_i
*5837 clkbuf_4_12_0_clk_i
*5838 clkbuf_4_13_0_clk_i
*5839 clkbuf_4_14_0_clk_i
*5840 clkbuf_4_15_0_clk_i
*5841 clkbuf_4_1_0_clk_i
*5842 clkbuf_4_2_0_clk_i
*5843 clkbuf_4_3_0_clk_i
*5844 clkbuf_4_4_0_clk_i
*5845 clkbuf_4_5_0_clk_i
*5846 clkbuf_4_6_0_clk_i
*5847 clkbuf_4_7_0_clk_i
*5848 clkbuf_4_8_0_clk_i
*5849 clkbuf_4_9_0_clk_i
*5850 clkbuf_5_0__f_clk_i
*5851 clkbuf_5_10__f_clk_i
*5852 clkbuf_5_11__f_clk_i
*5853 clkbuf_5_12__f_clk_i
*5854 clkbuf_5_13__f_clk_i
*5855 clkbuf_5_14__f_clk_i
*5856 clkbuf_5_15__f_clk_i
*5857 clkbuf_5_16__f_clk_i
*5858 clkbuf_5_17__f_clk_i
*5859 clkbuf_5_18__f_clk_i
*5860 clkbuf_5_19__f_clk_i
*5861 clkbuf_5_1__f_clk_i
*5862 clkbuf_5_20__f_clk_i
*5863 clkbuf_5_21__f_clk_i
*5864 clkbuf_5_22__f_clk_i
*5865 clkbuf_5_23__f_clk_i
*5866 clkbuf_5_24__f_clk_i
*5867 clkbuf_5_25__f_clk_i
*5868 clkbuf_5_26__f_clk_i
*5869 clkbuf_5_27__f_clk_i
*5870 clkbuf_5_28__f_clk_i
*5871 clkbuf_5_29__f_clk_i
*5872 clkbuf_5_2__f_clk_i
*5873 clkbuf_5_30__f_clk_i
*5874 clkbuf_5_31__f_clk_i
*5875 clkbuf_5_3__f_clk_i
*5876 clkbuf_5_4__f_clk_i
*5877 clkbuf_5_5__f_clk_i
*5878 clkbuf_5_6__f_clk_i
*5879 clkbuf_5_7__f_clk_i
*5880 clkbuf_5_8__f_clk_i
*5881 clkbuf_5_9__f_clk_i
*5882 clkload0
*5883 clkload1
*5884 clkload2
*5885 clkload3
*5886 clkload4
*5887 clkload5
*5888 clkload6
*5889 clkload7
*5890 clkload8
*5891 clkload9
*5892 fanout100
*5893 fanout101
*5894 fanout102
*5895 fanout103
*5896 fanout104
*5897 fanout105
*5898 fanout106
*5899 fanout107
*5900 fanout108
*5901 fanout109
*5902 fanout110
*5903 fanout111
*5904 fanout112
*5905 fanout113
*5906 fanout114
*5907 fanout115
*5908 fanout116
*5909 fanout117
*5910 fanout118
*5911 fanout119
*5912 fanout120
*5913 fanout121
*5914 fanout122
*5915 fanout123
*5916 fanout124
*5917 fanout125
*5918 fanout126
*5919 fanout127
*5920 fanout128
*5921 fanout129
*5922 fanout130
*5923 fanout131
*5924 fanout132
*5925 fanout133
*5926 fanout134
*5927 fanout135
*5928 fanout136
*5929 fanout137
*5930 fanout138
*5931 fanout139
*5932 fanout140
*5933 fanout141
*5934 fanout142
*5935 fanout143
*5936 fanout144
*5937 fanout145
*5938 fanout146
*5939 fanout147
*5940 fanout148
*5941 fanout149
*5942 fanout150
*5943 fanout151
*5944 fanout152
*5945 fanout153
*5946 fanout154
*5947 fanout155
*5948 fanout156
*5949 fanout157
*5950 fanout158
*5951 fanout71
*5952 fanout72
*5953 fanout73
*5954 fanout74
*5955 fanout75
*5956 fanout76
*5957 fanout77
*5958 fanout78
*5959 fanout79
*5960 fanout80
*5961 fanout81
*5962 fanout82
*5963 fanout83
*5964 fanout84
*5965 fanout85
*5966 fanout86
*5967 fanout87
*5968 fanout88
*5969 fanout89
*5970 fanout90
*5971 fanout91
*5972 fanout92
*5973 fanout93
*5974 fanout94
*5975 fanout95
*5976 fanout96
*5977 fanout97
*5978 fanout98
*5979 fanout99
*5980 hold330
*5981 hold331
*5982 hold332
*5983 hold333
*5984 hold334
*5985 hold335
*5986 hold336
*5987 hold337
*5988 hold338
*5989 hold339
*5990 hold340
*5991 hold341
*5992 hold342
*5993 hold343
*5994 hold344
*5995 hold345
*5996 hold346
*5997 hold347
*5998 hold348
*5999 hold349
*6000 hold350
*6001 hold351
*6002 hold352
*6003 hold353
*6004 hold354
*6005 hold355
*6006 hold356
*6007 hold357
*6008 hold358
*6009 hold359
*6010 hold360
*6011 hold361
*6012 hold362
*6013 hold363
*6014 hold364
*6015 hold365
*6016 hold366
*6017 hold367
*6018 hold368
*6019 hold369
*6020 hold370
*6021 hold371
*6022 hold372
*6023 hold373
*6024 hold374
*6025 hold375
*6026 hold376
*6027 hold377
*6028 hold378
*6029 hold379
*6030 hold380
*6031 hold381
*6032 hold382
*6033 input1
*6034 input2
*6035 output10
*6036 output11
*6037 output12
*6038 output13
*6039 output14
*6040 output15
*6041 output16
*6042 output17
*6043 output18
*6044 output19
*6045 output20
*6046 output21
*6047 output22
*6048 output23
*6049 output24
*6050 output25
*6051 output26
*6052 output27
*6053 output28
*6054 output29
*6055 output3
*6056 output30
*6057 output31
*6058 output32
*6059 output33
*6060 output34
*6061 output35
*6062 output36
*6063 output37
*6064 output38
*6065 output39
*6066 output4
*6067 output40
*6068 output41
*6069 output42
*6070 output43
*6071 output44
*6072 output45
*6073 output46
*6074 output47
*6075 output48
*6076 output49
*6077 output5
*6078 output50
*6079 output51
*6080 output52
*6081 output53
*6082 output54
*6083 output55
*6084 output56
*6085 output57
*6086 output58
*6087 output59
*6088 output6
*6089 output60
*6090 output61
*6091 output62
*6092 output63
*6093 output64
*6094 output65
*6095 output66
*6096 output67
*6097 output68
*6098 output69
*6099 output7
*6100 output70
*6101 output8
*6102 output9

*PORTS
boot_addr[0] O
boot_addr[10] O
boot_addr[11] O
boot_addr[12] O
boot_addr[13] O
boot_addr[14] O
boot_addr[15] O
boot_addr[16] O
boot_addr[17] O
boot_addr[18] O
boot_addr[19] O
boot_addr[1] O
boot_addr[20] O
boot_addr[21] O
boot_addr[22] O
boot_addr[23] O
boot_addr[24] O
boot_addr[25] O
boot_addr[26] O
boot_addr[27] O
boot_addr[28] O
boot_addr[29] O
boot_addr[2] O
boot_addr[30] O
boot_addr[31] O
boot_addr[3] O
boot_addr[4] O
boot_addr[5] O
boot_addr[6] O
boot_addr[7] O
boot_addr[8] O
boot_addr[9] O
boot_done O
boot_wdata[0] O
boot_wdata[10] O
boot_wdata[11] O
boot_wdata[12] O
boot_wdata[13] O
boot_wdata[14] O
boot_wdata[15] O
boot_wdata[16] O
boot_wdata[17] O
boot_wdata[18] O
boot_wdata[19] O
boot_wdata[1] O
boot_wdata[20] O
boot_wdata[21] O
boot_wdata[22] O
boot_wdata[23] O
boot_wdata[24] O
boot_wdata[25] O
boot_wdata[26] O
boot_wdata[27] O
boot_wdata[28] O
boot_wdata[29] O
boot_wdata[2] O
boot_wdata[30] O
boot_wdata[31] O
boot_wdata[3] O
boot_wdata[4] O
boot_wdata[5] O
boot_wdata[6] O
boot_wdata[7] O
boot_wdata[8] O
boot_wdata[9] O
boot_we O
clk_i I
cpu_rst_n O
rst_ni I
spi_cs_n O
spi_miso I
spi_mosi O
spi_sclk O

*D_NET *3 0.00137396
*CONN
*P boot_addr[0] O
*I *5831:L_LO O *D sg13g2_tielo
*CAP
1 boot_addr[0] 0.000686979
2 *5831:L_LO 0.000686979
*RES
1 *5831:L_LO boot_addr[0] 28.6211 
*END

*D_NET *4 0.00178224
*CONN
*P boot_addr[10] O
*I *6055:X O *D sg13g2_buf_1
*CAP
1 boot_addr[10] 0.00089112
2 *6055:X 0.00089112
3 boot_addr[10] boot_addr[11] 0
*RES
1 *6055:X boot_addr[10] 29.0537 
*END

*D_NET *5 0.00211363
*CONN
*P boot_addr[11] O
*I *6066:X O *D sg13g2_buf_1
*CAP
1 boot_addr[11] 0.00105681
2 *6066:X 0.00105681
3 boot_addr[11] boot_addr[4] 0
4 boot_addr[10] boot_addr[11] 0
*RES
1 *6066:X boot_addr[11] 29.0537 
*END

*D_NET *6 0.00145085
*CONN
*P boot_addr[12] O
*I *6077:X O *D sg13g2_buf_1
*CAP
1 boot_addr[12] 0.000725427
2 *6077:X 0.000725427
*RES
1 *6077:X boot_addr[12] 29.0537 
*END

*D_NET *7 0.00145085
*CONN
*P boot_addr[13] O
*I *6088:X O *D sg13g2_buf_1
*CAP
1 boot_addr[13] 0.000725427
2 *6088:X 0.000725427
*RES
1 *6088:X boot_addr[13] 29.0537 
*END

*D_NET *8 0.000667999
*CONN
*P boot_addr[14] O
*I *6099:X O *D sg13g2_buf_1
*CAP
1 boot_addr[14] 0.000333999
2 *6099:X 0.000333999
*RES
1 *6099:X boot_addr[14] 43.914 
*END

*D_NET *9 0.000531243
*CONN
*P boot_addr[15] O
*I *6101:X O *D sg13g2_buf_1
*CAP
1 boot_addr[15] 0.000265621
2 *6101:X 0.000265621
*RES
1 *6101:X boot_addr[15] 43.4814 
*END

*D_NET *10 0.000985014
*CONN
*P boot_addr[16] O
*I *6102:X O *D sg13g2_buf_1
*CAP
1 boot_addr[16] 0.00038785
2 *6102:X 0.00038785
3 boot_addr[16] *5071:A 0.000209315
4 boot_addr[16] *5071:B 0
*RES
1 *6102:X boot_addr[16] 44.7792 
*END

*D_NET *11 0.000795762
*CONN
*P boot_addr[17] O
*I *6035:X O *D sg13g2_buf_1
*CAP
1 boot_addr[17] 0.000397881
2 *6035:X 0.000397881
3 boot_addr[17] *6035:A 0
*RES
1 *6035:X boot_addr[17] 44.5629 
*END

*D_NET *12 0.00145085
*CONN
*P boot_addr[18] O
*I *6036:X O *D sg13g2_buf_1
*CAP
1 boot_addr[18] 0.000725427
2 *6036:X 0.000725427
3 boot_addr[18] boot_addr[3] 0
4 boot_addr[18] boot_addr[9] 0
*RES
1 *6036:X boot_addr[18] 29.0537 
*END

*D_NET *13 0.00178224
*CONN
*P boot_addr[19] O
*I *6037:X O *D sg13g2_buf_1
*CAP
1 boot_addr[19] 0.00089112
2 *6037:X 0.00089112
3 boot_addr[19] boot_addr[9] 0
*RES
1 *6037:X boot_addr[19] 29.0537 
*END

*D_NET *14 0.0016767
*CONN
*P boot_addr[1] O
*I *5832:L_LO O *D sg13g2_tielo
*CAP
1 boot_addr[1] 0.000838352
2 *5832:L_LO 0.000838352
3 boot_addr[1] boot_addr[22] 0
*RES
1 *5832:L_LO boot_addr[1] 28.5181 
*END

*D_NET *15 0.000533769
*CONN
*P boot_addr[20] O
*I *6038:X O *D sg13g2_buf_1
*CAP
1 boot_addr[20] 0.000266885
2 *6038:X 0.000266885
3 boot_addr[20] boot_addr[31] 0
*RES
1 *6038:X boot_addr[20] 43.4814 
*END

*D_NET *16 0.00137396
*CONN
*P boot_addr[21] O
*I *6039:X O *D sg13g2_buf_1
*CAP
1 boot_addr[21] 0.000686979
2 *6039:X 0.000686979
*RES
1 *6039:X boot_addr[21] 28.6211 
*END

*D_NET *17 0.00175499
*CONN
*P boot_addr[22] O
*I *6040:X O *D sg13g2_buf_1
*CAP
1 boot_addr[22] 0.000877495
2 *6040:X 0.000877495
3 boot_addr[22] spi_mosi 0
4 boot_addr[1] boot_addr[22] 0
*RES
1 *6040:X boot_addr[22] 29.0125 
*END

*D_NET *18 0.00136604
*CONN
*P boot_addr[23] O
*I *6041:X O *D sg13g2_buf_1
*CAP
1 boot_addr[23] 0.000683022
2 *6041:X 0.000683022
*RES
1 *6041:X boot_addr[23] 28.5181 
*END

*D_NET *19 0.00136604
*CONN
*P boot_addr[24] O
*I *6042:X O *D sg13g2_buf_1
*CAP
1 boot_addr[24] 0.000683022
2 *6042:X 0.000683022
*RES
1 *6042:X boot_addr[24] 28.5181 
*END

*D_NET *20 0.00071865
*CONN
*P boot_addr[25] O
*I *6043:X O *D sg13g2_buf_1
*CAP
1 boot_addr[25] 0.000359325
2 *6043:X 0.000359325
3 boot_addr[25] boot_addr[26] 0
*RES
1 *6043:X boot_addr[25] 43.4814 
*END

*D_NET *21 0.00110293
*CONN
*P boot_addr[26] O
*I *6044:X O *D sg13g2_buf_1
*CAP
1 boot_addr[26] 0.000551465
2 *6044:X 0.000551465
3 boot_addr[26] boot_addr[27] 0
4 boot_addr[25] boot_addr[26] 0
*RES
1 *6044:X boot_addr[26] 44.6865 
*END

*D_NET *22 0.000643587
*CONN
*P boot_addr[27] O
*I *6045:X O *D sg13g2_buf_1
*CAP
1 boot_addr[27] 0.000321793
2 *6045:X 0.000321793
3 boot_addr[26] boot_addr[27] 0
*RES
1 *6045:X boot_addr[27] 43.1621 
*END

*D_NET *23 0.00075875
*CONN
*P boot_addr[28] O
*I *6046:X O *D sg13g2_buf_1
*CAP
1 boot_addr[28] 0.000379375
2 *6046:X 0.000379375
*RES
1 *6046:X boot_addr[28] 44.5629 
*END

*D_NET *24 0.000561418
*CONN
*P boot_addr[29] O
*I *6047:X O *D sg13g2_buf_1
*CAP
1 boot_addr[29] 0.000280709
2 *6047:X 0.000280709
3 boot_addr[29] *6047:A 0
*RES
1 *6047:X boot_addr[29] 43.4814 
*END

*D_NET *25 0.00172134
*CONN
*P boot_addr[2] O
*I *6048:X O *D sg13g2_buf_1
*CAP
1 boot_addr[2] 0.000721667
2 *6048:X 0.000139003
3 *25:8 0.00086067
4 boot_addr[2] spi_cs_n 0
*RES
1 *6048:X *25:8 41.5862 
2 *25:8 boot_addr[2] 28.7035 
*END

*D_NET *26 0.000761625
*CONN
*P boot_addr[30] O
*I *6049:X O *D sg13g2_buf_1
*CAP
1 boot_addr[30] 0.000380813
2 *6049:X 0.000380813
3 boot_addr[30] *5097:B1 0
*RES
1 *6049:X boot_addr[30] 44.5629 
*END

*D_NET *27 0.00128284
*CONN
*P boot_addr[31] O
*I *6050:X O *D sg13g2_buf_1
*CAP
1 boot_addr[31] 0.000455599
2 *6050:X 0.000455599
3 boot_addr[31] *820:14 0.000371644
4 boot_addr[20] boot_addr[31] 0
*RES
1 *6050:X boot_addr[31] 45.6444 
*END

*D_NET *28 0.00145085
*CONN
*P boot_addr[3] O
*I *6051:X O *D sg13g2_buf_1
*CAP
1 boot_addr[3] 0.000725427
2 *6051:X 0.000725427
3 boot_addr[18] boot_addr[3] 0
*RES
1 *6051:X boot_addr[3] 29.0537 
*END

*D_NET *29 0.00178224
*CONN
*P boot_addr[4] O
*I *6052:X O *D sg13g2_buf_1
*CAP
1 boot_addr[4] 0.00089112
2 *6052:X 0.00089112
3 boot_addr[11] boot_addr[4] 0
*RES
1 *6052:X boot_addr[4] 29.0537 
*END

*D_NET *30 0.00146358
*CONN
*P boot_addr[5] O
*I *6053:X O *D sg13g2_buf_1
*CAP
1 boot_addr[5] 0.000731788
2 *6053:X 0.000731788
*RES
1 *6053:X boot_addr[5] 29.0537 
*END

*D_NET *31 0.00194831
*CONN
*P boot_addr[6] O
*I *6054:X O *D sg13g2_buf_1
*CAP
1 boot_addr[6] 0.000856625
2 *6054:X 0.000856625
3 boot_addr[6] boot_addr[8] 0
4 boot_addr[6] spi_cs_n 0
5 boot_addr[6] *6048:A 0
6 boot_addr[6] *864:36 0.00023506
*RES
1 *6054:X boot_addr[6] 26.2681 
*END

*D_NET *32 0.00145085
*CONN
*P boot_addr[7] O
*I *6056:X O *D sg13g2_buf_1
*CAP
1 boot_addr[7] 0.000725427
2 *6056:X 0.000725427
*RES
1 *6056:X boot_addr[7] 29.0537 
*END

*D_NET *33 0.00145085
*CONN
*P boot_addr[8] O
*I *6057:X O *D sg13g2_buf_1
*CAP
1 boot_addr[8] 0.000725427
2 *6057:X 0.000725427
3 boot_addr[8] boot_done 0
4 boot_addr[6] boot_addr[8] 0
*RES
1 *6057:X boot_addr[8] 29.0537 
*END

*D_NET *34 0.0017845
*CONN
*P boot_addr[9] O
*I *6058:X O *D sg13g2_buf_1
*CAP
1 boot_addr[9] 0.00089225
2 *6058:X 0.00089225
3 boot_addr[9] *898:29 0
4 boot_addr[18] boot_addr[9] 0
5 boot_addr[19] boot_addr[9] 0
*RES
1 *6058:X boot_addr[9] 29.0537 
*END

*D_NET *35 0.00145085
*CONN
*P boot_done O
*I *6059:X O *D sg13g2_buf_1
*CAP
1 boot_done 0.000725427
2 *6059:X 0.000725427
3 boot_addr[8] boot_done 0
*RES
1 *6059:X boot_done 29.0537 
*END

*D_NET *36 0.00122541
*CONN
*P boot_wdata[0] O
*I *6060:X O *D sg13g2_buf_1
*CAP
1 boot_wdata[0] 0.000557206
2 *6060:X 0.000557206
3 boot_wdata[0] boot_wdata[10] 0.000110994
4 boot_wdata[0] *6061:A 0
5 boot_wdata[0] *931:10 0
*RES
1 *6060:X boot_wdata[0] 46.4401 
*END

*D_NET *37 0.000821891
*CONN
*P boot_wdata[10] O
*I *6061:X O *D sg13g2_buf_1
*CAP
1 boot_wdata[10] 0.000355449
2 *6061:X 0.000355449
3 boot_wdata[0] boot_wdata[10] 0.000110994
*RES
1 *6061:X boot_wdata[10] 44.0608 
*END

*D_NET *38 0.00138372
*CONN
*P boot_wdata[11] O
*I *6062:X O *D sg13g2_buf_1
*CAP
1 boot_wdata[11] 0.000691862
2 *6062:X 0.000691862
3 boot_wdata[11] boot_wdata[28] 0
4 boot_wdata[11] *5980:A 0
5 boot_wdata[11] *942:8 0
6 boot_wdata[11] *990:25 0
*RES
1 *6062:X boot_wdata[11] 46.7388 
*END

*D_NET *39 0.000876386
*CONN
*P boot_wdata[12] O
*I *6063:X O *D sg13g2_buf_1
*CAP
1 boot_wdata[12] 0.000403565
2 *6063:X 0.000403565
3 boot_wdata[12] boot_wdata[20] 4.7062e-05
4 boot_wdata[12] *976:8 2.21949e-05
*RES
1 *6063:X boot_wdata[12] 44.0608 
*END

*D_NET *40 0.00106759
*CONN
*P boot_wdata[13] O
*I *6064:X O *D sg13g2_buf_1
*CAP
1 boot_wdata[13] 0.000533797
2 *6064:X 0.000533797
3 boot_wdata[13] boot_wdata[29] 0
4 boot_wdata[13] *6083:A 0
5 boot_wdata[13] *624:29 0
*RES
1 *6064:X boot_wdata[13] 45.3792 
*END

*D_NET *41 0.00137396
*CONN
*P boot_wdata[14] O
*I *6065:X O *D sg13g2_buf_1
*CAP
1 boot_wdata[14] 0.000686979
2 *6065:X 0.000686979
*RES
1 *6065:X boot_wdata[14] 28.6211 
*END

*D_NET *42 0.00142166
*CONN
*P boot_wdata[15] O
*I *6067:X O *D sg13g2_buf_1
*CAP
1 boot_wdata[15] 0.000710829
2 *6067:X 0.000710829
3 boot_wdata[15] boot_wdata[23] 0
*RES
1 *6067:X boot_wdata[15] 28.5181 
*END

*D_NET *43 0.000904031
*CONN
*P boot_wdata[16] O
*I *6068:X O *D sg13g2_buf_1
*CAP
1 boot_wdata[16] 0.000334287
2 *6068:X 0.000334287
3 boot_wdata[16] boot_wdata[26] 0
4 boot_wdata[16] *971:10 0.000235457
*RES
1 *6068:X boot_wdata[16] 44.514 
*END

*D_NET *44 0.00137915
*CONN
*P boot_wdata[17] O
*I *6069:X O *D sg13g2_buf_1
*CAP
1 boot_wdata[17] 0.000689575
2 *6069:X 0.000689575
3 boot_wdata[17] boot_wdata[24] 0
4 boot_wdata[17] boot_wdata[25] 0
5 boot_wdata[17] *6079:A 0
6 boot_wdata[17] *981:10 0
*RES
1 *6069:X boot_wdata[17] 46.0075 
*END

*D_NET *45 0.000677839
*CONN
*P boot_wdata[18] O
*I *6070:X O *D sg13g2_buf_1
*CAP
1 boot_wdata[18] 0.000338919
2 *6070:X 0.000338919
*RES
1 *6070:X boot_wdata[18] 43.9578 
*END

*D_NET *46 0.000673365
*CONN
*P boot_wdata[19] O
*I *6071:X O *D sg13g2_buf_1
*CAP
1 boot_wdata[19] 0.000336682
2 *6071:X 0.000336682
*RES
1 *6071:X boot_wdata[19] 44.0608 
*END

*D_NET *47 0.00145731
*CONN
*P boot_wdata[1] O
*I *6072:X O *D sg13g2_buf_1
*CAP
1 boot_wdata[1] 0.000728656
2 *6072:X 0.000728656
*RES
1 *6072:X boot_wdata[1] 29.0537 
*END

*D_NET *48 0.00143092
*CONN
*P boot_wdata[20] O
*I *6073:X O *D sg13g2_buf_1
*CAP
1 boot_wdata[20] 0.000691928
2 *6073:X 0.000691928
3 boot_wdata[20] boot_wdata[4] 0
4 boot_wdata[12] boot_wdata[20] 4.7062e-05
*RES
1 *6073:X boot_wdata[20] 46.0075 
*END

*D_NET *49 0.000546256
*CONN
*P boot_wdata[21] O
*I *6074:X O *D sg13g2_buf_1
*CAP
1 boot_wdata[21] 0.000273128
2 *6074:X 0.000273128
3 boot_wdata[21] boot_wdata[5] 0
*RES
1 *6074:X boot_wdata[21] 43.5252 
*END

*D_NET *50 0.0016767
*CONN
*P boot_wdata[22] O
*I *6075:X O *D sg13g2_buf_1
*CAP
1 boot_wdata[22] 0.000838352
2 *6075:X 0.000838352
3 boot_wdata[22] boot_wdata[30] 0
*RES
1 *6075:X boot_wdata[22] 28.5181 
*END

*D_NET *51 0.00142166
*CONN
*P boot_wdata[23] O
*I *6076:X O *D sg13g2_buf_1
*CAP
1 boot_wdata[23] 0.000710829
2 *6076:X 0.000710829
3 boot_wdata[15] boot_wdata[23] 0
*RES
1 *6076:X boot_wdata[23] 28.5181 
*END

*D_NET *52 0.000696329
*CONN
*P boot_wdata[24] O
*I *6078:X O *D sg13g2_buf_1
*CAP
1 boot_wdata[24] 0.000348164
2 *6078:X 0.000348164
3 boot_wdata[17] boot_wdata[24] 0
*RES
1 *6078:X boot_wdata[24] 43.5252 
*END

*D_NET *53 0.00122628
*CONN
*P boot_wdata[25] O
*I *6079:X O *D sg13g2_buf_1
*CAP
1 boot_wdata[25] 0.000613138
2 *6079:X 0.000613138
3 boot_wdata[25] *6078:A 0
4 boot_wdata[25] *6079:A 0
5 boot_wdata[25] *981:10 0
6 boot_wdata[17] boot_wdata[25] 0
*RES
1 *6079:X boot_wdata[25] 45.8118 
*END

*D_NET *54 0.00119197
*CONN
*P boot_wdata[26] O
*I *6080:X O *D sg13g2_buf_1
*CAP
1 boot_wdata[26] 0.000475968
2 *6080:X 0.000475968
3 boot_wdata[26] boot_wdata[8] 0
4 boot_wdata[26] *6080:A 0.000240035
5 boot_wdata[16] boot_wdata[26] 0
*RES
1 *6080:X boot_wdata[26] 44.823 
*END

*D_NET *55 0.000892164
*CONN
*P boot_wdata[27] O
*I *6081:X O *D sg13g2_buf_1
*CAP
1 boot_wdata[27] 0.000358141
2 *6081:X 0.000358141
3 boot_wdata[27] boot_wdata[2] 0
4 boot_wdata[27] *6081:A 0.000175882
*RES
1 *6081:X boot_wdata[27] 44.3904 
*END

*D_NET *56 0.00136401
*CONN
*P boot_wdata[28] O
*I *6082:X O *D sg13g2_buf_1
*CAP
1 boot_wdata[28] 0.000682007
2 *6082:X 0.000682007
3 boot_wdata[28] boot_wdata[3] 0
4 boot_wdata[28] *6034:A 0
5 boot_wdata[28] *6082:A 0
6 boot_wdata[11] boot_wdata[28] 0
*RES
1 *6082:X boot_wdata[28] 46.1826 
*END

*D_NET *57 0.000906058
*CONN
*P boot_wdata[29] O
*I *6083:X O *D sg13g2_buf_1
*CAP
1 boot_wdata[29] 0.000397284
2 *6083:X 0.000397284
3 boot_wdata[29] *6083:A 0.000111491
4 boot_wdata[13] boot_wdata[29] 0
*RES
1 *6083:X boot_wdata[29] 43.9578 
*END

*D_NET *58 0.000689423
*CONN
*P boot_wdata[2] O
*I *6084:X O *D sg13g2_buf_1
*CAP
1 boot_wdata[2] 0.000305003
2 *6084:X 0.000305003
3 boot_wdata[2] *984:14 7.94174e-05
4 boot_wdata[27] boot_wdata[2] 0
*RES
1 *6084:X boot_wdata[2] 43.7415 
*END

*D_NET *59 0.00176974
*CONN
*P boot_wdata[30] O
*I *6085:X O *D sg13g2_buf_1
*CAP
1 boot_wdata[30] 0.000884869
2 *6085:X 0.000884869
3 boot_wdata[30] boot_wdata[7] 0
4 boot_wdata[22] boot_wdata[30] 0
*RES
1 *6085:X boot_wdata[30] 29.0125 
*END

*D_NET *60 0.00074712
*CONN
*P boot_wdata[31] O
*I *6086:X O *D sg13g2_buf_1
*CAP
1 boot_wdata[31] 0.000317814
2 *6086:X 0.000317814
3 boot_wdata[31] *6086:A 0.000111491
*RES
1 *6086:X boot_wdata[31] 43.9578 
*END

*D_NET *61 0.00129902
*CONN
*P boot_wdata[3] O
*I *6087:X O *D sg13g2_buf_1
*CAP
1 boot_wdata[3] 0.000366244
2 *6087:X 0.000163165
3 *61:8 0.000529409
4 boot_wdata[3] *6034:A 0.000240202
5 boot_wdata[28] boot_wdata[3] 0
*RES
1 *6087:X *61:8 41.5862 
2 *61:8 boot_wdata[3] 44.3286 
*END

*D_NET *62 0.000854229
*CONN
*P boot_wdata[4] O
*I *6089:X O *D sg13g2_buf_1
*CAP
1 boot_wdata[4] 0.000427114
2 *6089:X 0.000427114
3 boot_wdata[20] boot_wdata[4] 0
*RES
1 *6089:X boot_wdata[4] 44.514 
*END

*D_NET *63 0.0010734
*CONN
*P boot_wdata[5] O
*I *6090:X O *D sg13g2_buf_1
*CAP
1 boot_wdata[5] 0.000417968
2 *6090:X 0.000417968
3 boot_wdata[5] spi_sclk 0.000237462
4 boot_wdata[5] *679:53 0
5 boot_wdata[21] boot_wdata[5] 0
*RES
1 *6090:X boot_wdata[5] 44.9363 
*END

*D_NET *64 0.00137396
*CONN
*P boot_wdata[6] O
*I *6091:X O *D sg13g2_buf_1
*CAP
1 boot_wdata[6] 0.000686979
2 *6091:X 0.000686979
*RES
1 *6091:X boot_wdata[6] 28.6211 
*END

*D_NET *65 0.00164927
*CONN
*P boot_wdata[7] O
*I *6092:X O *D sg13g2_buf_1
*CAP
1 boot_wdata[7] 0.000824634
2 *6092:X 0.000824634
3 boot_wdata[30] boot_wdata[7] 0
*RES
1 *6092:X boot_wdata[7] 30.4751 
*END

*D_NET *66 0.00102374
*CONN
*P boot_wdata[8] O
*I *6093:X O *D sg13g2_buf_1
*CAP
1 boot_wdata[8] 0.00051187
2 *6093:X 0.00051187
3 boot_wdata[8] boot_wdata[9] 0
4 boot_wdata[8] *997:25 0
5 boot_wdata[26] boot_wdata[8] 0
*RES
1 *6093:X boot_wdata[8] 44.1947 
*END

*D_NET *67 0.000854935
*CONN
*P boot_wdata[9] O
*I *6094:X O *D sg13g2_buf_1
*CAP
1 boot_wdata[9] 0.000387609
2 *6094:X 0.000387609
3 boot_wdata[9] *6080:A 7.97181e-05
4 boot_wdata[8] boot_wdata[9] 0
*RES
1 *6094:X boot_wdata[9] 43.7415 
*END

*D_NET *68 0.000825355
*CONN
*P boot_we O
*I *6095:X O *D sg13g2_buf_1
*CAP
1 boot_we 0.000412677
2 *6095:X 0.000412677
*RES
1 *6095:X boot_we 44.7097 
*END

*D_NET *69 0.0216271
*CONN
*P clk_i I
*I *5833:A I *D sg13g2_buf_16
*CAP
1 clk_i 0.000310358
2 *5833:A 8.53862e-05
3 *69:39 0.0038707
4 *69:20 0.00558976
5 *69:10 0.00663251
6 *69:8 0.00513843
7 *5833:A *1035:22 0
8 *69:10 *5382:S 0
9 *69:10 *644:14 0
10 *69:10 *644:47 0
11 *69:10 *1030:20 0
12 *69:10 *1030:46 0
13 *69:10 *1031:20 0
14 *69:10 *1031:31 0
15 *69:20 *5282:A 0
16 *69:20 *5348:A1 0
17 *69:20 *5449:B 0
18 *69:20 *5450:B 0
19 *69:20 *5451:B 0
20 *69:20 *5451:C 0
21 *69:20 *5783:CLK 0
22 *69:20 *6091:A 0
23 *69:20 *994:10 0
24 *69:20 *1004:44 0
25 *69:20 *1004:50 0
26 *69:20 *1134:12 0
27 *69:39 *5406:A 0
28 *69:39 *5408:D 0
29 *69:39 *5439:A2 0
30 *69:39 *5450:B 0
31 *69:39 *5450:C 0
32 *69:39 *5771:CLK 0
33 *69:39 *5777:RESET_B 0
34 *69:39 *5876:A 0
35 *69:39 *228:10 0
36 *69:39 *229:10 0
37 *69:39 *550:10 0
38 *69:39 *551:28 0
39 *69:39 *651:21 0
40 *69:39 *714:27 0
41 *69:39 *1035:8 0
42 *69:39 *1035:22 0
43 *69:39 *1127:8 0
44 *69:39 *1127:34 0
45 *69:39 *1127:36 0
*RES
1 clk_i *69:8 3.98868 
2 *69:8 *69:10 53.9926 
3 *69:10 *69:20 40.2807 
4 *69:20 *69:39 39.5264 
5 *69:39 *5833:A 20.9682 
*END

*D_NET *70 0.00145085
*CONN
*P cpu_rst_n O
*I *6096:X O *D sg13g2_buf_1
*CAP
1 cpu_rst_n 0.000725427
2 *6096:X 0.000725427
*RES
1 *6096:X cpu_rst_n 29.0537 
*END

*D_NET *71 0.000694929
*CONN
*P rst_ni I
*I *6033:A I *D sg13g2_buf_1
*CAP
1 rst_ni 0.000347465
2 *6033:A 0.000347465
3 *6033:A *654:10 0
*RES
1 rst_ni *6033:A 44.1303 
*END

*D_NET *72 0.00206799
*CONN
*P spi_cs_n O
*I *6097:X O *D sg13g2_buf_1
*CAP
1 spi_cs_n 0.000880416
2 *6097:X 0.000129624
3 *72:8 0.00101004
4 spi_cs_n *5947:A 4.79124e-05
5 spi_cs_n *6048:A 0
6 spi_cs_n *864:36 0
7 *72:8 *798:8 0
8 boot_addr[2] spi_cs_n 0
9 boot_addr[6] spi_cs_n 0
*RES
1 *6097:X *72:8 41.339 
2 *72:8 spi_cs_n 30.0219 
*END

*D_NET *73 0.000934618
*CONN
*P spi_miso I
*I *5980:A I *D sg13g2_dlygate4sd3_1
*CAP
1 spi_miso 0.000467309
2 *5980:A 0.000467309
3 *5980:A *5711:CLK 0
4 boot_wdata[11] *5980:A 0
*RES
1 spi_miso *5980:A 45.6882 
*END

*D_NET *74 0.00137042
*CONN
*P spi_mosi O
*I *6098:X O *D sg13g2_buf_1
*CAP
1 spi_mosi 0.00068521
2 *6098:X 0.00068521
3 boot_addr[22] spi_mosi 0
*RES
1 *6098:X spi_mosi 28.5181 
*END

*D_NET *75 0.000792727
*CONN
*P spi_sclk O
*I *6100:X O *D sg13g2_buf_1
*CAP
1 spi_sclk 0.000277632
2 *6100:X 0.000277632
3 boot_wdata[5] spi_sclk 0.000237462
*RES
1 *6100:X spi_sclk 43.2059 
*END

*D_NET *76 9.9762e-05
*CONN
*I *5813:D I *D sg13g2_dfrbpq_1
*I *4984:X O *D sg13g2_and2_1
*CAP
1 *5813:D 4.9881e-05
2 *4984:X 4.9881e-05
3 *5813:D *4983:B 0
*RES
1 *4984:X *5813:D 40.5974 
*END

*D_NET *77 0.000240977
*CONN
*I *5821:D I *D sg13g2_dfrbpq_1
*I *4983:X O *D sg13g2_and2_1
*CAP
1 *5821:D 0.00011276
2 *4983:X 0.00011276
3 *5821:D *4983:A 1.54556e-05
4 *5821:D *657:16 0
*RES
1 *4983:X *5821:D 41.1845 
*END

*D_NET *78 0.00104829
*CONN
*I *5829:D I *D sg13g2_dfrbpq_1
*I *4982:Y O *D sg13g2_nor2_1
*CAP
1 *5829:D 0.000411532
2 *4982:Y 0.000411532
3 *5829:D *4982:B 0.000209812
4 *5829:D *79:8 0
5 *5829:D *1023:84 1.5412e-05
6 *5829:D *1046:8 0
*RES
1 *4982:Y *5829:D 44.4084 
*END

*D_NET *79 0.0152063
*CONN
*I *5935:A I *D sg13g2_buf_1
*I *5931:A I *D sg13g2_buf_1
*I *4979:Y O *D sg13g2_inv_1
*CAP
1 *5935:A 0
2 *5931:A 0
3 *4979:Y 0
4 *79:27 0.0012801
5 *79:16 0.000987716
6 *79:8 0.004593
7 *79:4 0.00488539
8 *79:8 *5241:A 0
9 *79:8 *5243:C 0
10 *79:8 *5339:A 0
11 *79:8 *5623:D 0
12 *79:8 *5691:RESET_B 0
13 *79:8 *5691:D 0
14 *79:8 *5793:RESET_B 0
15 *79:8 *5829:RESET_B 0.000274512
16 *79:8 *6023:A 0
17 *79:8 *237:10 0
18 *79:8 *605:154 0
19 *79:8 *701:10 0
20 *79:8 *715:108 0.00179757
21 *79:8 *975:27 0
22 *79:8 *1023:16 0
23 *79:8 *1037:12 0
24 *79:8 *1046:8 0
25 *79:8 *1047:6 0
26 *79:16 *1033:12 0
27 *79:16 *1036:16 0.000497303
28 *79:27 *611:12 0
29 *79:27 *642:8 0
30 *79:27 *716:75 0.000890691
31 *79:27 *975:27 0
32 *5829:D *79:8 0
*RES
1 *4979:Y *79:4 20 
2 *79:4 *79:8 37.6568 
3 *79:8 *79:16 49.8777 
4 *79:16 *5931:A 20 
5 *79:4 *79:27 35.6251 
6 *79:27 *5935:A 40 
*END

*D_NET *80 0.000565917
*CONN
*I *5815:D I *D sg13g2_dfrbpq_1
*I *5022:X O *D sg13g2_a21o_1
*CAP
1 *5815:D 0.000161802
2 *5022:X 0.000161802
3 *5815:D *4988:C 0
4 *5815:D *1054:24 0.000242313
*RES
1 *5022:X *5815:D 41.6171 
*END

*D_NET *81 0.000649097
*CONN
*I *5817:D I *D sg13g2_dfrbpq_1
*I *5020:Y O *D sg13g2_inv_1
*CAP
1 *5817:D 0.000324548
2 *5020:Y 0.000324548
3 *5817:D *5685:CLK 0
4 *5817:D *5817:RESET_B 0
*RES
1 *5020:Y *5817:D 43.6977 
*END

*D_NET *82 0.000513265
*CONN
*I *5819:D I *D sg13g2_dfrbpq_1
*I *5018:Y O *D sg13g2_a21oi_1
*CAP
1 *5819:D 9.55904e-05
2 *5018:Y 9.55904e-05
3 *5819:D *5819:RESET_B 0
4 *5819:D *292:12 0.000144816
5 *5819:D *700:16 0.000177268
*RES
1 *5018:Y *5819:D 41.1845 
*END

*D_NET *83 0.000428264
*CONN
*I *5823:D I *D sg13g2_dfrbpq_1
*I *5014:Y O *D sg13g2_a21oi_1
*CAP
1 *5823:D 0.000203044
2 *5014:Y 0.000203044
3 *5823:D *612:25 0
4 *5823:D *716:44 2.21754e-05
*RES
1 *5014:Y *5823:D 41.9673 
*END

*D_NET *84 0.00178576
*CONN
*I *5825:D I *D sg13g2_dfrbpq_1
*I *4989:X O *D sg13g2_a21o_1
*CAP
1 *5825:D 0.000438915
2 *4989:X 0.000121923
3 *84:8 0.000560838
4 *5825:D *605:114 0
5 *5825:D *700:28 0.000664081
6 *84:8 *266:66 0
*RES
1 *4989:X *84:8 41.0918 
2 *84:8 *5825:D 44.429 
*END

*D_NET *85 0.00118426
*CONN
*I *5827:D I *D sg13g2_dfrbpq_1
*I *4987:X O *D sg13g2_a21o_1
*CAP
1 *5827:D 0
2 *4987:X 0.00059213
3 *85:10 0.00059213
4 *85:10 *4987:B1 0
5 *85:10 *5685:CLK 0
*RES
1 *4987:X *85:10 47.0967 
2 *85:10 *5827:D 40 
*END

*D_NET *86 0.000771343
*CONN
*I *5982:A I *D sg13g2_dlygate4sd3_1
*I *5026:Y O *D sg13g2_nor4_1
*CAP
1 *5982:A 0.000280853
2 *5026:Y 0.000280853
3 *5982:A *5025:A2 0
4 *5982:A *5026:D 0
5 *5982:A *5437:A 1.54008e-05
6 *5982:A *298:10 0
7 *5982:A *1045:6 0.000194236
*RES
1 *5026:Y *5982:A 43.0694 
*END

*D_NET *87 0.000229509
*CONN
*I *5493:D I *D sg13g2_dfrbpq_1
*I *5029:Y O *D sg13g2_nor2_1
*CAP
1 *5493:D 0.000114754
2 *5029:Y 0.000114754
3 *5493:D *6037:A 0
4 *5493:D *666:30 0
5 *5493:D *716:10 0
*RES
1 *5029:Y *5493:D 41.1845 
*END

*D_NET *88 0.000448554
*CONN
*I *5495:D I *D sg13g2_dfrbpq_1
*I *5032:Y O *D sg13g2_nor2_1
*CAP
1 *5495:D 0.000224277
2 *5032:Y 0.000224277
3 *5495:D *5032:B 0
4 *5495:D *5495:RESET_B 0
*RES
1 *5032:Y *5495:D 42.6265 
*END

*D_NET *89 0.00112796
*CONN
*I *5497:D I *D sg13g2_dfrbpq_1
*I *5035:Y O *D sg13g2_nor2_1
*CAP
1 *5497:D 0
2 *5035:Y 0.00041123
3 *89:10 0.00041123
4 *89:10 *5035:A 0
5 *89:10 *5035:B 0.000177257
6 *89:10 *304:10 0
7 *89:10 *637:31 0.000128247
8 *89:10 *708:10 0
9 *89:10 *803:8 0
*RES
1 *5035:Y *89:10 44.9955 
2 *89:10 *5497:D 40 
*END

*D_NET *90 0.000185013
*CONN
*I *5499:D I *D sg13g2_dfrbpq_1
*I *5038:Y O *D sg13g2_nor2_1
*CAP
1 *5499:D 9.25066e-05
2 *5038:Y 9.25066e-05
3 *5499:D *5499:RESET_B 0
*RES
1 *5038:Y *5499:D 41.1639 
*END

*D_NET *91 0.000551197
*CONN
*I *5501:D I *D sg13g2_dfrbpq_1
*I *5041:Y O *D sg13g2_nor2_1
*CAP
1 *5501:D 0.000235823
2 *5041:Y 0.000235823
3 *5501:D *5039:B_N 7.95512e-05
4 *5501:D *5041:B 0
5 *5501:D *665:66 0
6 *5501:D *666:30 0
7 *5501:D *716:34 0
*RES
1 *5041:Y *5501:D 42.6265 
*END

*D_NET *92 0.000467922
*CONN
*I *5503:D I *D sg13g2_dfrbpq_1
*I *5044:Y O *D sg13g2_nor2_1
*CAP
1 *5503:D 0.000233961
2 *5044:Y 0.000233961
3 *5503:D *667:42 0
4 *5503:D *1000:28 0
*RES
1 *5044:Y *5503:D 42.0497 
*END

*D_NET *93 0.000476364
*CONN
*I *5505:D I *D sg13g2_dfrbpq_1
*I *5047:Y O *D sg13g2_nor2_1
*CAP
1 *5505:D 0.000149482
2 *5047:Y 0.000149482
3 *5505:D *5493:CLK 0
4 *5505:D *718:14 0.000177399
*RES
1 *5047:Y *5505:D 41.7819 
*END

*D_NET *94 0.00035764
*CONN
*I *5507:D I *D sg13g2_dfrbpq_1
*I *5050:Y O *D sg13g2_nor2_1
*CAP
1 *5507:D 0.00017882
2 *5050:Y 0.00017882
3 *5507:D *5050:B 0
4 *5507:D *261:31 0
5 *5507:D *660:29 0
6 *5507:D *1089:10 0
*RES
1 *5050:Y *5507:D 41.7819 
*END

*D_NET *95 0.000282666
*CONN
*I *5509:D I *D sg13g2_dfrbpq_1
*I *5053:Y O *D sg13g2_nor2_1
*CAP
1 *5509:D 0.000141333
2 *5053:Y 0.000141333
3 *5509:D *5052:A2 0
4 *5509:D *6055:A 0
*RES
1 *5053:Y *5509:D 41.5347 
*END

*D_NET *96 0.000581776
*CONN
*I *5511:D I *D sg13g2_dfrbpq_1
*I *5056:Y O *D sg13g2_nor2_1
*CAP
1 *5511:D 0.000290888
2 *5056:Y 0.000290888
3 *5511:D *6055:A 0
4 *5511:D *6077:A 0
*RES
1 *5056:Y *5511:D 43.4711 
*END

*D_NET *97 0.000761254
*CONN
*I *5513:D I *D sg13g2_dfrbpq_1
*I *5059:Y O *D sg13g2_nor2_1
*CAP
1 *5513:D 0
2 *5059:Y 0.000380627
3 *97:10 0.000380627
4 *97:10 *706:75 0
*RES
1 *5059:Y *97:10 44.4393 
2 *97:10 *5513:D 40 
*END

*D_NET *98 0.00113749
*CONN
*I *5515:D I *D sg13g2_dfrbpq_1
*I *5062:Y O *D sg13g2_nor2_1
*CAP
1 *5515:D 0.000108105
2 *5062:Y 0.000371974
3 *98:8 0.000480079
4 *5515:D *5057:A 0
5 *5515:D *706:64 0.000177334
6 *98:8 *322:10 0
7 *98:8 *658:16 0
8 *98:8 *659:37 0
9 *98:8 *706:64 0
*RES
1 *5062:Y *98:8 43.5638 
2 *98:8 *5515:D 41.1845 
*END

*D_NET *99 0.00130618
*CONN
*I *5517:D I *D sg13g2_dfrbpq_1
*I *5065:Y O *D sg13g2_nor2_1
*CAP
1 *5517:D 0.000450794
2 *5065:Y 0.000450794
3 *5517:D *5064:B1 0
4 *5517:D *5065:A 0.000404597
5 *5517:D *5517:RESET_B 0
*RES
1 *5065:Y *5517:D 45.3869 
*END

*D_NET *100 0.000956108
*CONN
*I *5519:D I *D sg13g2_dfrbpq_1
*I *5068:Y O *D sg13g2_nor2_1
*CAP
1 *5519:D 0
2 *5068:Y 0.000300797
3 *100:10 0.000300797
4 *100:10 *5068:A 0.000177257
5 *100:10 *5068:B 0.000177257
6 *100:10 *6101:A 0
7 *100:10 *709:10 0
*RES
1 *5068:Y *100:10 43.0179 
2 *100:10 *5519:D 40 
*END

*D_NET *101 0.000192008
*CONN
*I *5521:D I *D sg13g2_dfrbpq_1
*I *5071:Y O *D sg13g2_nor2_1
*CAP
1 *5521:D 9.6004e-05
2 *5071:Y 9.6004e-05
3 *5521:D *5070:B1 0
4 *5521:D *5071:B 0
*RES
1 *5071:Y *5521:D 41.133 
*END

*D_NET *102 0.00116986
*CONN
*I *5523:D I *D sg13g2_dfrbpq_1
*I *5073:Y O *D sg13g2_a21oi_1
*CAP
1 *5523:D 0.000309325
2 *5073:Y 0.000309325
3 *5523:D *5072:A1 0.00023398
4 *5523:D *5523:RESET_B 0.000242181
5 *5523:D *656:46 7.50503e-05
*RES
1 *5073:Y *5523:D 43.708 
*END

*D_NET *103 0.000363439
*CONN
*I *5525:D I *D sg13g2_dfrbpq_1
*I *5076:Y O *D sg13g2_nor2_1
*CAP
1 *5525:D 0.00018172
2 *5076:Y 0.00018172
3 *5525:D *5076:B 0
4 *5525:D *5525:RESET_B 0
*RES
1 *5076:Y *5525:D 41.9673 
*END

*D_NET *104 0.000278139
*CONN
*I *5527:D I *D sg13g2_dfrbpq_1
*I *5078:Y O *D sg13g2_a21oi_1
*CAP
1 *5527:D 0.000139069
2 *5078:Y 0.000139069
3 *5527:D *5527:RESET_B 0
*RES
1 *5078:Y *5527:D 41.5347 
*END

*D_NET *105 0.00134809
*CONN
*I *5529:D I *D sg13g2_dfrbpq_1
*I *5080:Y O *D sg13g2_a21oi_1
*CAP
1 *5529:D 0.000472281
2 *5080:Y 0.000472281
3 *5529:D *5072:B1 0
4 *5529:D *5080:A2 0
5 *5529:D *5080:B1 0.000403526
6 *5529:D *5529:RESET_B 0
7 *5529:D *6038:A 0
8 *5529:D *705:53 0
9 *5529:D *705:75 0
*RES
1 *5080:Y *5529:D 45.3869 
*END

*D_NET *106 0.000208579
*CONN
*I *5531:D I *D sg13g2_dfrbpq_1
*I *5082:Y O *D sg13g2_a21oi_1
*CAP
1 *5531:D 0.00010429
2 *5082:Y 0.00010429
3 *5531:D *632:50 0
*RES
1 *5082:Y *5531:D 41.133 
*END

*D_NET *107 0.000847658
*CONN
*I *5533:D I *D sg13g2_dfrbpq_1
*I *5084:Y O *D sg13g2_a21oi_1
*CAP
1 *5533:D 0
2 *5084:Y 0.000302735
3 *107:10 0.000302735
4 *107:10 *5083:A2 0
5 *107:10 *5084:B1 0.000242187
6 *107:10 *1029:30 0
*RES
1 *5084:Y *107:10 43.4505 
2 *107:10 *5533:D 40 
*END

*D_NET *108 0.000406208
*CONN
*I *5535:D I *D sg13g2_dfrbpq_1
*I *5086:Y O *D sg13g2_a21oi_1
*CAP
1 *5535:D 0.000203104
2 *5086:Y 0.000203104
3 *5535:D *5533:CLK 0
*RES
1 *5086:Y *5535:D 42.2763 
*END

*D_NET *109 0.00133109
*CONN
*I *5537:D I *D sg13g2_dfrbpq_1
*I *5088:Y O *D sg13g2_a21oi_1
*CAP
1 *5537:D 0.000152032
2 *5088:Y 0.000400953
3 *109:10 0.000552985
4 *5537:D *5537:RESET_B 0
5 *109:10 *5087:A1 3.23472e-05
6 *109:10 *5088:A1 8.02105e-05
7 *109:10 *5088:B1 0.000112558
8 *109:10 *255:8 0
9 *109:10 *731:27 0
*RES
1 *5088:Y *109:10 44.2848 
2 *109:10 *5537:D 41.6171 
*END

*D_NET *110 0.00129128
*CONN
*I *5539:D I *D sg13g2_dfrbpq_1
*I *5090:Y O *D sg13g2_a21oi_1
*CAP
1 *5539:D 0.000196526
2 *5090:Y 0.00022124
3 *110:8 0.000417765
4 *5539:D *5539:RESET_B 0
5 *5539:D *255:8 0
6 *110:8 *756:10 0.000455749
*RES
1 *5090:Y *110:8 43.0694 
2 *110:8 *5539:D 42.0497 
*END

*D_NET *111 0.000476898
*CONN
*I *5541:D I *D sg13g2_dfrbpq_1
*I *5092:X O *D sg13g2_and2_1
*CAP
1 *5541:D 0.000238449
2 *5092:X 0.000238449
3 *5541:D *5092:A 0
4 *5541:D *5541:RESET_B 0
5 *5541:D *1105:38 0
*RES
1 *5092:X *5541:D 42.9767 
*END

*D_NET *112 0.000397425
*CONN
*I *5543:D I *D sg13g2_dfrbpq_1
*I *5094:Y O *D sg13g2_a21oi_1
*CAP
1 *5543:D 0.000190985
2 *5094:Y 0.000190985
3 *5543:D *5094:A1 0
4 *5543:D *5094:A2 1.54556e-05
5 *5543:D *5094:B1 0
6 *5543:D *5543:RESET_B 0
*RES
1 *5094:Y *5543:D 42.1939 
*END

*D_NET *113 0.00139032
*CONN
*I *5545:D I *D sg13g2_dfrbpq_1
*I *5096:Y O *D sg13g2_a21oi_1
*CAP
1 *5545:D 0.000163374
2 *5096:Y 0.000253733
3 *113:8 0.000417107
4 *5545:D *5545:RESET_B 0
5 *5545:D *5605:RESET_B 0
6 *113:8 *252:12 0
7 *113:8 *749:8 0.000556104
8 *113:8 *1028:37 0
*RES
1 *5096:Y *113:8 43.5638 
2 *113:8 *5545:D 41.6171 
*END

*D_NET *114 0.000840723
*CONN
*I *5547:D I *D sg13g2_dfrbpq_1
*I *5098:Y O *D sg13g2_a21oi_1
*CAP
1 *5547:D 0.000319985
2 *5098:Y 0.000319985
3 *5547:D *5098:B1 0.000200753
4 *5547:D *5547:RESET_B 0
5 *5547:D *6047:A 0
*RES
1 *5098:Y *5547:D 43.8419 
*END

*D_NET *115 0.000216813
*CONN
*I *5549:D I *D sg13g2_dfrbpq_1
*I *5101:X O *D sg13g2_and2_1
*CAP
1 *5549:D 0
2 *5101:X 0.000108406
3 *115:8 0.000108406
4 *115:8 *809:25 0
*RES
1 *5101:X *115:8 41.339 
2 *115:8 *5549:D 40 
*END

*D_NET *116 0.00168265
*CONN
*I *5551:D I *D sg13g2_dfrbpq_1
*I *5103:Y O *D sg13g2_a21oi_1
*CAP
1 *5551:D 0
2 *5103:Y 0.000378907
3 *116:12 0.000378907
4 *116:12 *5103:A2 0.000240244
5 *116:12 *260:14 0.000449189
6 *116:12 *705:43 0
7 *116:12 *743:10 0.000235401
*RES
1 *5103:Y *116:12 45.2221 
2 *116:12 *5551:D 40 
*END

*D_NET *117 0.000446523
*CONN
*I *5553:D I *D sg13g2_dfrbpq_1
*I *5110:Y O *D sg13g2_a21oi_1
*CAP
1 *5553:D 0.000134567
2 *5110:Y 0.000134567
3 *5553:D *5030:A 0.000177388
4 *5553:D *5110:B1 0
5 *5553:D *5553:RESET_B 0
*RES
1 *5110:Y *5553:D 41.5347 
*END

*D_NET *118 0.000948496
*CONN
*I *5555:D I *D sg13g2_dfrbpq_1
*I *5113:X O *D sg13g2_and4_1
*CAP
1 *5555:D 0.000353261
2 *5113:X 0.000353261
3 *5555:D *5036:A 0.000241973
4 *5555:D *5113:A 0
*RES
1 *5113:X *5555:D 44.1921 
*END

*D_NET *119 0.00166056
*CONN
*I *5557:D I *D sg13g2_dfrbpq_1
*I *5116:Y O *D sg13g2_nor3_1
*CAP
1 *5557:D 0.000692896
2 *5116:Y 0.000692896
3 *5557:D *5557:RESET_B 0.000274769
4 *5557:D *5557:CLK 0
5 *5557:D *5940:A 0
6 *5557:D *356:8 0
*RES
1 *5116:Y *5557:D 47.7662 
*END

*D_NET *120 0.000823552
*CONN
*I *5559:D I *D sg13g2_dfrbpq_1
*I *5119:Y O *D sg13g2_nor3_1
*CAP
1 *5559:D 0.000371605
2 *5119:Y 0.000371605
3 *5559:D *5559:RESET_B 0
4 *5559:D *5940:A 8.0342e-05
5 *5559:D *637:25 0
*RES
1 *5119:Y *5559:D 44.3672 
*END

*D_NET *121 0.0030867
*CONN
*I *5561:D I *D sg13g2_dfrbpq_1
*I *5123:Y O *D sg13g2_nor3_1
*CAP
1 *5561:D 0
2 *5123:Y 0.000449865
3 *121:8 0.000449865
4 *121:8 *5126:A2 0.000233588
5 *121:8 *361:29 0.000285638
6 *121:8 *363:10 0
7 *121:8 *1115:16 0.00166775
8 *121:8 *1116:79 0
9 *121:8 *1118:14 0
*RES
1 *5123:Y *121:8 47.7662 
2 *121:8 *5561:D 40 
*END

*D_NET *122 0.00221575
*CONN
*I *5563:D I *D sg13g2_dfrbpq_1
*I *5125:Y O *D sg13g2_a21oi_1
*CAP
1 *5563:D 0.0001314
2 *5125:Y 0.000936953
3 *122:10 0.00106835
4 *5563:D *662:38 0
5 *122:10 *5131:C 7.90445e-05
6 *122:10 *361:25 0
7 *122:10 *1116:8 0
*RES
1 *5125:Y *122:10 48.549 
2 *122:10 *5563:D 41.1845 
*END

*D_NET *123 0.00173902
*CONN
*I *5565:D I *D sg13g2_dfrbpq_1
*I *5128:Y O *D sg13g2_nor3_1
*CAP
1 *5565:D 0.000340031
2 *5128:Y 0.000162567
3 *123:8 0.000502598
4 *5565:D *5110:A1 0
5 *5565:D *661:59 0.000501238
6 *123:8 *363:10 0.000232582
7 *123:8 *1118:14 0
*RES
1 *5128:Y *123:8 41.5862 
2 *123:8 *5565:D 43.3475 
*END

*D_NET *124 0.000567288
*CONN
*I *5567:D I *D sg13g2_dfrbpq_1
*I *5131:Y O *D sg13g2_nor3_1
*CAP
1 *5567:D 0.000283644
2 *5131:Y 0.000283644
*RES
1 *5131:Y *5567:D 42.8943 
*END

*D_NET *125 0.000916684
*CONN
*I *5569:D I *D sg13g2_dfrbpq_1
*I *5134:Y O *D sg13g2_a21oi_1
*CAP
1 *5569:D 5.49787e-05
2 *5134:Y 0.000403364
3 *125:10 0.000458342
4 *5569:D *282:12 0
5 *5569:D *285:6 0
6 *125:10 *282:12 0
7 *125:10 *348:10 0
8 *125:10 *723:10 0
9 *125:10 *1119:90 0
10 *125:10 *1119:105 0
*RES
1 *5134:Y *125:10 44.0067 
2 *125:10 *5569:D 40.5356 
*END

*D_NET *126 0.00087285
*CONN
*I *5571:D I *D sg13g2_dfrbpq_1
*I *5137:Y O *D sg13g2_nor3_1
*CAP
1 *5571:D 0.000121434
2 *5137:Y 0.000226354
3 *126:8 0.000347788
4 *5571:D *5054:A 0.000177273
5 *5571:D *1119:14 0
6 *126:8 *369:10 0
7 *126:8 *608:23 0
8 *126:8 *1007:42 0
9 *126:8 *1007:52 0
*RES
1 *5137:Y *126:8 42.0806 
2 *126:8 *5571:D 41.1845 
*END

*D_NET *127 0.0011807
*CONN
*I *5573:D I *D sg13g2_dfrbpq_1
*I *5139:Y O *D sg13g2_a21oi_1
*CAP
1 *5573:D 0.000590351
2 *5139:Y 0.000590351
3 *5573:D *5057:A 0
4 *5573:D *5865:A 0
5 *5573:D *1090:25 0
6 *5573:D *1091:34 0
*RES
1 *5139:Y *5573:D 45.5335 
*END

*D_NET *128 0.000394958
*CONN
*I *5575:D I *D sg13g2_dfrbpq_1
*I *5143:Y O *D sg13g2_nor3_1
*CAP
1 *5575:D 0.000197479
2 *5143:Y 0.000197479
3 *5575:D *607:8 0
*RES
1 *5143:Y *5575:D 42.2763 
*END

*D_NET *129 0.000382439
*CONN
*I *5577:D I *D sg13g2_dfrbpq_1
*I *5145:Y O *D sg13g2_a21oi_1
*CAP
1 *5577:D 4.22831e-05
2 *5145:Y 6.86935e-05
3 *129:8 0.000110977
4 *5577:D *374:31 8.02431e-05
5 *5577:D *691:25 8.02431e-05
*RES
1 *5145:Y *129:8 40.5974 
2 *129:8 *5577:D 40.5356 
*END

*D_NET *130 0.00130371
*CONN
*I *5579:D I *D sg13g2_dfrbpq_1
*I *5150:Y O *D sg13g2_nor3_1
*CAP
1 *5579:D 0.000491454
2 *5150:Y 0.000491454
3 *5579:D *5150:B 0
4 *5579:D *5150:C 0.000245275
5 *5579:D *5579:RESET_B 1.53311e-05
6 *5579:D *374:84 6.0197e-05
7 *5579:D *1093:74 0
*RES
1 *5150:Y *5579:D 45.6805 
*END

*D_NET *131 0.00163922
*CONN
*I *5581:D I *D sg13g2_dfrbpq_1
*I *5154:Y O *D sg13g2_nor3_1
*CAP
1 *5581:D 0.000490604
2 *5154:Y 0.000490604
3 *5581:D *5154:B 0
4 *5581:D *5154:C 0
5 *5581:D *709:41 0.000658008
*RES
1 *5154:Y *5581:D 45.6238 
*END

*D_NET *132 0.00120077
*CONN
*I *5583:D I *D sg13g2_dfrbpq_1
*I *5162:Y O *D sg13g2_a221oi_1
*CAP
1 *5583:D 0.000495879
2 *5162:Y 0.000495879
3 *5583:D *5162:B2 0.00020901
4 *5583:D *5862:A 0
5 *5583:D *348:32 0
6 *5583:D *388:14 0
7 *5583:D *388:24 0
8 *5583:D *1007:81 0
9 *5583:D *1015:60 0
*RES
1 *5162:Y *5583:D 45.0573 
*END

*D_NET *133 0.000804471
*CONN
*I *5585:D I *D sg13g2_dfrbpq_1
*I *5166:X O *D sg13g2_and4_1
*CAP
1 *5585:D 0.000281901
2 *5166:X 0.000281901
3 *5585:D *5166:C 0.00024067
*RES
1 *5166:X *5585:D 43.2033 
*END

*D_NET *134 0.00024948
*CONN
*I *5587:D I *D sg13g2_dfrbpq_1
*I *5169:Y O *D sg13g2_a221oi_1
*CAP
1 *5587:D 0.00012474
2 *5169:Y 0.00012474
3 *5587:D *390:12 0
*RES
1 *5169:Y *5587:D 41.3493 
*END

*D_NET *135 0.000539877
*CONN
*I *5589:D I *D sg13g2_dfrbpq_1
*I *5172:Y O *D sg13g2_a221oi_1
*CAP
1 *5589:D 0
2 *5172:Y 0.000269939
3 *135:12 0.000269939
4 *135:12 *286:43 0
5 *135:12 *358:22 0
6 *135:12 *605:29 0
7 *135:12 *1006:31 0
8 *135:12 *1018:37 0
9 *135:12 *1096:68 0
*RES
1 *5172:Y *135:12 42.5029 
2 *135:12 *5589:D 40 
*END

*D_NET *136 0.000237594
*CONN
*I *5591:D I *D sg13g2_dfrbpq_1
*I *5176:Y O *D sg13g2_a221oi_1
*CAP
1 *5591:D 0.000118797
2 *5176:Y 0.000118797
3 *5591:D *390:18 0
*RES
1 *5176:Y *5591:D 41.5141 
*END

*D_NET *137 0.000437771
*CONN
*I *5593:D I *D sg13g2_dfrbpq_1
*I *5179:Y O *D sg13g2_a21oi_1
*CAP
1 *5593:D 0.000218885
2 *5179:Y 0.000218885
3 *5593:D *5180:B 0
4 *5593:D *258:25 0
5 *5593:D *1101:27 0
*RES
1 *5179:Y *5593:D 42.2763 
*END

*D_NET *138 0.000477596
*CONN
*I *5595:D I *D sg13g2_dfrbpq_1
*I *5181:Y O *D sg13g2_a221oi_1
*CAP
1 *5595:D 0.000215035
2 *5181:Y 0.000215035
3 *5595:D *5181:C1 4.75265e-05
4 *5595:D *390:28 0
5 *5595:D *1008:80 0
*RES
1 *5181:Y *5595:D 42.4411 
*END

*D_NET *139 0.000329041
*CONN
*I *5597:D I *D sg13g2_dfrbpq_1
*I *5187:Y O *D sg13g2_a21oi_1
*CAP
1 *5597:D 4.87423e-05
2 *5187:Y 7.56702e-05
3 *139:8 0.000124413
4 *5597:D *4972:A 0
5 *5597:D *631:8 8.0216e-05
6 *5597:D *1103:19 0
*RES
1 *5187:Y *139:8 40.5974 
2 *139:8 *5597:D 40.5356 
*END

*D_NET *140 0.00106641
*CONN
*I *5599:D I *D sg13g2_dfrbpq_1
*I *5190:Y O *D sg13g2_a21oi_1
*CAP
1 *5599:D 2.54903e-05
2 *5190:Y 0.000243531
3 *140:10 0.000269022
4 *5599:D *255:8 4.77425e-05
5 *5599:D *709:64 4.78688e-05
6 *140:10 *5190:A1 0.000144992
7 *140:10 *1105:102 0.000287759
8 *140:10 *1106:18 0
*RES
1 *5190:Y *140:10 42.8016 
2 *140:10 *5599:D 40.3193 
*END

*D_NET *141 0.00168923
*CONN
*I *5601:D I *D sg13g2_dfrbpq_1
*I *5198:Y O *D sg13g2_nor2_1
*CAP
1 *5601:D 0.000360389
2 *5198:Y 0.000180627
3 *141:8 0.000541016
4 *5601:D *704:31 0
5 *141:8 *629:31 0.000607196
*RES
1 *5198:Y *141:8 42.8222 
2 *141:8 *5601:D 43.7801 
*END

*D_NET *142 0.000356159
*CONN
*I *5603:D I *D sg13g2_dfrbpq_1
*I *5201:Y O *D sg13g2_a221oi_1
*CAP
1 *5603:D 0.00017808
2 *5201:Y 0.00017808
3 *5603:D *5094:A2 0
4 *5603:D *5603:RESET_B 0
*RES
1 *5201:Y *5603:D 41.9673 
*END

*D_NET *143 0.00216787
*CONN
*I *5605:D I *D sg13g2_dfrbpq_1
*I *5203:Y O *D sg13g2_a221oi_1
*CAP
1 *5605:D 0
2 *5203:Y 0.000566342
3 *143:10 0.000566342
4 *143:10 *5203:A1 0.000372382
5 *143:10 *5545:CLK 0
6 *143:10 *252:12 0
7 *143:10 *253:20 0.000662803
8 *143:10 *1105:38 0
*RES
1 *5203:Y *143:10 47.3439 
2 *143:10 *5605:D 40 
*END

*D_NET *144 0.00126115
*CONN
*I *5607:D I *D sg13g2_dfrbpq_1
*I *5209:Y O *D sg13g2_a21oi_1
*CAP
1 *5607:D 0
2 *5209:Y 0.000630577
3 *144:8 0.000630577
4 *144:8 *1109:14 0
*RES
1 *5209:Y *144:8 47.0246 
2 *144:8 *5607:D 40 
*END

*D_NET *145 0.000720732
*CONN
*I *5609:D I *D sg13g2_dfrbpq_1
*I *5212:Y O *D sg13g2_a221oi_1
*CAP
1 *5609:D 0.000320992
2 *5212:Y 0.000320992
3 *5609:D *4967:A 1.54556e-05
4 *5609:D *5211:A 0
5 *5609:D *5212:B2 0
6 *5609:D *5212:C1 4.78359e-05
7 *5609:D *251:8 1.54556e-05
*RES
1 *5212:Y *5609:D 43.5226 
*END

*D_NET *146 0.00128045
*CONN
*I *5611:D I *D sg13g2_dfrbpq_1
*I *5218:Y O *D sg13g2_a21oi_1
*CAP
1 *5611:D 0.000161454
2 *5218:Y 0.00047877
3 *146:8 0.000640224
4 *5611:D *5611:RESET_B 0
5 *146:8 *4966:A 0
6 *146:8 *5103:A2 0
7 *146:8 *5218:A1 0
8 *146:8 *431:8 0
9 *146:8 *1034:36 0
*RES
1 *5218:Y *146:8 45.5414 
2 *146:8 *5611:D 41.6171 
*END

*D_NET *147 0.00156082
*CONN
*I *5613:D I *D sg13g2_dfrbpq_1
*I *5222:Y O *D sg13g2_a21oi_1
*CAP
1 *5613:D 0.000740366
2 *5222:Y 0.000740366
3 *5613:D *5222:B1 8.00842e-05
4 *5613:D *5613:RESET_B 0
5 *5613:D *388:8 0
6 *5613:D *389:18 0
7 *5613:D *605:65 0
*RES
1 *5222:Y *5613:D 47.6735 
*END

*D_NET *148 0.000564237
*CONN
*I *5615:D I *D sg13g2_dfrbpq_1
*I *5227:Y O *D sg13g2_a21oi_1
*CAP
1 *5615:D 0.000194022
2 *5227:Y 0.000194022
3 *5615:D *5227:A1 4.79124e-05
4 *5615:D *5227:A2 0
5 *5615:D *5227:B1 4.79124e-05
6 *5615:D *249:10 0
7 *5615:D *1113:19 8.03692e-05
*RES
1 *5227:Y *5615:D 42.6265 
*END

*D_NET *149 0.00062137
*CONN
*I *5617:D I *D sg13g2_dfrbpq_1
*I *5233:Y O *D sg13g2_a21oi_1
*CAP
1 *5617:D 0.000189528
2 *5233:Y 0.000189528
3 *5617:D *5231:C 0
4 *5617:D *5233:A1 0
5 *5617:D *5233:B1 0.000242313
*RES
1 *5233:Y *5617:D 41.9673 
*END

*D_NET *150 0.00114753
*CONN
*I *5619:D I *D sg13g2_dfrbpq_1
*I *5237:Y O *D sg13g2_nor2_1
*CAP
1 *5619:D 0
2 *5237:Y 0.000152599
3 *150:8 0.000152599
4 *150:8 *445:10 0.000234311
5 *150:8 *638:16 7.56308e-05
6 *150:8 *638:47 0.000532395
7 *150:8 *672:96 0
*RES
1 *5237:Y *150:8 42.8222 
2 *150:8 *5619:D 40 
*END

*D_NET *151 0.000460887
*CONN
*I *5621:D I *D sg13g2_dfrbpq_1
*I *5240:Y O *D sg13g2_nor3_1
*CAP
1 *5621:D 0.000230444
2 *5240:Y 0.000230444
*RES
1 *5240:Y *5621:D 42.6265 
*END

*D_NET *152 0.00052314
*CONN
*I *5623:D I *D sg13g2_dfrbpq_1
*I *5243:Y O *D sg13g2_nor3_1
*CAP
1 *5623:D 0.000221629
2 *5243:Y 0.000221629
3 *5623:D *5243:C 7.98824e-05
4 *5623:D *701:10 0
5 *79:8 *5623:D 0
*RES
1 *5243:Y *5623:D 42.3999 
*END

*D_NET *153 0.000675144
*CONN
*I *5625:D I *D sg13g2_dfrbpq_1
*I *5246:Y O *D sg13g2_nor3_1
*CAP
1 *5625:D 0.000192606
2 *5246:Y 4.07045e-05
3 *153:8 0.00023331
4 *5625:D *5244:B 0
5 *5625:D *5246:A 0
6 *5625:D *5246:C 8.02763e-05
7 *5625:D *5968:A 0
8 *153:8 *5246:B 0.000128247
*RES
1 *5246:Y *153:8 40.5974 
2 *153:8 *5625:D 42.0497 
*END

*D_NET *154 0.000637381
*CONN
*I *5627:D I *D sg13g2_dfrbpq_1
*I *5249:Y O *D sg13g2_nor3_1
*CAP
1 *5627:D 0.00023007
2 *5249:Y 0.00023007
3 *5627:D *5249:C 0.00017724
4 *5627:D *5968:A 0
5 *5627:D *1022:87 0
*RES
1 *5249:Y *5627:D 42.1836 
*END

*D_NET *155 0.000359792
*CONN
*I *5629:D I *D sg13g2_dfrbpq_1
*I *5252:Y O *D sg13g2_nor3_1
*CAP
1 *5629:D 0.000172168
2 *5252:Y 0.000172168
3 *5629:D *5252:A 1.54556e-05
4 *5629:D *5252:C 0
5 *5629:D *5629:RESET_B 0
*RES
1 *5252:Y *5629:D 41.8334 
*END

*D_NET *156 0.000237465
*CONN
*I *5631:D I *D sg13g2_dfrbpq_1
*I *5255:Y O *D sg13g2_nor3_1
*CAP
1 *5631:D 0.000118732
2 *5255:Y 0.000118732
3 *5631:D *5255:B 0
4 *5631:D *5255:C 0
5 *5631:D *695:10 0
*RES
1 *5255:Y *5631:D 41.133 
*END

*D_NET *157 0.000688621
*CONN
*I *5633:D I *D sg13g2_dfrbpq_1
*I *5258:Y O *D sg13g2_nor3_1
*CAP
1 *5633:D 0.000207005
2 *5258:Y 0.000207005
3 *5633:D *5258:A 0
4 *5633:D *5258:B 0.000274611
*RES
1 *5258:Y *5633:D 42.4308 
*END

*D_NET *158 0.000208785
*CONN
*I *5635:D I *D sg13g2_dfrbpq_1
*I *5261:Y O *D sg13g2_nor3_1
*CAP
1 *5635:D 0.000104393
2 *5261:Y 0.000104393
3 *5635:D *5261:C 0
4 *5635:D *5635:RESET_B 0
*RES
1 *5261:Y *5635:D 41.133 
*END

*D_NET *159 0.000970938
*CONN
*I *6015:A I *D sg13g2_dlygate4sd3_1
*I *5264:Y O *D sg13g2_nor3_1
*CAP
1 *6015:A 5.61002e-05
2 *5264:Y 0.000181532
3 *159:8 0.000237632
4 *6015:A *5337:B 8.00842e-05
5 *159:8 *663:46 0.000287256
6 *159:8 *687:96 0.000128334
7 *159:8 *690:31 0
*RES
1 *5264:Y *159:8 42.3278 
2 *159:8 *6015:A 40.5356 
*END

*D_NET *160 0.000592437
*CONN
*I *5639:D I *D sg13g2_dfrbpq_1
*I *5267:Y O *D sg13g2_nor3_1
*CAP
1 *5639:D 0
2 *5267:Y 0.000208323
3 *160:10 0.000208323
4 *160:10 *5267:C 0.00017579
5 *160:10 *1068:23 0
*RES
1 *5267:Y *160:10 42.0291 
2 *160:10 *5639:D 40 
*END

*D_NET *161 0.000372954
*CONN
*I *5641:D I *D sg13g2_dfrbpq_1
*I *5270:Y O *D sg13g2_nor3_1
*CAP
1 *5641:D 0.000186477
2 *5270:Y 0.000186477
3 *5641:D *668:60 0
4 *5641:D *920:12 0
*RES
1 *5270:Y *5641:D 41.7819 
*END

*D_NET *162 0.0008343
*CONN
*I *6026:A I *D sg13g2_dlygate4sd3_1
*I *5273:Y O *D sg13g2_nor3_1
*CAP
1 *6026:A 0
2 *5273:Y 0.00041715
3 *162:10 0.00041715
4 *162:10 *5273:C 0
5 *162:10 *5643:D 0
6 *162:10 *5906:A 0
7 *162:10 *5919:A 0
*RES
1 *5273:Y *162:10 44.223 
2 *162:10 *6026:A 40 
*END

*D_NET *163 0.000224156
*CONN
*I *5645:D I *D sg13g2_dfrbpq_1
*I *5276:Y O *D sg13g2_nor3_1
*CAP
1 *5645:D 0.000112078
2 *5276:Y 0.000112078
3 *5645:D *5275:A2 0
4 *5645:D *5276:A 0
*RES
1 *5276:Y *5645:D 41.4111 
*END

*D_NET *164 0.000193418
*CONN
*I *5647:D I *D sg13g2_dfrbpq_1
*I *5279:Y O *D sg13g2_nor3_1
*CAP
1 *5647:D 0
2 *5279:Y 9.67088e-05
3 *164:8 9.67088e-05
4 *164:8 *5277:B 0
5 *164:8 *474:8 0
6 *164:8 *669:60 0
*RES
1 *5279:Y *164:8 41.0918 
2 *164:8 *5647:D 40 
*END

*D_NET *165 0.000299563
*CONN
*I *5649:D I *D sg13g2_dfrbpq_1
*I *5282:Y O *D sg13g2_nor3_1
*CAP
1 *5649:D 0.00012583
2 *5282:Y 0.00012583
3 *5649:D *5282:A 0
4 *5649:D *5282:C 4.79017e-05
*RES
1 *5282:Y *5649:D 41.4111 
*END

*D_NET *166 0.000283467
*CONN
*I *5651:D I *D sg13g2_dfrbpq_1
*I *5285:Y O *D sg13g2_nor3_1
*CAP
1 *5651:D 0.000101678
2 *5285:Y 0.000101678
3 *5651:D *5285:C 8.01118e-05
4 *5651:D *1086:25 0
*RES
1 *5285:Y *5651:D 41.133 
*END

*D_NET *167 0.00041394
*CONN
*I *5653:D I *D sg13g2_dfrbpq_1
*I *5288:Y O *D sg13g2_nor3_1
*CAP
1 *5653:D 0.000119057
2 *5288:Y 0.000119057
3 *5653:D *5653:RESET_B 0
4 *5653:D *702:62 0.000175826
*RES
1 *5288:Y *5653:D 41.1845 
*END

*D_NET *168 0.000522078
*CONN
*I *6012:A I *D sg13g2_dlygate4sd3_1
*I *5291:Y O *D sg13g2_nor3_1
*CAP
1 *6012:A 0.000261039
2 *5291:Y 0.000261039
3 *6012:A *5909:A 0
4 *6012:A *640:18 0
5 *6012:A *702:8 0
6 *6012:A *703:48 0
*RES
1 *5291:Y *6012:A 42.9252 
*END

*D_NET *169 0.000733614
*CONN
*I *5657:D I *D sg13g2_dfrbpq_1
*I *5294:Y O *D sg13g2_nor3_1
*CAP
1 *5657:D 0.000245697
2 *5294:Y 0.000245697
3 *5657:D *5294:C 0.00024222
4 *5657:D *5657:RESET_B 0
5 *5657:D *5922:A 0
6 *5657:D *484:12 0
*RES
1 *5294:Y *5657:D 42.6471 
*END

*D_NET *170 0.000271481
*CONN
*I *5659:D I *D sg13g2_dfrbpq_1
*I *5297:Y O *D sg13g2_nor3_1
*CAP
1 *5659:D 9.56024e-05
2 *5297:Y 9.56024e-05
3 *5659:D *485:10 8.0276e-05
4 *5659:D *696:111 0
*RES
1 *5297:Y *5659:D 41.133 
*END

*D_NET *171 0.000606775
*CONN
*I *5661:D I *D sg13g2_dfrbpq_1
*I *5300:Y O *D sg13g2_nor3_1
*CAP
1 *5661:D 0.000166455
2 *5300:Y 0.000166455
3 *5661:D *5322:B 0
4 *5661:D *5324:B 0.000273864
5 *5661:D *5661:RESET_B 0
*RES
1 *5300:Y *5661:D 41.8334 
*END

*D_NET *172 0.000262143
*CONN
*I *6006:A I *D sg13g2_dlygate4sd3_1
*I *5303:Y O *D sg13g2_nor3_1
*CAP
1 *6006:A 0.000131071
2 *5303:Y 0.000131071
3 *6006:A *5303:A 0
4 *6006:A *5326:A1 0
5 *6006:A *683:82 0
6 *6006:A *695:103 0
*RES
1 *5303:Y *6006:A 41.3802 
*END

*D_NET *173 0.000839942
*CONN
*I *5665:D I *D sg13g2_dfrbpq_1
*I *5306:Y O *D sg13g2_nor3_1
*CAP
1 *5665:D 0.000331763
2 *5306:Y 0.000331763
3 *5665:D *5304:B 0
4 *5665:D *5306:C 0.000176416
5 *5665:D *671:55 0
6 *5665:D *1062:18 0
*RES
1 *5306:Y *5665:D 43.5638 
*END

*D_NET *174 0.00100716
*CONN
*I *6017:A I *D sg13g2_dlygate4sd3_1
*I *5309:Y O *D sg13g2_nor3_1
*CAP
1 *6017:A 0.00043992
2 *5309:Y 0.00043992
3 *6017:A *5309:B 4.76053e-05
4 *6017:A *5667:D 0
5 *6017:A *954:10 7.97166e-05
6 *6017:A *1030:16 0
*RES
1 *5309:Y *6017:A 44.3672 
*END

*D_NET *175 0.000880234
*CONN
*I *5991:A I *D sg13g2_dlygate4sd3_1
*I *5312:Y O *D sg13g2_nor3_1
*CAP
1 *5991:A 0.000144273
2 *5312:Y 0.000295844
3 *175:8 0.000440117
4 *5991:A *5310:A 0
5 *5991:A *5311:A2 0
6 *5991:A *5669:D 0
*RES
1 *5312:Y *175:8 42.575 
2 *175:8 *5991:A 41.4008 
*END

*D_NET *176 0.00133105
*CONN
*I *5671:D I *D sg13g2_dfrbpq_1
*I *5315:Y O *D sg13g2_nor3_1
*CAP
1 *5671:D 0.000372017
2 *5315:Y 0.000123734
3 *176:8 0.000495751
4 *5671:D *5671:RESET_B 0
5 *5671:D *5868:A 0.000339552
6 *5671:D *718:54 0
*RES
1 *5315:Y *176:8 41.0918 
2 *176:8 *5671:D 43.5638 
*END

*D_NET *177 0.000597621
*CONN
*I *5673:D I *D sg13g2_dfrbpq_1
*I *5318:Y O *D sg13g2_nor3_1
*CAP
1 *5673:D 0.000161557
2 *5318:Y 0.000161557
3 *5673:D *5316:B 0.000274507
4 *5673:D *5673:RESET_B 0
5 *5673:D *674:40 0
*RES
1 *5318:Y *5673:D 41.8334 
*END

*D_NET *178 0.00173892
*CONN
*I *5988:A I *D sg13g2_dlygate4sd3_1
*I *5321:Y O *D sg13g2_nor3_1
*CAP
1 *5988:A 0.000643435
2 *5321:Y 0.000643435
3 *5988:A *5321:A 0.000177399
4 *5988:A *5675:RESET_B 0.00027465
5 *5988:A *605:273 0
6 *5988:A *605:277 0
7 *5988:A *605:279 0
8 *5988:A *618:10 0
9 *5988:A *1026:61 0
*RES
1 *5321:Y *5988:A 47.0864 
*END

*D_NET *179 0.000450067
*CONN
*I *5677:D I *D sg13g2_dfrbpq_1
*I *5324:Y O *D sg13g2_nor3_1
*CAP
1 *5677:D 0.000225034
2 *5324:Y 0.000225034
3 *5677:D *605:296 0
4 *5677:D *605:302 0
*RES
1 *5324:Y *5677:D 42.1836 
*END

*D_NET *180 0.00074622
*CONN
*I *5679:D I *D sg13g2_dfrbpq_1
*I *5327:Y O *D sg13g2_nor3_1
*CAP
1 *5679:D 0.000235895
2 *5327:Y 0.000235895
3 *5679:D *5326:B1 0
4 *5679:D *5327:A 0
5 *5679:D *505:10 0
6 *5679:D *695:103 0
7 *5679:D *1022:66 0.00027443
*RES
1 *5327:Y *5679:D 42.3999 
*END

*D_NET *181 0.00144707
*CONN
*I *5985:A I *D sg13g2_dlygate4sd3_1
*I *5330:Y O *D sg13g2_nor3_1
*CAP
1 *5985:A 0
2 *5330:Y 0.000114693
3 *181:8 0.000114693
4 *181:8 *508:8 0.000608842
5 *181:8 *671:32 0.000608842
*RES
1 *5330:Y *181:8 42.8222 
2 *181:8 *5985:A 40 
*END

*D_NET *182 0.000378508
*CONN
*I *5993:A I *D sg13g2_dlygate4sd3_1
*I *5333:Y O *D sg13g2_nor3_1
*CAP
1 *5993:A 0.000189254
2 *5333:Y 0.000189254
3 *5993:A *5333:A 0
4 *5993:A *5333:B 0
5 *5993:A *623:31 0
*RES
1 *5333:Y *5993:A 41.9982 
*END

*D_NET *183 0.00190071
*CONN
*I *5685:D I *D sg13g2_dfrbpq_1
*I *5335:Y O *D sg13g2_a21oi_1
*CAP
1 *5685:D 0
2 *5335:Y 0.000700568
3 *183:10 0.000700568
4 *183:10 *555:10 0
5 *183:10 *605:189 0
6 *183:10 *700:54 0.000177339
7 *183:10 *700:60 8.00842e-05
8 *183:10 *700:92 0
9 *183:10 *1035:22 0.000242154
*RES
1 *5335:Y *183:10 46.4169 
2 *183:10 *5685:D 40 
*END

*D_NET *184 9.45957e-05
*CONN
*I *5687:D I *D sg13g2_dfrbpq_1
*I *5490:X O *D sg13g2_and2_1
*CAP
1 *5687:D 4.72978e-05
2 *5490:X 4.72978e-05
*RES
1 *5490:X *5687:D 40.5974 
*END

*D_NET *185 0.000234071
*CONN
*I *5689:D I *D sg13g2_dfrbpq_1
*I *5337:X O *D sg13g2_and2_1
*CAP
1 *5689:D 0
2 *5337:X 0.000117035
3 *185:8 0.000117035
4 *185:8 *687:77 0
*RES
1 *5337:X *185:8 41.339 
2 *185:8 *5689:D 40 
*END

*D_NET *186 0.000709466
*CONN
*I *5691:D I *D sg13g2_dfrbpq_1
*I *5339:X O *D sg13g2_and2_1
*CAP
1 *5691:D 0.000226572
2 *5339:X 0.000128161
3 *186:8 0.000354733
4 *5691:D *5691:RESET_B 0
5 *186:8 *703:48 0
6 *79:8 *5691:D 0
*RES
1 *5339:X *186:8 41.5862 
2 *186:8 *5691:D 42.4823 
*END

*D_NET *187 0.000384436
*CONN
*I *5693:D I *D sg13g2_dfrbpq_1
*I *5341:X O *D sg13g2_and2_1
*CAP
1 *5693:D 0.000168347
2 *5341:X 0.000168347
3 *5693:D *5341:A 0
4 *5693:D *5341:B 0
5 *5693:D *5693:RESET_B 0
6 *5693:D *712:8 4.77425e-05
7 *5693:D *1032:8 0
*RES
1 *5341:X *5693:D 41.8746 
*END

*D_NET *188 0.00149966
*CONN
*I *5695:D I *D sg13g2_dfrbpq_1
*I *5343:X O *D sg13g2_and2_1
*CAP
1 *5695:D 0.000334854
2 *5343:X 0.000334854
3 *5695:D *5695:RESET_B 0
4 *5695:D *652:51 0.000274479
5 *5695:D *713:22 0
6 *5695:D *1033:57 0.00055547
*RES
1 *5343:X *5695:D 43.914 
*END

*D_NET *189 0.000390822
*CONN
*I *5697:D I *D sg13g2_dfrbpq_1
*I *5345:X O *D sg13g2_and2_1
*CAP
1 *5697:D 0.000195411
2 *5345:X 0.000195411
3 *5697:D *5345:A 0
4 *5697:D *5345:B 0
5 *5697:D *1032:31 0
*RES
1 *5345:X *5697:D 42.0291 
*END

*D_NET *190 0.00049259
*CONN
*I *5699:D I *D sg13g2_dfrbpq_1
*I *5347:X O *D sg13g2_and2_1
*CAP
1 *5699:D 0.000246295
2 *5347:X 0.000246295
3 *5699:D *5699:RESET_B 0
4 *5699:D *5942:A 0
5 *5699:D *711:57 0
*RES
1 *5347:X *5699:D 42.2145 
*END

*D_NET *191 0.000487291
*CONN
*I *5701:D I *D sg13g2_dfrbpq_1
*I *5349:X O *D sg13g2_and2_1
*CAP
1 *5701:D 0.000235918
2 *5349:X 0.000235918
3 *5701:D *5701:RESET_B 1.54556e-05
4 *5701:D *714:39 0
*RES
1 *5349:X *5701:D 42.4617 
*END

*D_NET *192 0.000228175
*CONN
*I *5703:D I *D sg13g2_dfrbpq_1
*I *5351:X O *D sg13g2_and2_1
*CAP
1 *5703:D 0.000114087
2 *5351:X 0.000114087
3 *5703:D *5703:RESET_B 0
*RES
1 *5351:X *5703:D 41.1845 
*END

*D_NET *193 9.51238e-05
*CONN
*I *5705:D I *D sg13g2_dfrbpq_1
*I *5353:X O *D sg13g2_and2_1
*CAP
1 *5705:D 4.75619e-05
2 *5353:X 4.75619e-05
3 *5705:D *1023:127 0
*RES
1 *5353:X *5705:D 40.5974 
*END

*D_NET *194 0.000642092
*CONN
*I *5707:D I *D sg13g2_dfrbpq_1
*I *5355:X O *D sg13g2_and2_1
*CAP
1 *5707:D 0.000188931
2 *5355:X 0.000188931
3 *5707:D *5908:A 0
4 *5707:D *1026:122 0.000264231
*RES
1 *5355:X *5707:D 41.9673 
*END

*D_NET *195 0.000634231
*CONN
*I *5709:D I *D sg13g2_dfrbpq_1
*I *5357:X O *D sg13g2_and2_1
*CAP
1 *5709:D 0.000212193
2 *5357:X 0.000212193
3 *5709:D *5709:RESET_B 0
4 *5709:D *5855:A 0
5 *5709:D *619:14 0.000209845
*RES
1 *5357:X *5709:D 42.3999 
*END

*D_NET *196 0.000860981
*CONN
*I *5711:D I *D sg13g2_dfrbpq_1
*I *5359:X O *D sg13g2_and2_1
*CAP
1 *5711:D 0.000430491
2 *5359:X 0.000430491
3 *5711:D *712:37 0
*RES
1 *5359:X *5711:D 44.1612 
*END

*D_NET *197 0.000422497
*CONN
*I *5713:D I *D sg13g2_dfrbpq_1
*I *5361:X O *D sg13g2_and2_1
*CAP
1 *5713:D 0.000211249
2 *5361:X 0.000211249
3 *5713:D *5361:B 0
4 *5713:D *617:26 0
*RES
1 *5361:X *5713:D 41.9673 
*END

*D_NET *198 0.000316848
*CONN
*I *5715:D I *D sg13g2_dfrbpq_1
*I *5363:X O *D sg13g2_and2_1
*CAP
1 *5715:D 0.000158424
2 *5363:X 0.000158424
3 *5715:D *5363:A 0
4 *5715:D *1022:66 0
5 *5715:D *1061:34 0
*RES
1 *5363:X *5715:D 41.6171 
*END

*D_NET *199 0.00117394
*CONN
*I *5717:D I *D sg13g2_dfrbpq_1
*I *5365:X O *D sg13g2_and2_1
*CAP
1 *5717:D 0.000125658
2 *5365:X 0.000461313
3 *199:8 0.000586971
4 *5717:D *5717:RESET_B 0
5 *199:8 *644:24 0
6 *199:8 *714:55 0
7 *199:8 *1031:31 0
*RES
1 *5365:X *199:8 44.5526 
2 *199:8 *5717:D 41.1845 
*END

*D_NET *200 0.000359476
*CONN
*I *5719:D I *D sg13g2_dfrbpq_1
*I *5367:X O *D sg13g2_and2_1
*CAP
1 *5719:D 0.000139714
2 *5367:X 0.000139714
3 *5719:D *5367:A 8.00473e-05
4 *5719:D *5719:RESET_B 0
5 *5719:D *995:23 0
*RES
1 *5367:X *5719:D 41.5347 
*END

*D_NET *201 0.000436919
*CONN
*I *5721:D I *D sg13g2_dfrbpq_1
*I *5369:X O *D sg13g2_and2_1
*CAP
1 *5721:D 0.00021846
2 *5369:X 0.00021846
3 *5721:D *5385:B 0
4 *5721:D *5721:RESET_B 0
*RES
1 *5369:X *5721:D 42.2145 
*END

*D_NET *202 0.000787748
*CONN
*I *5723:D I *D sg13g2_dfrbpq_1
*I *5371:X O *D sg13g2_and2_1
*CAP
1 *5723:D 0.000353832
2 *5371:X 0.000353832
3 *5723:D *5370:A1 0
4 *5723:D *5371:A 0
5 *5723:D *5723:RESET_B 0
6 *5723:D *5868:A 0
7 *5723:D *5869:A 8.00842e-05
*RES
1 *5371:X *5723:D 43.4814 
*END

*D_NET *203 0.000120122
*CONN
*I *5725:D I *D sg13g2_dfrbpq_1
*I *5373:X O *D sg13g2_and2_1
*CAP
1 *5725:D 0
2 *5373:X 6.00611e-05
3 *203:8 6.00611e-05
4 *203:8 *628:36 0
5 *203:8 *973:23 0
*RES
1 *5373:X *203:8 40.5974 
2 *203:8 *5725:D 40 
*END

*D_NET *204 0.00028968
*CONN
*I *5727:D I *D sg13g2_dfrbpq_1
*I *5375:X O *D sg13g2_and2_1
*CAP
1 *5727:D 0.00014484
2 *5375:X 0.00014484
3 *5727:D *712:31 0
*RES
1 *5375:X *5727:D 41.5347 
*END

*D_NET *205 0.000571315
*CONN
*I *5729:D I *D sg13g2_dfrbpq_1
*I *5377:X O *D sg13g2_and2_1
*CAP
1 *5729:D 0.000165186
2 *5377:X 0.000165186
3 *5729:D *5729:RESET_B 0
4 *5729:D *617:26 0.000240944
*RES
1 *5377:X *5729:D 41.8849 
*END

*D_NET *206 0.000396509
*CONN
*I *5731:D I *D sg13g2_dfrbpq_1
*I *5379:X O *D sg13g2_and2_1
*CAP
1 *5731:D 0.000198254
2 *5379:X 0.000198254
3 *5731:D *5379:B 0
4 *5731:D *533:10 0
*RES
1 *5379:X *5731:D 41.7819 
*END

*D_NET *207 9.90264e-05
*CONN
*I *5733:D I *D sg13g2_dfrbpq_1
*I *5381:X O *D sg13g2_and2_1
*CAP
1 *5733:D 4.95132e-05
2 *5381:X 4.95132e-05
*RES
1 *5381:X *5733:D 40.5974 
*END

*D_NET *208 9.45957e-05
*CONN
*I *5735:D I *D sg13g2_dfrbpq_1
*I *5383:X O *D sg13g2_and2_1
*CAP
1 *5735:D 4.72978e-05
2 *5383:X 4.72978e-05
*RES
1 *5383:X *5735:D 40.5974 
*END

*D_NET *209 9.45957e-05
*CONN
*I *5737:D I *D sg13g2_dfrbpq_1
*I *5385:X O *D sg13g2_and2_1
*CAP
1 *5737:D 4.72978e-05
2 *5385:X 4.72978e-05
*RES
1 *5385:X *5737:D 40.5974 
*END

*D_NET *210 0.000310851
*CONN
*I *5739:D I *D sg13g2_dfrbpq_1
*I *5387:X O *D sg13g2_and2_1
*CAP
1 *5739:D 0.000155425
2 *5387:X 0.000155425
3 *5739:D *5739:RESET_B 0
*RES
1 *5387:X *5739:D 41.7819 
*END

*D_NET *211 0.000547821
*CONN
*I *5741:D I *D sg13g2_dfrbpq_1
*I *5389:X O *D sg13g2_and2_1
*CAP
1 *5741:D 5.68374e-05
2 *5389:X 0.000217073
3 *211:10 0.000273911
4 *5741:D *5389:A 0
5 *5741:D *717:53 0
6 *211:10 *5389:A 0
7 *211:10 *5741:RESET_B 0
8 *211:10 *717:81 0
9 *211:10 *983:10 0
*RES
1 *5389:X *211:10 42.0909 
2 *211:10 *5741:D 40.5356 
*END

*D_NET *212 0.000737353
*CONN
*I *5743:D I *D sg13g2_dfrbpq_1
*I *5391:X O *D sg13g2_and2_1
*CAP
1 *5743:D 9.28306e-05
2 *5391:X 9.83502e-05
3 *212:8 0.000191181
4 *5743:D *5391:A 0.000177466
5 *5743:D *5855:A 0.000177526
6 *212:8 *627:17 0
*RES
1 *5391:X *212:8 41.0918 
2 *212:8 *5743:D 41.1845 
*END

*D_NET *213 0.000458939
*CONN
*I *5745:D I *D sg13g2_dfrbpq_1
*I *5393:X O *D sg13g2_and2_1
*CAP
1 *5745:D 0.00022947
2 *5393:X 0.00022947
3 *5745:D *5393:A 0
4 *5745:D *5745:RESET_B 0
5 *5745:D *712:37 0
6 *5745:D *712:43 0
*RES
1 *5393:X *5745:D 42.5647 
*END

*D_NET *214 0.00112954
*CONN
*I *5747:D I *D sg13g2_dfrbpq_1
*I *5395:X O *D sg13g2_and2_1
*CAP
1 *5747:D 0
2 *5395:X 0.000564768
3 *214:12 0.000564768
4 *214:12 *624:10 0
5 *214:12 *711:20 0
6 *214:12 *750:8 0
7 *214:12 *986:10 0
*RES
1 *5395:X *214:12 45.5929 
2 *214:12 *5747:D 40 
*END

*D_NET *215 0.000409056
*CONN
*I *5749:D I *D sg13g2_dfrbpq_1
*I *5397:X O *D sg13g2_and2_1
*CAP
1 *5749:D 0.000204528
2 *5397:X 0.000204528
3 *5749:D *5397:A 0
4 *5749:D *5397:B 0
5 *5749:D *5749:RESET_B 0
6 *5749:D *988:14 0
*RES
1 *5397:X *5749:D 41.9673 
*END

*D_NET *216 9.45957e-05
*CONN
*I *5751:D I *D sg13g2_dfrbpq_1
*I *5399:X O *D sg13g2_and2_1
*CAP
1 *5751:D 4.72978e-05
2 *5399:X 4.72978e-05
3 *5751:D *5399:A 0
*RES
1 *5399:X *5751:D 40.5974 
*END

*D_NET *217 0.000472708
*CONN
*I *5753:D I *D sg13g2_dfrbpq_1
*I *5402:Y O *D sg13g2_nand3_1
*CAP
1 *5753:D 0.000147657
2 *5402:Y 0.000147657
3 *5753:D *5014:A2 0.000177394
4 *5753:D *718:22 0
*RES
1 *5402:Y *5753:D 41.5347 
*END

*D_NET *218 0.000682549
*CONN
*I *5755:D I *D sg13g2_dfrbpq_1
*I *5404:Y O *D sg13g2_a21oi_1
*CAP
1 *5755:D 0.000179933
2 *5404:Y 0.000179933
3 *5755:D *5404:A1 0
4 *5755:D *642:68 8.03692e-05
5 *5755:D *703:14 0.000242313
*RES
1 *5404:Y *5755:D 41.9673 
*END

*D_NET *219 0.000977992
*CONN
*I *5757:D I *D sg13g2_dfrbpq_1
*I *5413:Y O *D sg13g2_nor2_1
*CAP
1 *5757:D 9.24131e-05
2 *5413:Y 0.000162071
3 *219:10 0.000254484
4 *5757:D *5757:RESET_B 0
5 *5757:D *556:8 0.000111946
6 *5757:D *676:14 0
7 *219:10 *5488:B1 0
8 *219:10 *556:8 0
9 *219:10 *693:14 0.000357077
10 *219:10 *698:26 0
*RES
1 *5413:Y *219:10 42.1527 
2 *219:10 *5757:D 40.9682 
*END

*D_NET *220 0.000552074
*CONN
*I *5759:D I *D sg13g2_dfrbpq_1
*I *5418:Y O *D sg13g2_nor4_1
*CAP
1 *5759:D 0.000268309
2 *5418:Y 0.000268309
3 *5759:D *5418:D 1.54556e-05
4 *5759:D *5437:A 0
5 *5759:D *1009:8 0
6 *5759:D *1009:24 0
7 *5759:D *1052:16 0
*RES
1 *5418:Y *5759:D 42.3999 
*END

*D_NET *221 0.000460124
*CONN
*I *5761:D I *D sg13g2_dfrbpq_1
*I *5420:Y O *D sg13g2_nor4_1
*CAP
1 *5761:D 0
2 *5420:Y 0.000230062
3 *221:10 0.000230062
4 *221:10 *719:43 0
5 *221:10 *1033:12 0
*RES
1 *5420:Y *221:10 42.5235 
2 *221:10 *5761:D 40 
*END

*D_NET *222 0.00056591
*CONN
*I *5763:D I *D sg13g2_dfrbpq_1
*I *5422:Y O *D sg13g2_nor4_1
*CAP
1 *5763:D 0
2 *5422:Y 0.000138553
3 *222:10 0.000138553
4 *222:10 *5422:D 8.03692e-05
5 *222:10 *1009:24 8.0276e-05
6 *222:10 *1035:39 0
7 *222:10 *1126:18 0.00012816
8 *222:10 *1128:10 0
*RES
1 *5422:Y *222:10 41.6274 
2 *222:10 *5763:D 40 
*END

*D_NET *223 0.000161716
*CONN
*I *5765:D I *D sg13g2_dfrbpq_1
*I *5423:X O *D sg13g2_and4_1
*CAP
1 *5765:D 8.08582e-05
2 *5423:X 8.08582e-05
*RES
1 *5423:X *5765:D 40.9167 
*END

*D_NET *224 0.000318492
*CONN
*I *5767:D I *D sg13g2_dfrbpq_1
*I *5429:Y O *D sg13g2_nor2_1
*CAP
1 *5767:D 0.000159246
2 *5429:Y 0.000159246
3 *5767:D *5767:RESET_B 0
*RES
1 *5429:Y *5767:D 41.7819 
*END

*D_NET *225 0.000572111
*CONN
*I *5769:D I *D sg13g2_dfrbpq_1
*I *5431:Y O *D sg13g2_a21oi_1
*CAP
1 *5769:D 0.000286056
2 *5431:Y 0.000286056
3 *5769:D *5769:RESET_B 0
4 *5769:D *649:25 0
*RES
1 *5431:Y *5769:D 43.2033 
*END

*D_NET *226 0.000750717
*CONN
*I *5771:D I *D sg13g2_dfrbpq_1
*I *5434:Y O *D sg13g2_a21oi_1
*CAP
1 *5771:D 0.000335316
2 *5434:Y 0.000335316
3 *5771:D *5433:A 8.00842e-05
4 *5771:D *5434:A2 0
5 *5771:D *5434:B1 0
6 *5771:D *551:28 0
7 *5771:D *719:43 0
*RES
1 *5434:Y *5771:D 43.6977 
*END

*D_NET *227 0.00143753
*CONN
*I *5773:D I *D sg13g2_dfrbpq_1
*I *5436:Y O *D sg13g2_a21oi_1
*CAP
1 *5773:D 0.000119795
2 *5436:Y 0.000598968
3 *227:8 0.000718763
4 *5773:D *5773:RESET_B 0
5 *227:8 *557:18 0
6 *227:8 *649:25 0
7 *227:8 *699:16 0
8 *227:8 *1123:47 0
*RES
1 *5436:Y *227:8 47.0246 
2 *227:8 *5773:D 41.1845 
*END

*D_NET *228 0.0009595
*CONN
*I *5775:D I *D sg13g2_dfrbpq_1
*I *5439:Y O *D sg13g2_a21oi_1
*CAP
1 *5775:D 4.68513e-05
2 *5439:Y 0.000392794
3 *228:10 0.000439645
4 *5775:D *5439:A2 0
5 *5775:D *5441:B1 8.02102e-05
6 *228:10 *5439:A2 0
7 *228:10 *552:25 0
8 *228:10 *570:12 0
9 *228:10 *1122:10 0
10 *69:39 *228:10 0
*RES
1 *5439:Y *228:10 44.0067 
2 *228:10 *5775:D 40.5356 
*END

*D_NET *229 0.00124571
*CONN
*I *5777:D I *D sg13g2_dfrbpq_1
*I *5442:X O *D sg13g2_a21o_1
*CAP
1 *5777:D 2.94599e-05
2 *5442:X 0.000451661
3 *229:10 0.000481121
4 *5777:D *714:27 4.79124e-05
5 *229:10 *5442:A2 0
6 *229:10 *5442:A1 0
7 *229:10 *5777:CLK 0.000235556
8 *69:39 *229:10 0
*RES
1 *5442:X *229:10 45.598 
2 *229:10 *5777:D 40.3193 
*END

*D_NET *230 0.000326298
*CONN
*I *5779:D I *D sg13g2_dfrbpq_1
*I *5445:Y O *D sg13g2_nor4_1
*CAP
1 *5779:D 0.000115407
2 *5445:Y 0.000115407
3 *5779:D *5445:D 8.00842e-05
4 *5779:D *680:12 1.54008e-05
*RES
1 *5445:Y *5779:D 41.3802 
*END

*D_NET *231 0.000496627
*CONN
*I *5781:D I *D sg13g2_dfrbpq_1
*I *5448:Y O *D sg13g2_nor4_1
*CAP
1 *5781:D 0.000240603
2 *5448:Y 0.000240603
3 *5781:D *5446:A 0
4 *5781:D *5446:B 0
5 *5781:D *5448:C 1.54205e-05
6 *5781:D *5781:RESET_B 0
7 *5781:D *1004:50 0
*RES
1 *5448:Y *5781:D 42.4205 
*END

*D_NET *232 0.000694063
*CONN
*I *5783:D I *D sg13g2_dfrbpq_1
*I *5451:Y O *D sg13g2_nor4_1
*CAP
1 *5783:D 0
2 *5451:Y 0.000203109
3 *232:10 0.000203109
4 *232:10 *5449:B 0
5 *232:10 *5876:A 0
6 *232:10 *1004:29 0.000287846
7 *232:10 *1134:18 0
*RES
1 *5451:Y *232:10 42.5235 
2 *232:10 *5783:D 40 
*END

*D_NET *233 0.00123058
*CONN
*I *5785:D I *D sg13g2_dfrbpq_1
*I *5454:Y O *D sg13g2_nor4_1
*CAP
1 *5785:D 0.000143148
2 *5454:Y 0.000472143
3 *233:8 0.000615292
4 *5785:D *5785:RESET_B 0
5 *5785:D *6039:A 0
6 *5785:D *699:26 0
7 *233:8 *5458:B 0
8 *233:8 *5460:B 0
9 *233:8 *693:75 0
*RES
1 *5454:Y *233:8 44.5526 
2 *233:8 *5785:D 41.2619 
*END

*D_NET *234 0.00130064
*CONN
*I *5787:D I *D sg13g2_dfrbpq_1
*I *5457:Y O *D sg13g2_nor4_1
*CAP
1 *5787:D 4.96711e-05
2 *5457:Y 0.000600647
3 *234:8 0.000650318
4 *5787:D *5787:RESET_B 0
5 *5787:D *699:26 0
6 *234:8 *5769:CLK 0
7 *234:8 *5787:CLK 0
8 *234:8 *585:8 0
*RES
1 *5457:Y *234:8 46.7774 
2 *234:8 *5787:D 40.5356 
*END

*D_NET *235 0.000217433
*CONN
*I *5789:D I *D sg13g2_dfrbpq_1
*I *5460:Y O *D sg13g2_nor4_1
*CAP
1 *5789:D 0.000100989
2 *5460:Y 0.000100989
3 *5789:D *5460:B 0
4 *5789:D *5460:D 1.54556e-05
5 *5789:D *699:26 0
*RES
1 *5460:Y *5789:D 41.133 
*END

*D_NET *236 0.000746008
*CONN
*I *5791:D I *D sg13g2_dfrbpq_1
*I *5464:Y O *D sg13g2_nor3_1
*CAP
1 *5791:D 0.000365339
2 *5464:Y 0.000365339
3 *5791:D *5464:C 1.53311e-05
4 *5791:D *5791:RESET_B 0
5 *5791:D *701:33 0
6 *5791:D *701:39 0
7 *5791:D *1036:16 0
8 *5791:D *1037:12 0
*RES
1 *5464:Y *5791:D 43.6977 
*END

*D_NET *237 0.000906156
*CONN
*I *5793:D I *D sg13g2_dfrbpq_1
*I *5467:Y O *D sg13g2_nor3_1
*CAP
1 *5793:D 0
2 *5467:Y 0.000453078
3 *237:10 0.000453078
4 *237:10 *5466:A 0
5 *237:10 *590:12 0
6 *237:10 *1033:12 0
7 *79:8 *237:10 0
*RES
1 *5467:Y *237:10 45.1809 
2 *237:10 *5793:D 40 
*END

*D_NET *238 0.000889158
*CONN
*I *5795:D I *D sg13g2_dfrbpq_1
*I *5470:Y O *D sg13g2_nor3_1
*CAP
1 *5795:D 0
2 *5470:Y 0.000173859
3 *238:8 0.000173859
4 *238:8 *5470:A 0.000336941
5 *238:8 *591:10 7.58826e-05
6 *238:8 *696:96 0.000128618
7 *238:8 *1035:39 0
8 *238:8 *1038:16 0
*RES
1 *5470:Y *238:8 42.0806 
2 *238:8 *5795:D 40 
*END

*D_NET *239 0.000703194
*CONN
*I *5797:D I *D sg13g2_dfrbpq_1
*I *5473:Y O *D sg13g2_nor3_1
*CAP
1 *5797:D 0.000232071
2 *5473:Y 0.000232071
3 *5797:D *5473:C 0.000175908
4 *5797:D *586:27 1.54008e-05
5 *5797:D *586:42 4.77425e-05
*RES
1 *5473:Y *5797:D 42.1836 
*END

*D_NET *240 0.000667168
*CONN
*I *5799:D I *D sg13g2_dfrbpq_1
*I *5476:Y O *D sg13g2_nor3_1
*CAP
1 *5799:D 0.00024565
2 *5476:Y 0.00024565
3 *5799:D *5476:B 0
4 *5799:D *1012:18 0.000175867
*RES
1 *5476:Y *5799:D 42.678 
*END

*D_NET *241 0.000308429
*CONN
*I *5801:D I *D sg13g2_dfrbpq_1
*I *5479:Y O *D sg13g2_nor3_1
*CAP
1 *5801:D 0.000130423
2 *5479:Y 0.000130423
3 *5801:D *5479:A 4.75825e-05
4 *5801:D *5479:B 0
*RES
1 *5479:Y *5801:D 41.4111 
*END

*D_NET *242 0.000793171
*CONN
*I *5803:D I *D sg13g2_dfrbpq_1
*I *5482:Y O *D sg13g2_nor3_1
*CAP
1 *5803:D 0.000167891
2 *5482:Y 0.000228695
3 *242:8 0.000396586
4 *5803:D *5803:RESET_B 0
5 *5803:D *694:33 0
6 *242:8 *678:20 0
*RES
1 *5482:Y *242:8 42.8222 
2 *242:8 *5803:D 41.8334 
*END

*D_NET *243 0.000260537
*CONN
*I *5805:D I *D sg13g2_dfrbpq_1
*I *5485:Y O *D sg13g2_nor3_1
*CAP
1 *5805:D 0.000130268
2 *5485:Y 0.000130268
3 *5805:D *5681:CLK 0
4 *5805:D *605:237 0
*RES
1 *5485:Y *5805:D 41.3802 
*END

*D_NET *244 0.000513731
*CONN
*I *5807:D I *D sg13g2_dfrbpq_1
*I *5487:X O *D sg13g2_and4_1
*CAP
1 *5807:D 0.000256866
2 *5487:X 0.000256866
3 *5807:D *5879:A 0
4 *5807:D *5959:A 0
5 *5807:D *615:14 0
*RES
1 *5487:X *5807:D 42.5235 
*END

*D_NET *245 0.000798373
*CONN
*I *5809:D I *D sg13g2_dfrbpq_1
*I *5489:Y O *D sg13g2_nor2_1
*CAP
1 *5809:D 0.000226088
2 *5489:Y 0.000135491
3 *245:8 0.000361579
4 *5809:D *699:16 0
5 *5809:D *704:72 0
6 *5809:D *1028:14 0
7 *245:8 *604:10 7.52158e-05
*RES
1 *5489:Y *245:8 41.5862 
2 *245:8 *5809:D 42.0497 
*END

*D_NET *246 0.00408805
*CONN
*I *5972:A I *D sg13g2_buf_1
*I *5486:B1 I *D sg13g2_o21ai_1
*I *4962:Y O *D sg13g2_inv_1
*CAP
1 *5972:A 3.03095e-05
2 *5486:B1 0.000856114
3 *4962:Y 0.000190606
4 *246:12 0.000886424
5 *246:10 0.000190606
6 *5486:B1 *5443:B 0
7 *5486:B1 *5443:D 0
8 *5486:B1 *5486:A1 0.000532573
9 *5486:B1 *5486:A2 4.78359e-05
10 *5486:B1 *5487:C 0
11 *5486:B1 *574:10 0.000145031
12 *5486:B1 *1009:24 1.54556e-05
13 *5486:B1 *1009:38 0.000468343
14 *5486:B1 *1009:48 0
15 *5972:A *1027:10 0
16 *246:10 *5443:A 0.000143758
17 *246:10 *5443:D 0
18 *246:10 *5444:B 0.000212127
19 *246:10 *680:20 0.000112048
20 *246:10 *1004:50 2.20966e-05
21 *246:10 *1009:48 0.000234726
*RES
1 *4962:Y *246:10 42.4926 
2 *246:10 *246:12 20 
3 *246:12 *5486:B1 28.5593 
4 *246:12 *5972:A 20.3502 
*END

*D_NET *247 0.00308747
*CONN
*I *5404:A1 I *D sg13g2_a21oi_1
*I *5014:A1 I *D sg13g2_a21oi_1
*I *4963:Y O *D sg13g2_inv_1
*CAP
1 *5404:A1 9.74129e-05
2 *5014:A1 0.000509662
3 *4963:Y 0.000154447
4 *247:8 0.000761521
5 *5014:A1 *5932:A 0.00119415
6 *5014:A1 *700:8 0
7 *5014:A1 *1116:97 0
8 *5404:A1 *5932:A 0.00012816
9 *5404:A1 *703:14 0
10 *247:8 *605:129 0
11 *247:8 *605:134 0
12 *247:8 *642:68 0.000242121
13 *5755:D *5404:A1 0
*RES
1 *4963:Y *247:8 41.6171 
2 *247:8 *5014:A1 47.0246 
3 *247:8 *5404:A1 41.1948 
*END

*D_NET *248 0.00317453
*CONN
*I *4998:A I *D sg13g2_nand4_1
*I *5224:A I *D sg13g2_nor3_1
*I *4964:Y O *D sg13g2_inv_1
*CAP
1 *4998:A 0.000503409
2 *5224:A 0.000520241
3 *4964:Y 0.000105984
4 *248:8 0.00112963
5 *4998:A *4998:B 0.000187126
6 *4998:A *4998:C 0
7 *4998:A *5011:A 0
8 *4998:A *249:46 0.000728133
9 *4998:A *280:16 0
10 *4998:A *389:18 0
11 *4998:A *636:31 0
12 *5224:A *4965:A 0
13 *5224:A *249:10 0
14 *5224:A *389:18 0
15 *5224:A *1113:27 0
*RES
1 *4964:Y *248:8 41.0918 
2 *248:8 *5224:A 45.4899 
3 *248:8 *4998:A 45.9431 
*END

*D_NET *249 0.00420085
*CONN
*I *4998:B I *D sg13g2_nand4_1
*I *5224:B I *D sg13g2_nor3_1
*I *5219:A I *D sg13g2_nor2_1
*I *5222:A1 I *D sg13g2_a21oi_1
*I *4965:Y O *D sg13g2_inv_1
*CAP
1 *4998:B 7.33839e-05
2 *5224:B 0
3 *5219:A 0
4 *5222:A1 0.000292629
5 *4965:Y 0.00103207
6 *249:46 0.000589552
7 *249:12 0.000403005
8 *249:10 0.000626281
9 *4998:B *4998:C 3.39354e-05
10 *4998:B *636:31 0
11 *5222:A1 *5221:A 0
12 *5222:A1 *5224:C 0
13 *5222:A1 *348:55 0.000234726
14 *5222:A1 *410:12 0
15 *249:10 *5227:A1 0
16 *249:10 *280:16 0
17 *249:10 *657:33 0
18 *249:10 *1113:19 0
19 *249:10 *1113:27 0
20 *249:12 *5221:A 0
21 *249:12 *5224:C 0
22 *249:46 *4965:A 0
23 *249:46 *280:16 0
24 *4998:A *4998:B 0.000187126
25 *4998:A *249:46 0.000728133
26 *5224:A *249:10 0
27 *5615:D *249:10 0
*RES
1 *4965:Y *249:10 45.15 
2 *249:10 *249:12 0.8446 
3 *249:12 *5222:A1 42.8222 
4 *249:12 *5219:A 40 
5 *249:10 *5224:B 40 
6 *4965:Y *249:46 45.4384 
7 *249:46 *4998:B 40.9682 
*END

*D_NET *250 0.00294457
*CONN
*I *5218:A1 I *D sg13g2_a21oi_1
*I *5103:A2 I *D sg13g2_a21oi_1
*I *4966:Y O *D sg13g2_inv_1
*CAP
1 *5218:A1 0.000178569
2 *5103:A2 0.000747964
3 *4966:Y 0
4 *250:6 0.000926532
5 *5103:A2 *5103:A1 0.00069109
6 *5103:A2 *709:41 0
7 *5103:A2 *1034:34 0
8 *5218:A1 *5218:A2 8.00842e-05
9 *5218:A1 *431:8 0
10 *5218:A1 *1034:34 0
11 *5218:A1 *1108:37 8.00842e-05
12 *116:12 *5103:A2 0.000240244
13 *146:8 *5103:A2 0
14 *146:8 *5218:A1 0
*RES
1 *4966:Y *250:6 40 
2 *250:6 *5103:A2 48.3636 
3 *250:6 *5218:A1 41.8746 
*END

*D_NET *251 0.0015162
*CONN
*I *5212:A1 I *D sg13g2_a221oi_1
*I *5211:A I *D sg13g2_nor2_1
*I *4967:Y O *D sg13g2_inv_1
*CAP
1 *5212:A1 0.000141475
2 *5211:A 0.000322037
3 *4967:Y 0.000166506
4 *251:8 0.000630018
5 *5211:A *5210:D 0
6 *5211:A *5212:B2 8.03089e-05
7 *5211:A *5212:C1 0
8 *5211:A *5212:B1 0.000144946
9 *5211:A *421:47 0
10 *5212:A1 *5210:D 0
11 *5212:A1 *5212:B1 1.54556e-05
12 *5212:A1 *412:40 0
13 *251:8 *1008:105 0
14 *5609:D *5211:A 0
15 *5609:D *251:8 1.54556e-05
*RES
1 *4967:Y *251:8 21.6274 
2 *251:8 *5211:A 23.6153 
3 *251:8 *5212:A1 21.7819 
*END

*D_NET *252 0.00397413
*CONN
*I *5209:A1 I *D sg13g2_a21oi_1
*I *5098:A2 I *D sg13g2_a21oi_1
*I *4968:Y O *D sg13g2_inv_1
*CAP
1 *5209:A1 0.000408563
2 *5098:A2 0
3 *4968:Y 2.57341e-05
4 *252:12 0.00154504
5 *252:6 0.00197934
6 *5209:A1 *5204:D 0
7 *5209:A1 *5209:A2 1.54556e-05
8 *5209:A1 *5209:B1 0
9 *5209:A1 *419:31 0
10 *5209:A1 *1108:6 0
11 *252:12 *5545:CLK 0
12 *252:12 *5605:RESET_B 0
13 *252:12 *776:8 0
14 *252:12 *787:8 0
15 *252:12 *1028:37 0
16 *113:8 *252:12 0
17 *143:10 *252:12 0
*RES
1 *4968:Y *252:6 20.3193 
2 *252:6 *252:12 37.2937 
3 *252:12 *5098:A2 40 
4 *252:6 *5209:A1 22.8723 
*END

*D_NET *253 0.00705516
*CONN
*I *5203:A1 I *D sg13g2_a221oi_1
*I *5096:A2 I *D sg13g2_a21oi_1
*I *4969:Y O *D sg13g2_inv_1
*CAP
1 *5203:A1 0.000121231
2 *5096:A2 0.000421659
3 *4969:Y 0.00019868
4 *253:20 0.000795469
5 *253:8 0.00069372
6 *5096:A2 *5096:B1 0
7 *5096:A2 *5545:CLK 0.000273118
8 *5096:A2 *1028:58 0.000498385
9 *5203:A1 *419:14 4.77425e-05
10 *5203:A1 *629:47 0.000447183
11 *253:8 *5202:A 0
12 *253:8 *1107:15 0
13 *253:20 *5095:B1 2.20248e-05
14 *253:20 *5545:CLK 0.00116501
15 *253:20 *629:47 0.000427074
16 *253:20 *704:25 0.000908674
17 *143:10 *5203:A1 0.000372382
18 *143:10 *253:20 0.000662803
*RES
1 *4969:Y *253:8 41.8334 
2 *253:8 *253:20 48.2606 
3 *253:20 *5096:A2 44.8101 
4 *253:8 *5203:A1 42.3999 
*END

*D_NET *254 0.00214323
*CONN
*I *5201:A1 I *D sg13g2_a221oi_1
*I *5094:A2 I *D sg13g2_a21oi_1
*I *4970:Y O *D sg13g2_inv_1
*CAP
1 *5201:A1 0.000212966
2 *5094:A2 0.000835481
3 *4970:Y 0
4 *254:6 0.00104845
5 *5094:A2 *5094:A1 1.54556e-05
6 *5094:A2 *5203:B2 0
7 *5094:A2 *1105:32 0
8 *5094:A2 *1106:37 0
9 *5201:A1 *5201:B1 1.54282e-05
10 *5201:A1 *5203:B2 0
11 *5201:A1 *5603:RESET_B 0
12 *5201:A1 *413:14 0
13 *5201:A1 *629:10 0
14 *5543:D *5094:A2 1.54556e-05
15 *5603:D *5094:A2 0
*RES
1 *4970:Y *254:6 40 
2 *254:6 *5094:A2 49.3215 
3 *254:6 *5201:A1 42.2501 
*END

*D_NET *255 0.0072869
*CONN
*I *5191:A I *D sg13g2_nor3_1
*I *5189:D I *D sg13g2_nand4_1
*I *5090:A2 I *D sg13g2_a21oi_1
*I *4971:Y O *D sg13g2_inv_1
*CAP
1 *5191:A 4.72978e-05
2 *5189:D 0
3 *5090:A2 0
4 *4971:Y 0.00202169
5 *255:34 0.000493991
6 *255:30 0.000850804
7 *255:14 0.00038397
8 *255:8 0.00200155
9 *255:8 *5087:B1 0
10 *255:8 *5088:B1 0
11 *255:8 *5187:A2 0
12 *255:8 *5537:RESET_B 0
13 *255:8 *5537:CLK 0
14 *255:8 *709:64 0
15 *255:8 *1105:6 0.00056625
16 *255:8 *1105:102 0.00029113
17 *255:14 *756:10 0.000292789
18 *255:30 *4971:A 0.000209593
19 *255:30 *5190:A2 0
20 *255:30 *5194:B 0
21 *255:30 *5194:D 0
22 *255:30 *709:64 0
23 *255:34 *5189:A 0
24 *255:34 *5190:A2 8.00913e-05
25 *255:34 *389:43 0
26 *255:34 *398:14 0
27 *255:34 *398:22 0
28 *5539:D *255:8 0
29 *5599:D *255:8 4.77425e-05
30 *109:10 *255:8 0
*RES
1 *4971:Y *255:8 36.0398 
2 *255:8 *255:14 44.7998 
3 *255:14 *5090:A2 20 
4 *4971:Y *255:30 43.7904 
5 *255:30 *255:34 21.5917 
6 *255:34 *5189:D 20 
7 *255:34 *5191:A 20.5974 
*END

*D_NET *256 0.0023355
*CONN
*I *5088:A2 I *D sg13g2_a21oi_1
*I *5187:A1 I *D sg13g2_a21oi_1
*I *4972:Y O *D sg13g2_inv_1
*CAP
1 *5088:A2 0.000731819
2 *5187:A1 0.000213223
3 *4972:Y 6.24543e-05
4 *256:8 0.0010075
5 *5088:A2 *4972:A 0
6 *5088:A2 *5087:B1 0
7 *5088:A2 *5087:A1 0
8 *5088:A2 *5597:RESET_B 0
9 *5088:A2 *731:27 0.000241847
10 *5187:A1 *4972:A 0
11 *5187:A1 *5087:B1 0
12 *5187:A1 *5187:A2 1.54008e-05
13 *5187:A1 *5187:B1 1.54008e-05
14 *256:8 *4972:A 4.78556e-05
*RES
1 *4972:Y *256:8 20.9167 
2 *256:8 *5187:A1 22.2763 
3 *256:8 *5088:A2 27.9001 
*END

*D_NET *257 0.00374381
*CONN
*I *5181:A1 I *D sg13g2_a221oi_1
*I *5086:A2 I *D sg13g2_a21oi_1
*I *5180:A I *D sg13g2_nor3_1
*I *4973:Y O *D sg13g2_inv_1
*CAP
1 *5181:A1 0.000116172
2 *5086:A2 0.00106585
3 *5180:A 0.000225001
4 *4973:Y 6.90458e-05
5 *257:23 0.00133774
6 *257:8 0.00044976
7 *5086:A2 *5178:A 0
8 *5086:A2 *708:66 0
9 *5086:A2 *1018:56 0
10 *5086:A2 *1029:81 0.000239999
11 *5180:A *5179:A2 0.000144722
12 *5180:A *5180:B 0
13 *5180:A *5180:C 0
14 *5180:A *402:8 8.01207e-05
15 *5180:A *1102:10 0
16 *257:8 *4973:A 1.54008e-05
*RES
1 *4973:Y *257:8 40.5356 
2 *257:8 *5180:A 42.06 
3 *257:8 *257:23 21.339 
4 *257:23 *5086:A2 31.3712 
5 *257:23 *5181:A1 20.9682 
*END

*D_NET *258 0.00541104
*CONN
*I *5179:A1 I *D sg13g2_a21oi_1
*I *5180:B I *D sg13g2_nor3_1
*I *5084:A2 I *D sg13g2_a21oi_1
*I *4974:Y O *D sg13g2_inv_1
*CAP
1 *5179:A1 0
2 *5180:B 0.000299671
3 *5084:A2 0.00154297
4 *4974:Y 0
5 *258:25 0.000679056
6 *258:4 0.00192235
7 *5084:A2 *4974:A 0
8 *5084:A2 *5083:B1 0
9 *5084:A2 *5084:A1 1.54008e-05
10 *5084:A2 *5084:B1 0.00046884
11 *5084:A2 *5533:RESET_B 0.00033936
12 *5084:A2 *5533:CLK 0
13 *5084:A2 *5593:RESET_B 0
14 *5084:A2 *631:49 0
15 *5084:A2 *710:27 0
16 *5084:A2 *1101:27 0
17 *5180:B *5179:A2 0
18 *5180:B *5180:C 1.54556e-05
19 *5180:B *1101:27 0
20 *258:25 *5179:A2 1.54008e-05
21 *258:25 *5593:RESET_B 0.000112535
22 *258:25 *631:49 0
23 *258:25 *1018:56 0
24 *258:25 *1101:27 0
25 *5180:A *5180:B 0
26 *5593:D *5180:B 0
27 *5593:D *258:25 0
*RES
1 *4974:Y *258:4 20 
2 *258:4 *5084:A2 36.4491 
3 *258:4 *258:25 4.5217 
4 *258:25 *5180:B 23.3166 
5 *258:25 *5179:A1 20 
*END

*D_NET *259 0.00375774
*CONN
*I *5176:B2 I *D sg13g2_a221oi_1
*I *5082:A2 I *D sg13g2_a21oi_1
*I *4975:Y O *D sg13g2_inv_1
*CAP
1 *5176:B2 0.000150719
2 *5082:A2 0
3 *4975:Y 0.00143257
4 *259:24 0.000348199
5 *259:10 0.00123509
6 *5176:B2 *5173:B 0.000207881
7 *5176:B2 *5176:C1 0
8 *5176:B2 *397:8 0.000143273
9 *259:10 *5595:RESET_B 0
10 *259:10 *632:42 0
11 *259:10 *632:50 0
12 *259:10 *1029:12 0.000224668
13 *259:10 *1029:14 1.53311e-05
14 *259:24 *632:38 0
15 *259:24 *1099:12 0
*RES
1 *4975:Y *259:10 33.0398 
2 *259:10 *5082:A2 20 
3 *4975:Y *259:24 41.8334 
4 *259:24 *5176:B2 41.6171 
*END

*D_NET *260 0.0109893
*CONN
*I *5172:A1 I *D sg13g2_a221oi_1
*I *5080:A2 I *D sg13g2_a21oi_1
*I *4976:Y O *D sg13g2_inv_1
*CAP
1 *5172:A1 0.000347256
2 *5080:A2 4.72624e-05
3 *4976:Y 3.35878e-05
4 *260:14 0.00344894
5 *260:8 0.00378252
6 *5080:A2 *5080:A1 1.54556e-05
7 *5080:A2 *5529:CLK 0
8 *5172:A1 *4976:A 0
9 *5172:A1 *5172:B1 0.000112717
10 *5172:A1 *5172:A2 0
11 *5172:A1 *358:22 0
12 *5172:A1 *1096:68 0.000369467
13 *5172:A1 *1098:14 0.000106064
14 *5172:A1 *1098:16 7.51285e-05
15 *260:8 *5174:B 4.72458e-05
16 *260:14 *5171:A 0.00023701
17 *260:14 *5180:C 0
18 *260:14 *5858:A 0
19 *260:14 *5860:A 0
20 *260:14 *283:12 0
21 *260:14 *385:18 0
22 *260:14 *398:12 0
23 *260:14 *410:20 0.00136387
24 *260:14 *421:10 0.000341216
25 *260:14 *605:29 0
26 *260:14 *620:25 0
27 *260:14 *621:8 0
28 *260:14 *705:43 0
29 *260:14 *820:14 0
30 *260:14 *1015:44 0
31 *260:14 *1015:46 0
32 *260:14 *1098:16 0.00021237
33 *5529:D *5080:A2 0
34 *116:12 *260:14 0.000449189
*RES
1 *4976:Y *260:8 40.3193 
2 *260:8 *260:14 39.0885 
3 *260:14 *5080:A2 40.166 
4 *260:8 *5172:A1 43.7595 
*END

*D_NET *261 0.0133241
*CONN
*I *5078:A2 I *D sg13g2_a21oi_1
*I *5169:A1 I *D sg13g2_a221oi_1
*I *4977:Y O *D sg13g2_inv_1
*CAP
1 *5078:A2 0
2 *5169:A1 0
3 *4977:Y 0
4 *261:39 0.000371729
5 *261:31 0.00334133
6 *261:25 0.00343545
7 *261:12 0.000648264
8 *261:4 0.00111411
9 *261:12 *5169:B1 1.54008e-05
10 *261:12 *5169:A2 0
11 *261:12 *5585:CLK 0
12 *261:12 *292:12 0
13 *261:12 *390:8 0.000181298
14 *261:12 *390:12 0
15 *261:12 *639:38 0
16 *261:12 *1015:107 0.00072213
17 *261:25 *4977:A 0.000112651
18 *261:25 *639:38 0
19 *261:25 *657:16 0
20 *261:31 *4983:B 0
21 *261:31 *5048:A 0
22 *261:31 *5049:B1 0
23 *261:31 *5050:B 0
24 *261:31 *5075:A1 0.000533865
25 *261:31 *5507:RESET_B 0.000145151
26 *261:31 *5813:RESET_B 0.000274452
27 *261:31 *6002:A 0
28 *261:31 *645:18 0
29 *261:31 *646:8 0
30 *261:31 *646:33 0
31 *261:31 *646:52 0
32 *261:31 *660:18 0
33 *261:31 *660:29 0
34 *261:31 *662:25 0
35 *261:31 *662:38 0.00205647
36 *261:31 *666:10 0
37 *261:31 *1089:10 0
38 *261:39 *5078:A1 0.000259112
39 *261:39 *660:29 0.000112689
40 *261:39 *707:95 0
41 *5507:D *261:31 0
*RES
1 *4977:Y *261:4 20 
2 *261:4 *261:12 48.1473 
3 *261:12 *5169:A1 20 
4 *261:4 *261:25 44.8101 
5 *261:25 *261:31 32.9447 
6 *261:31 *261:39 44.3157 
7 *261:39 *5078:A2 20 
*END

*D_NET *262 0.00388413
*CONN
*I *5162:B2 I *D sg13g2_a221oi_1
*I *5073:A2 I *D sg13g2_a21oi_1
*I *4978:Y O *D sg13g2_inv_1
*CAP
1 *5162:B2 0.000114288
2 *5073:A2 0
3 *4978:Y 0.000432147
4 *262:16 0.00116108
5 *262:10 0.00170751
6 *5162:B2 *1007:81 0.00020901
7 *262:10 *388:14 0
8 *262:16 *5162:B1 0
9 *262:16 *5521:CLK 0
10 *262:16 *5523:CLK 0
11 *262:16 *634:22 0
12 *262:16 *655:8 0
13 *262:16 *656:46 5.1086e-05
14 *5583:D *5162:B2 0.00020901
*RES
1 *4978:Y *262:10 45.1191 
2 *262:10 *262:16 33.1093 
3 *262:16 *5073:A2 20 
4 *262:10 *5162:B2 41.4008 
*END

*D_NET *263 0.0118386
*CONN
*I *5971:A I *D sg13g2_buf_1
*I *5968:A I *D sg13g2_buf_1
*I *4980:Y O *D sg13g2_nand2_1
*CAP
1 *5971:A 0.000398205
2 *5968:A 0.00274289
3 *4980:Y 0.000490994
4 *263:18 0.00327656
5 *263:12 0.0010176
6 *263:8 0.000576722
7 *5968:A *5244:A 0
8 *5968:A *5244:B 0
9 *5968:A *5246:C 0
10 *5968:A *5247:A 0.000242006
11 *5968:A *5249:C 0.00024119
12 *5968:A *5336:S 0
13 *5968:A *5337:A 0
14 *5968:A *5621:CLK 0
15 *5968:A *5625:RESET_B 0
16 *5968:A *625:42 0.00117281
17 *5968:A *670:10 0
18 *5968:A *687:86 0
19 *5968:A *1022:87 0
20 *5968:A *1022:104 0
21 *5968:A *1026:31 0.000209054
22 *5968:A *1039:10 0.000112437
23 *5971:A *5242:A1 0
24 *5971:A *701:25 0
25 *5971:A *1026:8 0
26 *5971:A *1026:14 0
27 *263:8 *5242:A2 0.00128301
28 *263:8 *672:70 7.51285e-05
29 *263:12 *701:25 0
30 *263:12 *1026:14 0
31 *263:18 *932:8 0
32 *263:18 *1023:102 0
33 *5625:D *5968:A 0
34 *5627:D *5968:A 0
*RES
1 *4980:Y *263:8 47.519 
2 *263:8 *263:12 20.7519 
3 *263:12 *263:18 46.283 
4 *263:18 *5968:A 49.2726 
5 *263:12 *5971:A 23.1892 
*END

*D_NET *264 0.000596402
*CONN
*I *4982:B I *D sg13g2_nor2_1
*I *4981:Y O *D sg13g2_nand3_1
*CAP
1 *4982:B 0.000193295
2 *4981:Y 0.000193295
3 *5829:D *4982:B 0.000209812
*RES
1 *4981:Y *4982:B 42.2145 
*END

*D_NET *265 0.00104625
*CONN
*I *4987:B1 I *D sg13g2_a21o_1
*I *4985:X O *D sg13g2_and3_1
*CAP
1 *4987:B1 0.000370347
2 *4985:X 0.000370347
3 *4987:B1 *4987:A2 4.79124e-05
4 *4987:B1 *4987:A1 0.000209856
5 *4987:B1 *5827:CLK 0
6 *4987:B1 *1055:19 4.77863e-05
7 *85:10 *4987:B1 0
*RES
1 *4985:X *4987:B1 44.2127 
*END

*D_NET *266 0.00602551
*CONN
*I *4989:A2 I *D sg13g2_a21o_1
*I *5019:B1 I *D sg13g2_a22oi_1
*I *5022:A2 I *D sg13g2_a21o_1
*I *4987:A2 I *D sg13g2_a21o_1
*I *4986:Y O *D sg13g2_nor2_1
*CAP
1 *4989:A2 0.000142114
2 *5019:B1 0
3 *5022:A2 0.000262444
4 *4987:A2 0.000522146
5 *4986:Y 0.00067983
6 *266:66 0.000453522
7 *266:18 0.00120168
8 *266:12 0.000417094
9 *266:10 0.000368422
10 *4987:A2 *4987:A1 2.54024e-05
11 *4987:A2 *605:19 0
12 *4987:A2 *1051:27 0.000458192
13 *4987:A2 *1051:33 0.000112686
14 *4987:A2 *1055:19 0
15 *4989:A2 *5017:A1 0
16 *4989:A2 *686:60 0
17 *4989:A2 *1054:14 8.19147e-05
18 *4989:A2 *1054:24 0.00014468
19 *5022:A2 *690:10 0.000126358
20 *5022:A2 *700:48 0
21 *5022:A2 *715:31 5.68051e-05
22 *5022:A2 *1035:28 0
23 *266:10 *638:29 0
24 *266:10 *700:48 0.000241522
25 *266:10 *1051:6 0
26 *266:10 *1051:14 0.000288917
27 *266:10 *1051:27 0
28 *266:18 *5827:CLK 0
29 *266:18 *295:10 4.78356e-05
30 *266:18 *1051:27 0
31 *266:66 *4986:A 0
32 *266:66 *605:114 0
33 *266:66 *686:38 0
34 *266:66 *700:28 0.00011181
35 *266:66 *715:23 0.000234224
36 *4987:B1 *4987:A2 4.79124e-05
37 *84:8 *266:66 0
*RES
1 *4986:Y *266:10 44.4393 
2 *266:10 *266:12 20 
3 *266:12 *266:18 24.7483 
4 *266:18 *4987:A2 45.8865 
5 *266:18 *5022:A2 42.7141 
6 *266:12 *5019:B1 20 
7 *4986:Y *266:66 43.0797 
8 *266:66 *4989:A2 41.4111 
*END

*D_NET *267 0.000803756
*CONN
*I *4989:B1 I *D sg13g2_a21o_1
*I *4988:X O *D sg13g2_and3_1
*CAP
1 *4989:B1 0.000192668
2 *4988:X 0.000192668
3 *4989:B1 *715:25 0
4 *4989:B1 *715:74 0.000176789
5 *4989:B1 *1054:24 0.000241631
*RES
1 *4988:X *4989:B1 42.2145 
*END

*D_NET *268 0.0103139
*CONN
*I *4995:A I *D sg13g2_nand4_1
*I *4994:A I *D sg13g2_and4_1
*I *4990:Y O *D sg13g2_nor4_1
*CAP
1 *4995:A 0
2 *4994:A 0.000204847
3 *4990:Y 0.000105284
4 *268:37 0.000224939
5 *268:20 0.00242768
6 *268:8 0.00210317
7 *4994:A *4994:C 0
8 *4994:A *4994:D 0
9 *4994:A *283:6 0
10 *4994:A *385:12 0.000315817
11 *268:8 *5194:A 0.000553834
12 *268:8 *5194:B 0.000553332
13 *268:20 *5183:C 1.54556e-05
14 *268:20 *5183:A 0
15 *268:20 *5192:C 0
16 *268:20 *5860:A 0.000597336
17 *268:20 *269:14 0
18 *268:20 *385:12 0.0013759
19 *268:20 *385:18 8.00842e-05
20 *268:20 *406:10 0
21 *268:20 *411:10 0
22 *268:20 *1015:14 0.000355395
23 *268:20 *1015:20 0.000403938
24 *268:20 *1103:40 0
25 *268:37 *5015:A1 0
26 *268:37 *5015:A2 0
27 *268:37 *5165:C 0.00018387
28 *268:37 *269:14 0.000175716
29 *268:37 *290:8 0.000453497
30 *268:37 *392:10 0.000183828
*RES
1 *4990:Y *268:8 42.575 
2 *268:8 *268:20 40.0753 
3 *268:20 *4994:A 22.2145 
4 *268:20 *268:37 43.2651 
5 *268:37 *4995:A 20 
*END

*D_NET *269 0.00539142
*CONN
*I *4994:B I *D sg13g2_and4_1
*I *4995:B I *D sg13g2_nand4_1
*I *4991:Y O *D sg13g2_nor4_1
*CAP
1 *4994:B 0
2 *4995:B 0
3 *4991:Y 0.00195225
4 *269:27 0.000233097
5 *269:14 0.00218534
6 *269:14 *4991:D 8.01445e-05
7 *269:14 *4995:D 0
8 *269:14 *5015:A1 0
9 *269:14 *5171:A 0.000404044
10 *269:14 *5171:D 0
11 *269:14 *283:12 0
12 *269:14 *1015:14 0
13 *269:14 *1015:20 0
14 *269:14 *1018:18 0
15 *269:27 *4995:D 0
16 *269:27 *5015:A1 0
17 *269:27 *270:39 0.000360826
18 *268:20 *269:14 0
19 *268:37 *269:14 0.000175716
*RES
1 *4991:Y *269:14 36.1297 
2 *269:14 *4995:B 20 
3 *269:14 *269:27 42.3999 
4 *269:27 *4994:B 20 
*END

*D_NET *270 0.00661143
*CONN
*I *4995:C I *D sg13g2_nand4_1
*I *4994:C I *D sg13g2_and4_1
*I *4992:Y O *D sg13g2_nor4_1
*CAP
1 *4995:C 0
2 *4994:C 3.18157e-05
3 *4992:Y 2.50895e-05
4 *270:39 9.79071e-05
5 *270:24 0.00074293
6 *270:14 0.00189074
7 *270:8 0.00130262
8 *4994:C *4994:D 1.54008e-05
9 *4994:C *385:12 0
10 *270:8 *5148:D 0
11 *270:14 *5141:B 0
12 *270:14 *5155:C 0
13 *270:14 *5157:C 0
14 *270:14 *5157:D 4.77425e-05
15 *270:14 *282:12 0
16 *270:14 *378:8 0
17 *270:14 *383:10 0
18 *270:14 *1017:70 0
19 *270:14 *1119:50 0.000501045
20 *270:14 *1119:58 0.000715662
21 *270:14 *1119:74 0.000443366
22 *270:14 *1120:12 0
23 *270:24 *5157:D 7.51285e-05
24 *270:24 *283:6 0
25 *270:24 *385:12 0
26 *270:39 *4995:D 1.54008e-05
27 *270:39 *387:25 0.000345758
28 *4994:A *4994:C 0
29 *269:27 *270:39 0.000360826
*RES
1 *4992:Y *270:8 40.3193 
2 *270:8 *270:14 35.038 
3 *270:14 *270:24 46.4272 
4 *270:24 *4994:C 20.3193 
5 *270:24 *270:39 41.9055 
6 *270:39 *4995:C 20 
*END

*D_NET *271 0.00107532
*CONN
*I *4995:D I *D sg13g2_nand4_1
*I *4994:D I *D sg13g2_and4_1
*I *4993:Y O *D sg13g2_nor4_1
*CAP
1 *4995:D 0.000199526
2 *4994:D 5.30579e-05
3 *4993:Y 0.000229567
4 *271:8 0.000482151
5 *4994:D *283:6 0
6 *4995:D *283:6 8.0216e-05
7 *4994:A *4994:D 0
8 *4994:C *4994:D 1.54008e-05
9 *269:14 *4995:D 0
10 *269:27 *4995:D 0
11 *270:39 *4995:D 1.54008e-05
*RES
1 *4993:Y *271:8 41.8334 
2 *271:8 *4994:D 40.5356 
3 *271:8 *4995:D 41.6274 
*END

*D_NET *272 0.000714746
*CONN
*I *5013:B I *D sg13g2_nand3_1
*I *4994:X O *D sg13g2_and4_1
*CAP
1 *5013:B 0.000159623
2 *4994:X 7.08891e-05
3 *272:8 0.000230513
4 *5013:B *5013:C 1.54556e-05
5 *5013:B *283:6 0
6 *5013:B *1049:25 0
7 *272:8 *387:25 0.000238265
*RES
1 *4994:X *272:8 41.0918 
2 *272:8 *5013:B 41.6171 
*END

*D_NET *273 0.000275229
*CONN
*I *5015:A1 I *D sg13g2_o21ai_1
*I *4995:Y O *D sg13g2_nand4_1
*CAP
1 *5015:A1 9.74299e-05
2 *4995:Y 9.74299e-05
3 *5015:A1 *5015:A2 8.03692e-05
4 *268:37 *5015:A1 0
5 *269:14 *5015:A1 0
6 *269:27 *5015:A1 0
*RES
1 *4995:Y *5015:A1 41.133 
*END

*D_NET *274 0.00304073
*CONN
*I *5136:A I *D sg13g2_nor4_1
*I *4997:C I *D sg13g2_nor3_1
*I *4996:Y O *D sg13g2_nand2_1
*CAP
1 *5136:A 0.000333205
2 *4997:C 0.000954629
3 *4996:Y 0
4 *274:4 0.00128783
5 *4997:C *5011:C 0
6 *4997:C *5011:D 8.03089e-05
7 *4997:C *280:16 0
8 *4997:C *287:39 0
9 *4997:C *387:14 0
10 *4997:C *1112:21 1.54556e-05
11 *4997:C *1119:50 4.77425e-05
12 *5136:A *4996:A 4.77425e-05
13 *5136:A *5136:B 0.000209906
14 *5136:A *287:39 3.15716e-05
15 *5136:A *1119:50 3.23417e-05
*RES
1 *4996:Y *274:4 20 
2 *274:4 *4997:C 29.4039 
3 *274:4 *5136:A 23.9243 
*END

*D_NET *275 0.000592123
*CONN
*I *5012:A I *D sg13g2_nand4_1
*I *4997:Y O *D sg13g2_nor3_1
*CAP
1 *5012:A 4.66502e-05
2 *4997:Y 0.000225502
3 *275:8 0.000272152
4 *5012:A *279:12 4.78195e-05
5 *5012:A *387:14 0
6 *5012:A *1097:22 0
*RES
1 *4997:Y *275:8 42.575 
2 *275:8 *5012:A 40.5356 
*END

*D_NET *276 0.000235175
*CONN
*I *5011:A I *D sg13g2_nor4_1
*I *4998:Y O *D sg13g2_nand4_1
*CAP
1 *5011:A 0.000109887
2 *4998:Y 0.000109887
3 *5011:A *5011:C 0
4 *5011:A *280:16 1.54008e-05
5 *4998:A *5011:A 0
*RES
1 *4998:Y *5011:A 41.133 
*END

*D_NET *277 0.000300782
*CONN
*I *5002:A I *D sg13g2_nand2_1
*I *4999:Y O *D sg13g2_nor2_1
*CAP
1 *5002:A 0.000150391
2 *4999:Y 0.000150391
3 *5002:A *4999:B 0
4 *5002:A *5002:B 0
*RES
1 *4999:Y *5002:A 41.8334 
*END

*D_NET *278 0.000919242
*CONN
*I *5002:B I *D sg13g2_nand2_1
*I *5000:Y O *D sg13g2_nor2_1
*CAP
1 *5002:B 3.05477e-05
2 *5000:Y 0.000285195
3 *278:8 0.000315742
4 *5002:B *4999:B 0
5 *278:8 *5001:C 0
6 *278:8 *279:12 0
7 *278:8 *388:14 0
8 *278:8 *1107:48 0.000287757
9 *5002:A *5002:B 0
*RES
1 *5000:Y *278:8 43.5638 
2 *278:8 *5002:B 40.2858 
*END

*D_NET *279 0.0057274
*CONN
*I *5012:B I *D sg13g2_nand4_1
*I *5001:Y O *D sg13g2_nor4_1
*CAP
1 *5012:B 0
2 *5001:Y 0
3 *279:12 0.00156247
4 *279:6 0.00156247
5 *279:12 *280:16 0.0022598
6 *279:12 *284:22 0.000112826
7 *279:12 *384:22 0
8 *279:12 *387:14 0
9 *279:12 *388:14 0
10 *279:12 *657:33 0
11 *279:12 *1097:22 0
12 *279:12 *1110:32 0.000182023
13 *279:12 *1110:38 0
14 *279:12 *1113:8 0
15 *279:12 *1113:27 0
16 *5012:A *279:12 4.78195e-05
17 *278:8 *279:12 0
*RES
1 *5001:Y *279:6 40 
2 *279:6 *279:12 40.5691 
3 *279:12 *5012:B 20 
*END

*D_NET *280 0.00588297
*CONN
*I *5011:B I *D sg13g2_nor4_1
*I *5002:Y O *D sg13g2_nand2_1
*CAP
1 *5011:B 0
2 *5002:Y 0
3 *280:16 0.00160259
4 *280:6 0.00160259
5 *280:16 *4965:A 0.000112516
6 *280:16 *4997:A 0
7 *280:16 *5011:C 4.78521e-05
8 *280:16 *5011:D 0
9 *280:16 *5215:B 0
10 *280:16 *429:8 0
11 *280:16 *430:35 0
12 *280:16 *657:33 0
13 *280:16 *1110:38 0
14 *280:16 *1112:21 0
15 *280:16 *1113:19 0
16 *280:16 *1113:27 0.000242236
17 *4997:C *280:16 0
18 *4998:A *280:16 0
19 *5011:A *280:16 1.54008e-05
20 *249:10 *280:16 0
21 *249:46 *280:16 0
22 *279:12 *280:16 0.0022598
*RES
1 *5002:Y *280:6 40 
2 *280:6 *280:16 39.7245 
3 *280:16 *5011:B 20 
*END

*D_NET *281 0.00300618
*CONN
*I *5005:A I *D sg13g2_nor2_1
*I *5157:A I *D sg13g2_nor4_1
*I *5003:Y O *D sg13g2_nand4_1
*CAP
1 *5005:A 0
2 *5157:A 0
3 *5003:Y 0.000637874
4 *281:22 9.85415e-05
5 *281:16 0.000695405
6 *281:12 0.00123474
7 *281:12 *5003:A 0
8 *281:12 *5009:B 0.000339623
9 *281:12 *348:10 0
10 *281:12 *358:80 0
11 *281:12 *1118:41 0
12 *281:16 *5005:B 0
13 *281:16 *5130:A 0
14 *281:16 *5130:B 0
15 *281:16 *282:12 0
16 *281:16 *285:6 0
17 *281:16 *358:14 0
18 *281:16 *1017:66 0
19 *281:22 *1017:70 0
*RES
1 *5003:Y *281:12 46.489 
2 *281:12 *281:16 25.7268 
3 *281:16 *281:22 41.0918 
4 *281:22 *5157:A 20 
5 *281:16 *5005:A 20 
*END

*D_NET *282 0.0032257
*CONN
*I *5005:B I *D sg13g2_nor2_1
*I *5157:B I *D sg13g2_nor4_1
*I *5004:Y O *D sg13g2_nand4_1
*CAP
1 *5005:B 9.99274e-05
2 *5157:B 4.6774e-05
3 *5004:Y 0.00030818
4 *282:12 0.00117372
5 *282:8 0.00133519
6 *5157:B *5157:C 8.0216e-05
7 *282:8 *5003:D 0
8 *282:8 *5006:A 0
9 *282:8 *284:8 0.000181695
10 *282:8 *358:80 0
11 *282:8 *1111:33 0
12 *282:12 *5007:B 0
13 *282:12 *5134:A2 0
14 *282:12 *285:6 0
15 *282:12 *1119:105 0
16 *5569:D *282:12 0
17 *125:10 *282:12 0
18 *270:14 *282:12 0
19 *281:16 *5005:B 0
20 *281:16 *282:12 0
*RES
1 *5004:Y *282:8 43.3166 
2 *282:8 *282:12 30.7017 
3 *282:12 *5157:B 20.5356 
4 *282:12 *5005:B 21.3802 
*END

*D_NET *283 0.00472731
*CONN
*I *5165:B I *D sg13g2_nand4_1
*I *5185:A I *D sg13g2_nand4_1
*I *5005:Y O *D sg13g2_nor2_1
*CAP
1 *5165:B 0
2 *5185:A 0
3 *5005:Y 0.000710793
4 *283:12 0.0015331
5 *283:6 0.00224389
6 *283:6 *5013:C 0
7 *283:6 *5165:A 7.91347e-05
8 *283:6 *358:14 0
9 *283:12 *392:10 8.01776e-05
10 *283:12 *398:12 0
11 *283:12 *1015:14 0
12 *283:12 *1015:44 0
13 *4994:A *283:6 0
14 *4994:D *283:6 0
15 *4995:D *283:6 8.0216e-05
16 *5013:B *283:6 0
17 *260:14 *283:12 0
18 *269:14 *283:12 0
19 *270:24 *283:6 0
*RES
1 *5005:Y *283:6 27.0246 
2 *283:6 *283:12 33.1531 
3 *283:12 *5185:A 40 
4 *283:6 *5165:B 20 
*END

*D_NET *284 0.00881785
*CONN
*I *5120:A1 I *D sg13g2_a21oi_1
*I *5163:C I *D sg13g2_and4_1
*I *5012:C I *D sg13g2_nand4_1
*I *5006:X O *D sg13g2_and4_1
*CAP
1 *5120:A1 0.000184899
2 *5163:C 5.03251e-05
3 *5012:C 0
4 *5006:X 0.000353665
5 *284:22 0.00102349
6 *284:14 0.00107382
7 *284:12 0.00168686
8 *284:8 0.00222542
9 *5120:A1 *5123:C 0
10 *5120:A1 *707:33 4.76038e-05
11 *5120:A1 *1016:12 7.99179e-05
12 *5120:A1 *1016:27 1.54008e-05
13 *5120:A1 *1115:18 0
14 *5120:A1 *1118:18 0
15 *5163:C *5163:D 4.77425e-05
16 *5163:C *1006:25 1.54008e-05
17 *5163:C *1006:31 8.00842e-05
18 *284:8 *5003:A 0
19 *284:8 *5003:D 0
20 *284:8 *5004:A 0
21 *284:8 *1114:31 0.000235141
22 *284:8 *1118:18 0
23 *284:22 *5012:D 0
24 *284:22 *5163:D 0
25 *284:22 *286:18 0
26 *284:22 *1015:12 0.00098897
27 *284:22 *1015:92 0.000236452
28 *284:22 *1015:107 0.000178135
29 *284:22 *1097:22 0
30 *279:12 *284:22 0.000112826
31 *282:8 *284:8 0.000181695
*RES
1 *5006:X *284:8 44.0582 
2 *284:8 *284:12 39.57 
3 *284:12 *284:14 20 
4 *284:14 *284:22 30.5678 
5 *284:22 *5012:C 20 
6 *284:14 *5163:C 40.5356 
7 *284:8 *5120:A1 41.8746 
*END

*D_NET *285 0.00395692
*CONN
*I *5130:C I *D sg13g2_nor3_1
*I *5965:A I *D sg13g2_buf_1
*I *5132:C I *D sg13g2_nor3_1
*I *5007:Y O *D sg13g2_nand4_1
*CAP
1 *5130:C 0
2 *5965:A 0.000357349
3 *5132:C 0.000227252
4 *5007:Y 0.00046158
5 *285:10 0.00073708
6 *285:6 0.00061406
7 *5132:C *5010:B 1.54008e-05
8 *5132:C *287:90 0.000323603
9 *5132:C *358:80 0
10 *5132:C *1019:81 0
11 *5965:A *286:14 0.000365156
12 *5965:A *287:90 0
13 *285:6 *5007:A 1.54556e-05
14 *285:6 *5130:B 4.78028e-05
15 *285:6 *358:80 0.000792185
16 *285:10 *5131:A 0
17 *285:10 *5134:A2 0
18 *285:10 *287:12 0
19 *285:10 *287:90 0
20 *5569:D *285:6 0
21 *281:16 *285:6 0
22 *282:12 *285:6 0
*RES
1 *5007:Y *285:6 25.2942 
2 *285:6 *285:10 21.0918 
3 *285:10 *5132:C 42.266 
4 *285:10 *5965:A 43.5947 
5 *285:6 *5130:C 20 
*END

*D_NET *286 0.0192424
*CONN
*I *5163:D I *D sg13g2_and4_1
*I *5168:A I *D sg13g2_nand4_1
*I *5182:A I *D sg13g2_nand4_1
*I *5194:A I *D sg13g2_and4_1
*I *5171:B I *D sg13g2_and4_1
*I *5012:D I *D sg13g2_nand4_1
*I *5008:X O *D sg13g2_and4_1
*CAP
1 *5163:D 0.000221353
2 *5168:A 0
3 *5182:A 2.73467e-05
4 *5194:A 0.000834591
5 *5171:B 0.000207706
6 *5012:D 0.000750051
7 *5008:X 0.00138447
8 *286:68 0.00103203
9 *286:64 0.00124382
10 *286:43 0.00155197
11 *286:35 0.000787247
12 *286:18 0.00129649
13 *286:16 0.000251079
14 *286:14 0.00138447
15 *5012:D *5165:C 0.000345327
16 *5012:D *290:8 0
17 *5012:D *392:10 0.000774194
18 *5163:D *392:10 0.000442529
19 *5163:D *1015:107 0
20 *5171:B *5171:A 0.000112667
21 *5171:B *5171:D 0
22 *5171:B *358:64 0.000510186
23 *5171:B *1008:144 0
24 *5171:B *1018:18 0
25 *5171:B *1018:37 0
26 *5182:A *5182:B 4.78359e-05
27 *5182:A *5192:A 0
28 *5194:A *4971:A 0
29 *5194:A *5194:B 0
30 *5194:A *398:22 0.00012816
31 *5194:A *411:10 0.000448427
32 *5194:A *412:8 0
33 *5194:A *700:92 0
34 *5194:A *1104:32 0
35 *286:14 *5010:B 0
36 *286:14 *287:8 0
37 *286:14 *287:90 0
38 *286:14 *288:10 0
39 *286:14 *352:16 0.00127773
40 *286:14 *358:14 0
41 *286:14 *367:12 0
42 *286:14 *367:75 0
43 *286:14 *1017:56 0
44 *286:14 *1019:91 0
45 *286:14 *1019:111 1.54008e-05
46 *286:14 *1096:50 0.0001765
47 *286:18 *392:10 7.34889e-05
48 *286:35 *1008:29 0
49 *286:35 *1008:37 0
50 *286:35 *1096:58 0.000178401
51 *286:43 *5171:D 0
52 *286:43 *358:22 7.4559e-05
53 *286:43 *1006:31 0
54 *286:43 *1018:20 0
55 *286:43 *1018:37 0
56 *286:64 *5180:C 0.00104951
57 *286:64 *5182:C 0
58 *286:64 *358:22 3.20556e-05
59 *286:64 *358:36 0.000499852
60 *286:64 *358:64 0.000212862
61 *286:64 *1008:53 0
62 *286:64 *1008:59 0
63 *286:64 *1096:68 0.00059676
64 *286:64 *1096:76 0.000306607
65 *286:64 *1097:47 0
66 *286:64 *1101:27 0
67 *286:68 *700:92 0
68 *5163:C *5163:D 4.77425e-05
69 *5965:A *286:14 0.000365156
70 *135:12 *286:43 0
71 *268:8 *5194:A 0.000553834
72 *284:22 *5012:D 0
73 *284:22 *5163:D 0
74 *284:22 *286:18 0
*RES
1 *5008:X *286:14 34.4509 
2 *286:14 *286:16 20 
3 *286:16 *286:18 0.3502 
4 *286:18 *5012:D 47.5911 
5 *286:18 *286:35 46.3757 
6 *286:35 *286:43 3.5947 
7 *286:43 *5171:B 42.8325 
8 *286:43 *286:64 32.463 
9 *286:64 *286:68 21.5862 
10 *286:68 *5194:A 48.8271 
11 *286:68 *5182:A 40.3193 
12 *286:35 *5168:A 40 
13 *286:16 *5163:D 42.3999 
*END

*D_NET *287 0.00992737
*CONN
*I *5132:B I *D sg13g2_nor3_1
*I *5010:B I *D sg13g2_nor2_1
*I *5130:B I *D sg13g2_nor3_1
*I *5136:C I *D sg13g2_nor4_1
*I *5011:D I *D sg13g2_nor4_1
*I *5161:B I *D sg13g2_nor4_1
*I *5160:B I *D sg13g2_nor4_1
*I *5142:D I *D sg13g2_nor4_1
*I *5009:Y O *D sg13g2_nand4_1
*CAP
1 *5132:B 0
2 *5010:B 0.000609392
3 *5130:B 2.99777e-05
4 *5136:C 0
5 *5011:D 0.000177164
6 *5161:B 0
7 *5160:B 0.000109077
8 *5142:D 0.00040359
9 *5009:Y 9.62632e-05
10 *287:90 0.000987519
11 *287:41 0.000309112
12 *287:39 0.00115094
13 *287:29 0.00081806
14 *287:14 0.00141438
15 *287:12 0.00112538
16 *287:8 0.000603322
17 *5010:B *358:14 8.03692e-05
18 *5010:B *1017:56 0
19 *5010:B *1019:91 0
20 *5011:D *5011:C 4.78521e-05
21 *5130:B *5130:A 0
22 *5142:D *348:14 0
23 *5142:D *370:8 0
24 *5142:D *374:8 7.97013e-05
25 *5142:D *636:31 0
26 *5142:D *1019:16 4.78524e-05
27 *5142:D *1119:33 0.00014491
28 *5142:D *1120:26 0
29 *5160:B *5160:C 2.23797e-05
30 *5160:B *5160:D 0
31 *5160:B *373:22 0.000291566
32 *5160:B *386:23 0.000237794
33 *5160:B *1019:40 1.54008e-05
34 *5160:B *1094:73 0
35 *287:8 *358:80 0.00014396
36 *287:12 *5134:A2 0
37 *287:12 *367:75 0
38 *287:14 *5134:A2 0
39 *287:14 *348:14 0
40 *287:14 *367:75 0
41 *287:14 *1019:10 0
42 *287:29 *5136:B 4.79124e-05
43 *287:29 *636:31 0
44 *287:39 *4998:C 8.00842e-05
45 *287:39 *5011:C 0
46 *287:39 *5136:B 0.000177449
47 *287:39 *5136:D 0.000177265
48 *287:39 *636:31 0
49 *287:41 *387:8 0
50 *287:41 *1094:73 0
51 *287:90 *358:80 0
52 *287:90 *367:75 0
53 *4997:C *5011:D 8.03089e-05
54 *4997:C *287:39 0
55 *5132:C *5010:B 1.54008e-05
56 *5132:C *287:90 0.000323603
57 *5136:A *287:39 3.15716e-05
58 *5965:A *287:90 0
59 *280:16 *5011:D 0
60 *281:16 *5130:B 0
61 *285:6 *5130:B 4.78028e-05
62 *285:10 *287:12 0
63 *285:10 *287:90 0
64 *286:14 *5010:B 0
65 *286:14 *287:8 0
66 *286:14 *287:90 0
*RES
1 *5009:Y *287:8 40.9682 
2 *287:8 *287:12 1.1639 
3 *287:12 *287:14 10.4854 
4 *287:14 *5142:D 44.1303 
5 *287:14 *287:29 20.5356 
6 *287:29 *287:39 28.0449 
7 *287:39 *287:41 1.8334 
8 *287:41 *5160:B 41.733 
9 *287:41 *5161:B 40 
10 *287:39 *5011:D 41.8746 
11 *287:29 *5136:C 20 
12 *287:12 *5130:B 40.3193 
13 *287:8 *287:90 23.5432 
14 *287:90 *5010:B 25.7268 
15 *287:90 *5132:B 20 
*END

*D_NET *288 0.0104919
*CONN
*I *5208:A I *D sg13g2_and4_1
*I *5175:A I *D sg13g2_nand4_1
*I *5010:Y O *D sg13g2_nor2_1
*CAP
1 *5208:A 0
2 *5175:A 0.000114043
3 *5010:Y 0.000909918
4 *288:35 0.00119837
5 *288:18 0.00260115
6 *288:10 0.00219866
7 *5175:A *5179:A2 1.54008e-05
8 *5175:A *1005:86 4.77425e-05
9 *288:10 *358:14 0
10 *288:10 *1008:37 0
11 *288:10 *1015:12 0
12 *288:10 *1015:92 0
13 *288:10 *1096:50 0
14 *288:18 *5589:RESET_B 0
15 *288:18 *367:16 0.000848299
16 *288:18 *397:14 0
17 *288:18 *708:66 0
18 *288:18 *1006:31 0
19 *288:35 *4991:C 0.00023464
20 *288:35 *5615:CLK 0.000287758
21 *288:35 *405:16 0
22 *288:35 *632:8 0.00132829
23 *288:35 *632:34 0.000210208
24 *288:35 *1005:65 0
25 *288:35 *1015:46 0
26 *288:35 *1099:23 0.000497464
27 *286:14 *288:10 0
*RES
1 *5010:Y *288:10 47.3439 
2 *288:10 *288:18 32.2364 
3 *288:18 *5175:A 20.9682 
4 *288:18 *288:35 35.6766 
5 *288:35 *5208:A 40 
*END

*D_NET *289 0.00172071
*CONN
*I *5013:C I *D sg13g2_nand3_1
*I *5011:Y O *D sg13g2_nor4_1
*CAP
1 *5013:C 5.85026e-05
2 *5011:Y 0.000794125
3 *289:8 0.000852627
4 *5013:C *358:14 0
5 *289:8 *4993:D 0
6 *289:8 *1094:73 0
7 *5013:B *5013:C 1.54556e-05
8 *283:6 *5013:C 0
*RES
1 *5011:Y *289:8 48.5078 
2 *289:8 *5013:C 40.5356 
*END

*D_NET *290 0.00238315
*CONN
*I *5015:A2 I *D sg13g2_o21ai_1
*I *5012:Y O *D sg13g2_nand4_1
*CAP
1 *5015:A2 0.00013869
2 *5012:Y 0.00068602
3 *290:8 0.000824709
4 *5015:A2 *358:14 0
5 *5015:A2 *1018:18 0.000110918
6 *5015:A2 *1049:25 1.54556e-05
7 *290:8 *5165:C 7.34889e-05
8 *5012:D *290:8 0
9 *5015:A1 *5015:A2 8.03692e-05
10 *268:37 *5015:A2 0
11 *268:37 *290:8 0.000453497
*RES
1 *5012:Y *290:8 46.319 
2 *290:8 *5015:A2 41.4008 
*END

*D_NET *291 0.00731646
*CONN
*I *5014:A2 I *D sg13g2_a21oi_1
*I *5402:A I *D sg13g2_nand3_1
*I *5013:Y O *D sg13g2_nand3_1
*CAP
1 *5014:A2 0.000687639
2 *5402:A 0
3 *5013:Y 0
4 *291:12 0.00352935
5 *291:6 0.00284171
6 *5014:A2 *5401:B 0
7 *5014:A2 *5402:B 8.03692e-05
8 *5014:A2 *5753:RESET_B 0
9 *5014:A2 *716:44 0
10 *5014:A2 *718:22 0
11 *291:12 *5400:A_N 0
12 *291:12 *5401:A 0
13 *291:12 *387:25 0
14 *291:12 *708:56 0
15 *291:12 *718:22 0
16 *291:12 *1049:10 0
17 *291:12 *1096:8 0
18 *5753:D *5014:A2 0.000177394
*RES
1 *5013:Y *291:6 40 
2 *291:6 *291:12 48.2323 
3 *291:12 *5402:A 20 
4 *291:12 *5014:A2 27.416 
*END

*D_NET *292 0.00725601
*CONN
*I *5018:A1 I *D sg13g2_a21oi_1
*I *5015:Y O *D sg13g2_o21ai_1
*CAP
1 *5018:A1 0
2 *5015:Y 0
3 *292:12 0.0024222
4 *292:6 0.0024222
5 *292:12 *5018:A2 1.54008e-05
6 *292:12 *5819:RESET_B 0
7 *292:12 *700:16 0
8 *292:12 *708:28 0.0015885
9 *292:12 *1006:10 0
10 *292:12 *1018:10 0.00066289
11 *292:12 *1049:10 0
12 *5819:D *292:12 0.000144816
13 *261:12 *292:12 0
*RES
1 *5015:Y *292:6 40 
2 *292:6 *292:12 45.7294 
3 *292:12 *5018:A1 20 
*END

*D_NET *293 0.00120505
*CONN
*I *5017:B2 I *D sg13g2_a22oi_1
*I *5016:Y O *D sg13g2_nand3_1
*CAP
1 *5017:B2 0.000163865
2 *5016:Y 0.000334222
3 *293:8 0.000498087
4 *5017:B2 *5017:B1 0
5 *5017:B2 *5017:A2 0.000208873
6 *5017:B2 *5017:A1 0
7 *5017:B2 *1052:16 0
8 *293:8 *5017:B1 0
9 *293:8 *715:74 0
10 *293:8 *1054:8 0
11 *293:8 *1054:14 0
*RES
1 *5016:Y *293:8 43.3166 
2 *293:8 *5017:B2 41.6171 
*END

*D_NET *294 0.00172948
*CONN
*I *5018:A2 I *D sg13g2_a21oi_1
*I *5017:Y O *D sg13g2_a22oi_1
*CAP
1 *5018:A2 0.000204282
2 *5017:Y 0.000237416
3 *294:8 0.000441698
4 *5018:A2 *5819:RESET_B 0
5 *5018:A2 *5825:CLK 0
6 *5018:A2 *605:114 0
7 *294:8 *718:39 0.000830681
8 *292:12 *5018:A2 1.54008e-05
*RES
1 *5017:Y *294:8 43.811 
2 *294:8 *5018:A2 41.8334 
*END

*D_NET *295 0.00162512
*CONN
*I *5020:A I *D sg13g2_inv_1
*I *5019:Y O *D sg13g2_a22oi_1
*CAP
1 *5020:A 0
2 *5019:Y 0.000724887
3 *295:10 0.000724887
4 *295:10 *5019:A2 0
5 *295:10 *5019:A1 0
6 *295:10 *5685:CLK 0
7 *295:10 *5827:CLK 0
8 *295:10 *605:29 0
9 *295:10 *715:8 7.9703e-05
10 *295:10 *1051:14 4.7803e-05
11 *295:10 *1051:27 0
12 *266:18 *295:10 4.78356e-05
*RES
1 *5019:Y *295:10 47.004 
2 *295:10 *5020:A 40 
*END

*D_NET *296 0.000560928
*CONN
*I *5022:B1 I *D sg13g2_a21o_1
*I *5021:X O *D sg13g2_and3_1
*CAP
1 *5022:B1 0.000200643
2 *5021:X 0.000200643
3 *5022:B1 *4985:A 0
4 *5022:B1 *5022:A1 1.54556e-05
5 *5022:B1 *715:31 0
6 *5022:B1 *1050:14 0.000144187
7 *5022:B1 *1050:34 0
*RES
1 *5021:X *5022:B1 41.9673 
*END

*D_NET *297 0.00115136
*CONN
*I *5335:A1 I *D sg13g2_a21oi_1
*I *5023:Y O *D sg13g2_nor3_1
*CAP
1 *5335:A1 0.00013044
2 *5023:Y 7.4687e-05
3 *297:8 0.000205127
4 *5335:A1 *5334:B 0
5 *5335:A1 *5335:A2 1.54556e-05
6 *5335:A1 *1035:22 0.000208938
7 *297:8 *5981:A 0
8 *297:8 *1050:44 0.000231324
9 *297:8 *1051:33 0.00028539
*RES
1 *5023:Y *297:8 41.339 
2 *297:8 *5335:A1 41.4008 
*END

*D_NET *298 0.00206425
*CONN
*I *5025:B1 I *D sg13g2_o21ai_1
*I *5024:Y O *D sg13g2_nor2_1
*CAP
1 *5025:B1 3.27729e-05
2 *5024:Y 0.000406195
3 *298:10 0.000438968
4 *5025:B1 *5025:A2 1.54008e-05
5 *298:10 *5024:B 0.000144833
6 *298:10 *5437:A 4.77425e-05
7 *298:10 *605:189 0
8 *298:10 *605:269 0
9 *298:10 *1045:6 0.000209637
10 *298:10 *1045:27 0.000235055
11 *298:10 *1052:16 0.000533645
12 *5982:A *298:10 0
*RES
1 *5024:Y *298:10 44.9028 
2 *298:10 *5025:B1 40.3193 
*END

*D_NET *299 0.000595645
*CONN
*I *5026:D I *D sg13g2_nor4_1
*I *5025:Y O *D sg13g2_o21ai_1
*CAP
1 *5026:D 0.000218025
2 *5025:Y 0.000218025
3 *5026:D *5025:A2 0.000111683
4 *5026:D *5026:C 4.79124e-05
5 *5982:A *5026:D 0
*RES
1 *5025:Y *5026:D 42.1836 
*END

*D_NET *300 0.000133739
*CONN
*I *5029:A I *D sg13g2_nor2_1
*I *5027:Y O *D sg13g2_o21ai_1
*CAP
1 *5029:A 6.68694e-05
2 *5027:Y 6.68694e-05
*RES
1 *5027:Y *5029:A 40.8446 
*END

*D_NET *301 0.000914688
*CONN
*I *5029:B I *D sg13g2_nor2_1
*I *5028:Y O *D sg13g2_nor2b_1
*CAP
1 *5029:B 0
2 *5028:Y 0.000457344
3 *301:10 0.000457344
4 *301:10 *5077:A2 0
5 *301:10 *666:30 0
6 *301:10 *677:8 0
*RES
1 *5028:Y *301:10 45.15 
2 *301:10 *5029:B 40 
*END

*D_NET *302 0.000390147
*CONN
*I *5032:B I *D sg13g2_nor2_1
*I *5030:Y O *D sg13g2_nor2b_1
*CAP
1 *5032:B 0.000195073
2 *5030:Y 0.000195073
3 *5032:B *5495:RESET_B 0
4 *5032:B *707:89 0
5 *5495:D *5032:B 0
*RES
1 *5030:Y *5032:B 42.2145 
*END

*D_NET *303 0.000251577
*CONN
*I *5032:A I *D sg13g2_nor2_1
*I *5031:Y O *D sg13g2_o21ai_1
*CAP
1 *5032:A 0
2 *5031:Y 0.000125789
3 *303:8 0.000125789
4 *303:8 *707:89 0
*RES
1 *5031:Y *303:8 41.5862 
2 *303:8 *5032:A 40 
*END

*D_NET *304 0.00154335
*CONN
*I *5035:B I *D sg13g2_nor2_1
*I *5033:Y O *D sg13g2_nor2b_1
*CAP
1 *5035:B 0.000354593
2 *5033:Y 0.000328453
3 *304:10 0.000683047
4 *5035:B *5034:A2 0
5 *5035:B *5035:A 0
6 *5035:B *5940:A 0
7 *5035:B *708:6 0
8 *304:10 *5034:A1 0
9 *304:10 *708:10 0
10 *89:10 *5035:B 0.000177257
11 *89:10 *304:10 0
*RES
1 *5033:Y *304:10 43.1106 
2 *304:10 *5035:B 43.3475 
*END

*D_NET *305 0.000983981
*CONN
*I *5035:A I *D sg13g2_nor2_1
*I *5034:Y O *D sg13g2_o21ai_1
*CAP
1 *5035:A 0.000484263
2 *5034:Y 0.000484263
3 *5035:A *5034:B1 1.54556e-05
4 *5035:A *5034:A2 0
5 *5035:A *637:25 0
6 *5035:A *637:42 0
7 *5035:B *5035:A 0
8 *89:10 *5035:A 0
*RES
1 *5034:Y *5035:A 44.841 
*END

*D_NET *306 0.000400036
*CONN
*I *5038:B I *D sg13g2_nor2_1
*I *5036:Y O *D sg13g2_nor2b_1
*CAP
1 *5038:B 0.000200018
2 *5036:Y 0.000200018
3 *5038:B *5036:A 0
4 *5038:B *5038:A 0
*RES
1 *5036:Y *5038:B 41.9673 
*END

*D_NET *307 0.00122906
*CONN
*I *5038:A I *D sg13g2_nor2_1
*I *5037:Y O *D sg13g2_o21ai_1
*CAP
1 *5038:A 0.000175063
2 *5037:Y 0.000399427
3 *307:10 0.00057449
4 *5038:A *5499:RESET_B 0
5 *307:10 *707:74 1.54008e-05
6 *307:10 *707:89 6.46834e-05
7 *307:10 *708:10 0
8 *5038:B *5038:A 0
*RES
1 *5037:Y *307:10 43.8213 
2 *307:10 *5038:A 41.6171 
*END

*D_NET *308 0.000305525
*CONN
*I *5041:B I *D sg13g2_nor2_1
*I *5039:Y O *D sg13g2_nor2b_1
*CAP
1 *5041:B 0.000152762
2 *5039:Y 0.000152762
3 *5041:B *5039:B_N 0
4 *5041:B *666:30 0
5 *5041:B *716:44 0
6 *5501:D *5041:B 0
*RES
1 *5039:Y *5041:B 42.0497 
*END

*D_NET *309 0.000172882
*CONN
*I *5041:A I *D sg13g2_nor2_1
*I *5040:Y O *D sg13g2_o21ai_1
*CAP
1 *5041:A 8.64409e-05
2 *5040:Y 8.64409e-05
*RES
1 *5040:Y *5041:A 41.0918 
*END

*D_NET *310 0.00097108
*CONN
*I *5044:B I *D sg13g2_nor2_1
*I *5042:Y O *D sg13g2_nor2b_1
*CAP
1 *5044:B 0.000130953
2 *5042:Y 0.000132924
3 *310:8 0.000263877
4 *5044:B *667:42 0
5 *5044:B *1000:28 0.000209016
6 *310:8 *665:30 0.000234311
7 *310:8 *665:40 0
8 *310:8 *716:34 0
9 *310:8 *716:60 0
*RES
1 *5042:Y *310:8 41.5862 
2 *310:8 *5044:B 41.4008 
*END

*D_NET *311 0.000558289
*CONN
*I *5044:A I *D sg13g2_nor2_1
*I *5043:Y O *D sg13g2_o21ai_1
*CAP
1 *5044:A 0
2 *5043:Y 0.000279145
3 *311:8 0.000279145
4 *311:8 *642:29 0
5 *311:8 *716:60 0
*RES
1 *5043:Y *311:8 42.8222 
2 *311:8 *5044:A 40 
*END

*D_NET *312 0.00106411
*CONN
*I *5047:B I *D sg13g2_nor2_1
*I *5045:Y O *D sg13g2_nor2b_1
*CAP
1 *5047:B 0.000138904
2 *5045:Y 0.000393151
3 *312:10 0.000532055
4 *5047:B *718:14 0
5 *5047:B *864:36 0
6 *312:10 *665:77 0
7 *312:10 *666:30 0
8 *312:10 *667:54 0
*RES
1 *5045:Y *312:10 44.0994 
2 *312:10 *5047:B 41.1845 
*END

*D_NET *313 0.00053381
*CONN
*I *5047:A I *D sg13g2_nor2_1
*I *5046:Y O *D sg13g2_o21ai_1
*CAP
1 *5047:A 6.09839e-05
2 *5046:Y 0.000115443
3 *313:8 0.000176427
4 *5047:A *5493:CLK 0
5 *5047:A *718:14 0
6 *313:8 *643:19 0.000180955
7 *313:8 *719:73 0
*RES
1 *5046:Y *313:8 41.339 
2 *313:8 *5047:A 40.4847 
*END

*D_NET *314 0.000668321
*CONN
*I *5050:B I *D sg13g2_nor2_1
*I *5048:Y O *D sg13g2_nor2b_1
*CAP
1 *5050:B 0.000296462
2 *5048:Y 0.000296462
3 *5050:B *5896:A 7.53965e-05
4 *5050:B *660:18 0
5 *5050:B *1089:10 0
6 *5507:D *5050:B 0
7 *261:31 *5050:B 0
*RES
1 *5048:Y *5050:B 42.9973 
*END

*D_NET *315 0.000278593
*CONN
*I *5050:A I *D sg13g2_nor2_1
*I *5049:Y O *D sg13g2_o21ai_1
*CAP
1 *5050:A 0
2 *5049:Y 0.000139297
3 *315:8 0.000139297
4 *315:8 *643:34 0
5 *315:8 *646:39 0
*RES
1 *5049:Y *315:8 41.5862 
2 *315:8 *5050:A 40 
*END

*D_NET *316 0.000695517
*CONN
*I *5053:B I *D sg13g2_nor2_1
*I *5051:Y O *D sg13g2_nor2b_1
*CAP
1 *5053:B 0.000109773
2 *5051:Y 0.000237986
3 *316:10 0.000347759
4 *5053:B *705:117 0
5 *316:10 *658:75 0
6 *316:10 *662:50 0
7 *316:10 *705:117 0
*RES
1 *5051:Y *316:10 42.369 
2 *316:10 *5053:B 41.1845 
*END

*D_NET *317 9.50856e-05
*CONN
*I *5053:A I *D sg13g2_nor2_1
*I *5052:Y O *D sg13g2_o21ai_1
*CAP
1 *5053:A 4.75428e-05
2 *5052:Y 4.75428e-05
3 *5053:A *6055:A 0
*RES
1 *5052:Y *5053:A 40.5974 
*END

*D_NET *318 0.000874717
*CONN
*I *5056:B I *D sg13g2_nor2_1
*I *5054:Y O *D sg13g2_nor2b_1
*CAP
1 *5056:B 0.00012406
2 *5054:Y 0.000241119
3 *318:10 0.000365179
4 *5056:B *6055:A 0
5 *318:10 *5055:B1 0.000144358
6 *318:10 *319:8 0
7 *318:10 *706:75 0
8 *318:10 *706:94 0
*RES
1 *5054:Y *318:10 42.5544 
2 *318:10 *5056:B 41.1845 
*END

*D_NET *319 0.0001175
*CONN
*I *5056:A I *D sg13g2_nor2_1
*I *5055:Y O *D sg13g2_o21ai_1
*CAP
1 *5056:A 0
2 *5055:Y 5.87498e-05
3 *319:8 5.87498e-05
4 *319:8 *637:48 0
5 *318:10 *319:8 0
*RES
1 *5055:Y *319:8 40.175 
2 *319:8 *5056:A 40 
*END

*D_NET *320 0.000680165
*CONN
*I *5059:B I *D sg13g2_nor2_1
*I *5057:Y O *D sg13g2_nor2b_1
*CAP
1 *5059:B 0.000133429
2 *5057:Y 0.000206653
3 *320:8 0.000340083
4 *5059:B *706:64 0
5 *320:8 *662:50 0
6 *320:8 *783:8 0
*RES
1 *5057:Y *320:8 42.3278 
2 *320:8 *5059:B 41.4008 
*END

*D_NET *321 9.45957e-05
*CONN
*I *5059:A I *D sg13g2_nor2_1
*I *5058:Y O *D sg13g2_o21ai_1
*CAP
1 *5059:A 4.72978e-05
2 *5058:Y 4.72978e-05
*RES
1 *5058:Y *5059:A 40.5974 
*END

*D_NET *322 0.0013542
*CONN
*I *5062:B I *D sg13g2_nor2_1
*I *5060:Y O *D sg13g2_nor2b_1
*CAP
1 *5062:B 0
2 *5060:Y 0.000351257
3 *322:10 0.000351257
4 *322:10 *5060:B_N 0.000208878
5 *322:10 *5895:A 4.77425e-05
6 *322:10 *706:64 0.000395067
7 *98:8 *322:10 0
*RES
1 *5060:Y *322:10 43.8831 
2 *322:10 *5062:B 40 
*END

*D_NET *323 0.000316343
*CONN
*I *5062:A I *D sg13g2_nor2_1
*I *5061:Y O *D sg13g2_o21ai_1
*CAP
1 *5062:A 0.000158171
2 *5061:Y 0.000158171
3 *5062:A *5515:CLK 0
4 *5062:A *659:21 0
5 *5062:A *991:10 0
*RES
1 *5061:Y *5062:A 41.8746 
*END

*D_NET *324 0.00207042
*CONN
*I *5065:B I *D sg13g2_nor2_1
*I *5063:Y O *D sg13g2_nor2b_1
*CAP
1 *5065:B 0.000356108
2 *5063:Y 0.000188267
3 *324:8 0.000544375
4 *5065:B *5064:B1 0.00053399
5 *5065:B *5065:A 0
6 *324:8 *658:41 0.000447678
*RES
1 *5063:Y *324:8 42.575 
2 *324:8 *5065:B 43.5638 
*END

*D_NET *325 0.00129403
*CONN
*I *5065:A I *D sg13g2_nor2_1
*I *5064:Y O *D sg13g2_o21ai_1
*CAP
1 *5065:A 0.000433629
2 *5064:Y 0.000433629
3 *5065:A *5064:B1 0
4 *5065:A *658:41 2.21754e-05
5 *5065:B *5065:A 0
6 *5517:D *5065:A 0.000404597
*RES
1 *5064:Y *5065:A 44.4084 
*END

*D_NET *326 0.00175322
*CONN
*I *5068:B I *D sg13g2_nor2_1
*I *5066:Y O *D sg13g2_nor2b_1
*CAP
1 *5068:B 0.000361426
2 *5066:Y 0.000337855
3 *326:8 0.000699281
4 *5068:B *5068:A 0.000177399
5 *5068:B *709:24 0
6 *326:8 *658:52 0
7 *326:8 *706:10 0
8 *326:8 *1013:8 0
9 *100:10 *5068:B 0.000177257
*RES
1 *5066:Y *326:8 43.3166 
2 *326:8 *5068:B 43.3475 
*END

*D_NET *327 0.00134997
*CONN
*I *5068:A I *D sg13g2_nor2_1
*I *5067:Y O *D sg13g2_o21ai_1
*CAP
1 *5068:A 0.000442169
2 *5067:Y 0.000442169
3 *5068:A *5064:B1 1.54008e-05
4 *5068:A *5067:A2 4.78356e-05
5 *5068:A *5519:RESET_B 0
6 *5068:A *706:14 4.77425e-05
7 *5068:A *709:24 0
8 *5068:B *5068:A 0.000177399
9 *100:10 *5068:A 0.000177257
*RES
1 *5067:Y *5068:A 44.4496 
*END

*D_NET *328 0.00169903
*CONN
*I *5071:B I *D sg13g2_nor2_1
*I *5069:Y O *D sg13g2_nor2b_1
*CAP
1 *5071:B 0.000238227
2 *5069:Y 0.000424852
3 *328:8 0.000663079
4 *5071:B *5070:B1 0
5 *5071:B *5071:A 0
6 *5071:B *1024:27 8.00842e-05
7 *328:8 *329:10 0.00029279
8 *328:8 *1024:8 0
9 boot_addr[16] *5071:B 0
10 *5521:D *5071:B 0
*RES
1 *5069:Y *328:8 44.7998 
2 *328:8 *5071:B 42.266 
*END

*D_NET *329 0.00146229
*CONN
*I *5071:A I *D sg13g2_nor2_1
*I *5070:Y O *D sg13g2_o21ai_1
*CAP
1 *5071:A 0.000196292
2 *5070:Y 0.000219799
3 *329:10 0.000416091
4 *5071:A *1024:27 8.02598e-05
5 *329:10 *5070:B1 4.77425e-05
6 boot_addr[16] *5071:A 0.000209315
7 *5071:B *5071:A 0
8 *328:8 *329:10 0.00029279
*RES
1 *5070:Y *329:10 42.369 
2 *329:10 *5071:A 42.0497 
*END

*D_NET *330 0.00091003
*CONN
*I *5073:B1 I *D sg13g2_a21oi_1
*I *5072:Y O *D sg13g2_o21ai_1
*CAP
1 *5073:B1 0.000447287
2 *5072:Y 0.000447287
3 *5073:B1 *5072:B1 1.54556e-05
4 *5073:B1 *5072:A2 0
5 *5073:B1 *5523:RESET_B 0
6 *5073:B1 *6035:A 0
*RES
1 *5072:Y *5073:B1 44.841 
*END

*D_NET *331 0.00031178
*CONN
*I *5076:B I *D sg13g2_nor2_1
*I *5074:Y O *D sg13g2_nor2b_1
*CAP
1 *5076:B 0.00015589
2 *5074:Y 0.00015589
3 *5076:B *662:25 0
4 *5525:D *5076:B 0
*RES
1 *5074:Y *5076:B 41.751 
*END

*D_NET *332 0.000403589
*CONN
*I *5076:A I *D sg13g2_nor2_1
*I *5075:Y O *D sg13g2_o21ai_1
*CAP
1 *5076:A 0
2 *5075:Y 0.00016423
3 *332:8 0.00016423
4 *332:8 *1048:40 7.51285e-05
5 *332:8 *1048:59 0
*RES
1 *5075:Y *332:8 42.0806 
2 *332:8 *5076:A 40 
*END

*D_NET *333 0.000870857
*CONN
*I *5078:B1 I *D sg13g2_a21oi_1
*I *5077:Y O *D sg13g2_o21ai_1
*CAP
1 *5078:B1 0
2 *5077:Y 0.000157932
3 *333:8 0.000157932
4 *333:8 *646:64 0
5 *333:8 *707:95 0.000554993
*RES
1 *5077:Y *333:8 42.575 
2 *333:8 *5078:B1 40 
*END

*D_NET *334 0.00135778
*CONN
*I *5080:B1 I *D sg13g2_a21oi_1
*I *5079:Y O *D sg13g2_o21ai_1
*CAP
1 *5080:B1 0.000339791
2 *5079:Y 0.000339791
3 *5080:B1 *5079:A2 0
4 *5080:B1 *5080:A1 0
5 *5080:B1 *705:75 0.000274677
6 *5080:B1 *820:14 0
7 *5529:D *5080:B1 0.000403526
*RES
1 *5079:Y *5080:B1 43.5638 
*END

*D_NET *335 0.000982179
*CONN
*I *5082:B1 I *D sg13g2_a21oi_1
*I *5081:Y O *D sg13g2_o21ai_1
*CAP
1 *5082:B1 0
2 *5081:Y 0.000483389
3 *335:12 0.000483389
4 *335:12 *5974:A 0
5 *335:12 *631:62 1.54008e-05
6 *335:12 *632:50 0
7 *335:12 *1028:10 0
8 *335:12 *1029:8 0
*RES
1 *5081:Y *335:12 45.3148 
2 *335:12 *5082:B1 40 
*END

*D_NET *336 0.00156166
*CONN
*I *5084:B1 I *D sg13g2_a21oi_1
*I *5083:Y O *D sg13g2_o21ai_1
*CAP
1 *5084:B1 0.000425316
2 *5083:Y 0.000425316
3 *5084:B1 *5083:A2 0
4 *5084:B1 *1029:30 0
5 *5084:A2 *5084:B1 0.00046884
6 *107:10 *5084:B1 0.000242187
*RES
1 *5083:Y *5084:B1 44.6144 
*END

*D_NET *337 0.00157639
*CONN
*I *5086:B1 I *D sg13g2_a21oi_1
*I *5085:Y O *D sg13g2_o21ai_1
*CAP
1 *5086:B1 0
2 *5085:Y 0.000676533
3 *337:18 0.000676533
4 *337:18 *5085:B1 1.54008e-05
5 *337:18 *5535:RESET_B 0
6 *337:18 *1029:16 0.000207923
*RES
1 *5085:Y *337:18 47.9722 
2 *337:18 *5086:B1 40 
*END

*D_NET *338 0.00125561
*CONN
*I *5088:B1 I *D sg13g2_a21oi_1
*I *5087:Y O *D sg13g2_o21ai_1
*CAP
1 *5088:B1 0.000434156
2 *5087:Y 0.000434156
3 *5088:B1 *5087:B1 0
4 *5088:B1 *5087:A1 0
5 *5088:B1 *5087:A2 0.000274742
6 *5088:B1 *5537:CLK 0
7 *109:10 *5088:B1 0.000112558
8 *255:8 *5088:B1 0
*RES
1 *5087:Y *5088:B1 44.6144 
*END

*D_NET *339 0.00140928
*CONN
*I *5090:B1 I *D sg13g2_a21oi_1
*I *5089:Y O *D sg13g2_o21ai_1
*CAP
1 *5090:B1 0.000397565
2 *5089:Y 0.000397565
3 *5090:B1 *5089:B1 1.54008e-05
4 *5090:B1 *742:29 0
5 *5090:B1 *1028:99 0.000598751
*RES
1 *5089:Y *5090:B1 44.3466 
*END

*D_NET *340 0.000331665
*CONN
*I *5092:A I *D sg13g2_and2_1
*I *5091:X O *D sg13g2_mux2_1
*CAP
1 *5092:A 0.000165832
2 *5091:X 0.000165832
3 *5092:A *1105:38 0
4 *5541:D *5092:A 0
*RES
1 *5091:X *5092:A 41.8128 
*END

*D_NET *341 9.68552e-05
*CONN
*I *5094:B1 I *D sg13g2_a21oi_1
*I *5093:Y O *D sg13g2_o21ai_1
*CAP
1 *5094:B1 4.84276e-05
2 *5093:Y 4.84276e-05
3 *5543:D *5094:B1 0
*RES
1 *5093:Y *5094:B1 40.5974 
*END

*D_NET *342 0.000804312
*CONN
*I *5096:B1 I *D sg13g2_a21oi_1
*I *5095:Y O *D sg13g2_o21ai_1
*CAP
1 *5096:B1 0.000402156
2 *5095:Y 0.000402156
3 *5096:B1 *5545:CLK 0
4 *5096:B1 *776:32 0
5 *5096:A2 *5096:B1 0
*RES
1 *5095:Y *5096:B1 44.1612 
*END

*D_NET *343 0.00108423
*CONN
*I *5098:B1 I *D sg13g2_a21oi_1
*I *5097:Y O *D sg13g2_o21ai_1
*CAP
1 *5098:B1 0.000434009
2 *5097:Y 0.000434009
3 *5098:B1 *5097:B1 1.54556e-05
4 *5098:B1 *5097:A2 0
5 *5098:B1 *5098:A1 0
6 *5098:B1 *5547:RESET_B 0
7 *5098:B1 *6047:A 0
8 *5547:D *5098:B1 0.000200753
*RES
1 *5097:Y *5098:B1 43.9964 
*END

*D_NET *344 0.000432095
*CONN
*I *5213:A I *D sg13g2_nand4_1
*I *5099:X O *D sg13g2_and2_1
*CAP
1 *5213:A 0
2 *5099:X 3.44394e-05
3 *344:8 3.44394e-05
4 *344:8 *656:24 0.000181608
5 *344:8 *1034:32 0.000181608
*RES
1 *5099:X *344:8 40.8446 
2 *344:8 *5213:A 40 
*END

*D_NET *345 0.00116395
*CONN
*I *5101:A I *D sg13g2_and2_1
*I *5100:X O *D sg13g2_mux2_1
*CAP
1 *5101:A 0.000276561
2 *5100:X 0.000276561
3 *5101:A *5097:B1 0.000530593
4 *5101:A *5549:RESET_B 0
5 *5101:A *705:53 8.02379e-05
6 *5101:A *1109:14 0
*RES
1 *5100:X *5101:A 43.6359 
*END

*D_NET *346 0.00167825
*CONN
*I *5103:B1 I *D sg13g2_a21oi_1
*I *5102:Y O *D sg13g2_o21ai_1
*CAP
1 *5103:B1 0.000398069
2 *5102:Y 0.000398069
3 *5103:B1 *5102:B1 7.99179e-05
4 *5103:B1 *5102:A2 0
5 *5103:B1 *5103:A1 0.000594065
6 *5103:B1 *5551:CLK 0.000208126
7 *5103:B1 *709:41 0
*RES
1 *5102:Y *5103:B1 44.3466 
*END

*D_NET *347 0.00215508
*CONN
*I *5166:C I *D sg13g2_and4_1
*I *5964:A I *D sg13g2_buf_1
*I *5104:Y O *D sg13g2_nand2b_1
*CAP
1 *5166:C 0.000599328
2 *5964:A 0.000174358
3 *5104:Y 0.000104287
4 *347:8 0.000877974
5 *5166:C *5166:D 1.54008e-05
6 *5166:C *708:56 0.00011226
7 *5166:C *708:66 1.54008e-05
8 *5166:C *1018:10 0
9 *5964:A *5105:A 0
10 *347:8 *5105:B 0
11 *347:8 *5121:A2 0
12 *347:8 *348:8 1.54008e-05
13 *5585:D *5166:C 0.00024067
*RES
1 *5104:Y *347:8 21.1021 
2 *347:8 *5964:A 22.3278 
3 *347:8 *5166:C 26.6435 
*END

*D_NET *348 0.0212421
*CONN
*I *5124:B1 I *D sg13g2_o21ai_1
*I *5133:B1 I *D sg13g2_o21ai_1
*I *5138:B1 I *D sg13g2_o21ai_1
*I *5144:B1 I *D sg13g2_o21ai_1
*I *5217:B I *D sg13g2_nand2_1
*I *5221:B I *D sg13g2_nand2_1
*I *5207:B I *D sg13g2_nand2_1
*I *5105:X O *D sg13g2_and2_1
*CAP
1 *5124:B1 0.000313069
2 *5133:B1 6.78098e-05
3 *5138:B1 5.82708e-05
4 *5144:B1 3.39553e-05
5 *5217:B 0
6 *5221:B 3.87833e-05
7 *5207:B 0.000668227
8 *5105:X 0.000482848
9 *348:55 0.000744909
10 *348:42 0.0014086
11 *348:40 0.000141132
12 *348:32 0.00141498
13 *348:22 0.00256645
14 *348:14 0.00242122
15 *348:10 0.00197882
16 *348:8 0.00156839
17 *5124:B1 *5121:B1 0
18 *5124:B1 *5124:A2 2.29967e-06
19 *5124:B1 *5131:A 0
20 *5124:B1 *5131:C 0
21 *5124:B1 *5962:A 0
22 *5124:B1 *361:8 0
23 *5133:B1 *5134:A2 0
24 *5133:B1 *367:79 0.000112548
25 *5133:B1 *367:96 1.54556e-05
26 *5133:B1 *1119:105 0
27 *5138:B1 *5139:B1 1.54556e-05
28 *5138:B1 *370:12 0.000112548
29 *5144:B1 *5144:A2 1.54008e-05
30 *5144:B1 *5145:B1 1.54008e-05
31 *5207:B *5207:A 0
32 *5207:B *388:24 0
33 *5207:B *388:26 0
34 *5207:B *388:38 0
35 *5207:B *1015:60 0
36 *348:8 *5121:A2 0
37 *348:8 *1018:108 0
38 *348:8 *1019:111 0
39 *348:10 *5121:B1 0
40 *348:10 *5131:A 0
41 *348:10 *367:75 0.00182239
42 *348:10 *1115:37 0
43 *348:10 *1118:41 0.000559867
44 *348:10 *1119:105 0
45 *348:14 *367:75 7.53228e-05
46 *348:14 *367:96 0
47 *348:14 *370:8 0
48 *348:14 *608:23 0
49 *348:14 *636:20 0
50 *348:14 *1093:85 0
51 *348:22 *5148:D 0
52 *348:22 *5577:CLK 0
53 *348:22 *370:12 0
54 *348:22 *605:76 0
55 *348:22 *691:8 0
56 *348:22 *691:29 0.000128663
57 *348:22 *705:31 0
58 *348:22 *705:39 7.4933e-05
59 *348:22 *1092:12 0
60 *348:22 *1093:85 0
61 *348:32 *5153:B 0
62 *348:32 *5862:A 0
63 *348:32 *382:8 0
64 *348:32 *607:8 0.000209681
65 *348:32 *691:29 0.000181192
66 *348:32 *1007:81 0.00121306
67 *348:32 *1015:60 0
68 *348:32 *1094:8 0.000371322
69 *348:32 *1094:16 0
70 *348:32 *1108:37 0
71 *348:40 *431:8 0.00023464
72 *348:55 *5099:B 0
73 *348:55 *5215:B 0.000316444
74 *348:55 *410:12 0
75 *348:55 *429:8 0
76 *348:55 *430:20 0.00113767
77 *348:55 *430:35 0
78 *348:55 *431:8 7.51285e-05
79 *348:55 *605:53 0
80 *348:55 *656:20 0
81 *348:55 *1110:19 0
82 *348:55 *1110:32 0
83 *348:55 *1110:38 0.000395067
84 *5142:D *348:14 0
85 *5222:A1 *348:55 0.000234726
86 *5583:D *348:32 0
87 *125:10 *348:10 0
88 *281:12 *348:10 0
89 *287:14 *348:14 0
90 *347:8 *348:8 1.54008e-05
*RES
1 *5105:X *348:8 44.6453 
2 *348:8 *348:10 10.9798 
3 *348:10 *348:14 32.463 
4 *348:14 *348:22 32.1746 
5 *348:22 *348:32 34.8114 
6 *348:32 *348:40 41.4111 
7 *348:40 *348:42 0.3193 
8 *348:42 *5207:B 25.5105 
9 *348:42 *348:55 49.7438 
10 *348:55 *5221:B 20.3193 
11 *348:40 *5217:B 20 
12 *348:22 *5144:B1 40.3193 
13 *348:14 *5138:B1 20.7519 
14 *348:10 *5133:B1 40.7519 
15 *348:8 *5124:B1 43.2651 
*END

*D_NET *349 0.00975765
*CONN
*I *5128:A I *D sg13g2_nor3_1
*I *5131:B I *D sg13g2_nor3_1
*I *5955:A I *D sg13g2_buf_1
*I *5106:Y O *D sg13g2_nand2_1
*CAP
1 *5128:A 0
2 *5131:B 0
3 *5955:A 0.000160513
4 *5106:Y 0.00054013
5 *349:46 0.000131483
6 *349:33 0.000639254
7 *349:25 0.00220917
8 *349:10 0.00213908
9 *5955:A *5116:C 0
10 *5955:A *5954:A 0
11 *349:10 *636:48 0
12 *349:10 *662:40 0
13 *349:10 *706:94 5.47442e-05
14 *349:10 *719:25 0
15 *349:10 *1007:10 0.000340704
16 *349:10 *1018:114 8.02595e-05
17 *349:25 *355:8 0.000500302
18 *349:25 *636:48 0
19 *349:25 *662:40 0
20 *349:25 *719:25 0
21 *349:25 *1007:10 0.000448515
22 *349:25 *1007:25 0.00218375
23 *349:25 *1008:19 0
24 *349:25 *1114:23 0
25 *349:33 *5125:A2 0
26 *349:46 *5128:B 4.77425e-05
27 *349:46 *361:29 0
28 *349:46 *1116:71 4.77425e-05
29 *349:46 *1118:14 0.000234256
*RES
1 *5106:Y *349:10 45.5826 
2 *349:10 *5955:A 41.0312 
3 *349:10 *349:25 39.5494 
4 *349:25 *349:33 47.2821 
5 *349:33 *5131:B 20 
6 *349:25 *349:46 41.6583 
7 *349:46 *5128:A 20 
*END

*D_NET *350 0.000968529
*CONN
*I *5110:B1 I *D sg13g2_a21oi_1
*I *5107:Y O *D sg13g2_o21ai_1
*CAP
1 *5110:B1 0.000316002
2 *5107:Y 0.000316002
3 *5110:B1 *5030:A 0
4 *5110:B1 *5925:A 0
5 *5110:B1 *661:59 0
6 *5110:B1 *708:14 0.000336525
7 *5553:D *5110:B1 0
*RES
1 *5107:Y *5110:B1 43.3578 
*END

*D_NET *351 0.00568566
*CONN
*I *5963:A I *D sg13g2_buf_1
*I *5235:B2 I *D sg13g2_a22oi_1
*I *5108:Y O *D sg13g2_nor2_1
*CAP
1 *5963:A 0.000186898
2 *5235:B2 0.000866055
3 *5108:Y 0.000745184
4 *351:14 0.00179814
5 *5235:B2 *5233:A1 0
6 *5235:B2 *5234:B1 4.77425e-05
7 *5235:B2 *5235:B1 0
8 *5235:B2 *5235:A2 0
9 *5235:B2 *5236:B1 0
10 *5235:B2 *5237:A 0
11 *5235:B2 *445:10 4.77534e-05
12 *5235:B2 *638:10 0
13 *5235:B2 *1023:39 0
14 *5235:B2 *1023:43 0.000532689
15 *5235:B2 *1046:38 0
16 *5963:A *609:19 0.00050816
17 *351:14 *443:10 0.000145018
18 *351:14 *609:19 7.62389e-05
19 *351:14 *672:6 0.000209763
20 *351:14 *672:14 4.78192e-05
21 *351:14 *672:109 0.000183978
22 *351:14 *675:8 0.0001944
23 *351:14 *675:14 8.03692e-05
24 *351:14 *1017:50 0
25 *351:14 *1048:23 1.54556e-05
26 *351:14 *1052:37 0
*RES
1 *5108:Y *351:14 48.0443 
2 *351:14 *5235:B2 47.8898 
3 *351:14 *5963:A 42.3278 
*END

*D_NET *352 0.00811648
*CONN
*I *5962:A I *D sg13g2_buf_1
*I *5961:A I *D sg13g2_buf_1
*I *5109:X O *D sg13g2_or2_1
*CAP
1 *5962:A 0.00092176
2 *5961:A 0
3 *5109:X 3.05606e-05
4 *352:16 0.00114304
5 *352:8 0.00209536
6 *5962:A *5121:A1 0.00049726
7 *5962:A *5121:A2 0
8 *5962:A *5124:A1 0.000112183
9 *5962:A *5131:A 0
10 *5962:A *5131:C 0
11 *5962:A *361:25 0.000272363
12 *5962:A *661:39 0
13 *352:8 *707:54 0.00016133
14 *352:8 *1017:52 0.000182519
15 *352:16 *5105:B 0.000127297
16 *352:16 *5164:A2 8.85861e-05
17 *352:16 *367:12 0
18 *352:16 *367:16 0
19 *352:16 *707:54 0.000285879
20 *352:16 *1017:52 0.000920612
21 *5124:B1 *5962:A 0
22 *286:14 *352:16 0.00127773
*RES
1 *5109:X *352:8 40.8446 
2 *352:8 *352:16 33.1943 
3 *352:16 *5961:A 20 
4 *352:8 *5962:A 49.4039 
*END

*D_NET *353 0.000284307
*CONN
*I *5113:A I *D sg13g2_and4_1
*I *5111:X O *D sg13g2_a21o_1
*CAP
1 *5113:A 0.000118282
2 *5111:X 0.000118282
3 *5113:A *5036:A 0
4 *5113:A *707:67 4.77425e-05
5 *5555:D *5113:A 0
*RES
1 *5111:X *5113:A 41.3802 
*END

*D_NET *354 0.0021181
*CONN
*I *5113:D I *D sg13g2_and4_1
*I *5114:B_N I *D sg13g2_nor2b_1
*I *5112:Y O *D sg13g2_nand3_1
*CAP
1 *5113:D 0
2 *5114:B_N 0
3 *5112:Y 0
4 *354:25 0.000126983
5 *354:12 0.000225368
6 *354:4 0.000352351
7 *354:12 *1008:19 0.00028826
8 *354:12 *1114:23 0.000287757
9 *354:25 *5113:C 4.77425e-05
10 *354:25 *662:40 0.000395068
11 *354:25 *1018:114 0.000394566
*RES
1 *5112:Y *354:4 20 
2 *354:4 *354:12 42.7398 
3 *354:12 *5114:B_N 20 
4 *354:4 *354:25 42.369 
5 *354:25 *5113:D 20 
*END

*D_NET *355 0.00163281
*CONN
*I *5116:C I *D sg13g2_nor3_1
*I *5114:Y O *D sg13g2_nor2b_1
*CAP
1 *5116:C 0.000143102
2 *5114:Y 0.000108872
3 *355:8 0.000251974
4 *5116:C *5116:B 0.000144208
5 *5116:C *1008:19 0
6 *5116:C *1114:10 1.54008e-05
7 *355:8 *636:48 0
8 *355:8 *1114:10 0.000234224
9 *355:8 *1114:23 0.000234726
10 *5955:A *5116:C 0
11 *349:25 *355:8 0.000500302
*RES
1 *5114:Y *355:8 42.3278 
2 *355:8 *5116:C 41.4008 
*END

*D_NET *356 0.000698708
*CONN
*I *5116:A I *D sg13g2_nor3_1
*I *5117:B I *D sg13g2_nor2_1
*I *5115:X O *D sg13g2_and4_1
*CAP
1 *5116:A 0
2 *5117:B 0.000222317
3 *5115:X 8.68663e-05
4 *356:8 0.000309183
5 *5117:B *5116:B 0
6 *356:8 *5557:CLK 8.0342e-05
7 *5557:D *356:8 0
*RES
1 *5115:X *356:8 21.133 
2 *356:8 *5117:B 21.8334 
3 *356:8 *5116:A 20 
*END

*D_NET *357 0.00223014
*CONN
*I *5119:C I *D sg13g2_nor3_1
*I *5117:Y O *D sg13g2_nor2_1
*CAP
1 *5119:C 0.00013375
2 *5117:Y 0.000323161
3 *357:8 0.000456911
4 *5119:C *5119:B 1.54008e-05
5 *5119:C *5940:A 0.000176691
6 *5119:C *1007:36 0.000241351
7 *357:8 *636:48 0
8 *357:8 *719:25 0.000882874
9 *357:8 *1008:19 0
*RES
1 *5117:Y *357:8 44.0582 
2 *357:8 *5119:C 41.6171 
*END

*D_NET *358 0.0203848
*CONN
*I *5119:A I *D sg13g2_nor3_1
*I *5168:B I *D sg13g2_nand4_1
*I *5171:C I *D sg13g2_and4_1
*I *5182:B I *D sg13g2_nand4_1
*I *5194:B I *D sg13g2_and4_1
*I *5118:Y O *D sg13g2_nor2_1
*CAP
1 *5119:A 0
2 *5168:B 0
3 *5171:C 0
4 *5182:B 4.8821e-05
5 *5194:B 0.000919578
6 *5118:Y 0
7 *358:80 0.00185345
8 *358:64 0.000224019
9 *358:36 0.00216924
10 *358:22 0.00169266
11 *358:14 0.00213938
12 *358:4 0.00372503
13 *5182:B *5182:C 7.97948e-05
14 *5182:B *5192:A 0
15 *5194:B *5192:C 0
16 *5194:B *367:30 0
17 *5194:B *412:8 0
18 *5194:B *1103:40 0.000502364
19 *358:14 *393:12 0
20 *358:14 *1018:18 0
21 *358:14 *1019:81 3.23529e-05
22 *358:14 *1019:91 0.000307238
23 *358:14 *1049:25 0
24 *358:14 *1096:50 0
25 *358:14 *1097:39 0.00037174
26 *358:22 *5172:A2 0.000209703
27 *358:22 *1006:31 0.000177755
28 *358:22 *1097:39 0.000371269
29 *358:36 *5179:A2 0
30 *358:36 *5180:C 0.000758498
31 *358:36 *367:16 0.000274282
32 *358:36 *402:8 0.000176471
33 *358:36 *700:92 0
34 *358:36 *1097:39 0.000467401
35 *358:64 *5171:A 0
36 *358:64 *5171:D 1.54556e-05
37 *358:64 *5172:B1 0
38 *358:64 *1018:37 0.000664484
39 *358:80 *5003:A 0
40 *358:80 *5007:A 0
41 *358:80 *5009:B 0
42 *358:80 *5130:A 0
43 *358:80 *692:29 0
44 *358:80 *709:99 0.000128662
45 *358:80 *719:25 0
46 *358:80 *1019:81 8.0216e-05
47 *358:80 *1100:62 4.77425e-05
48 *358:80 *1111:33 0
49 *358:80 *1114:25 0
50 *358:80 *1117:29 0
51 *358:80 *1117:31 0
52 *5010:B *358:14 8.03692e-05
53 *5013:C *358:14 0
54 *5015:A2 *358:14 0
55 *5132:C *358:80 0
56 *5171:B *358:64 0.000510186
57 *5172:A1 *358:22 0
58 *5182:A *5182:B 4.78359e-05
59 *5194:A *5194:B 0
60 *135:12 *358:22 0
61 *255:30 *5194:B 0
62 *268:8 *5194:B 0.000553332
63 *281:12 *358:80 0
64 *281:16 *358:14 0
65 *282:8 *358:80 0
66 *283:6 *358:14 0
67 *285:6 *358:80 0.000792185
68 *286:14 *358:14 0
69 *286:43 *358:22 7.4559e-05
70 *286:64 *358:22 3.20556e-05
71 *286:64 *358:36 0.000499852
72 *286:64 *358:64 0.000212862
73 *287:8 *358:80 0.00014396
74 *287:90 *358:80 0
75 *288:10 *358:14 0
*RES
1 *5118:Y *358:4 20 
2 *358:4 *358:14 18.0044 
3 *358:14 *358:22 43.3269 
4 *358:22 *358:36 33.0089 
5 *358:36 *5194:B 49.7541 
6 *358:36 *5182:B 40.5356 
7 *358:22 *358:64 44.0376 
8 *358:64 *5171:C 20 
9 *358:14 *5168:B 20 
10 *358:4 *358:80 39.8275 
11 *358:80 *5119:A 40 
*END

*D_NET *359 0.000262279
*CONN
*I *5123:C I *D sg13g2_nor3_1
*I *5120:Y O *D sg13g2_a21oi_1
*CAP
1 *5123:C 0.000123439
2 *5120:Y 0.000123439
3 *5123:C *5123:A 0
4 *5123:C *707:33 0
5 *5123:C *1007:25 1.54008e-05
6 *5123:C *1016:12 0
7 *5120:A1 *5123:C 0
*RES
1 *5120:Y *5123:C 41.133 
*END

*D_NET *360 0.000103577
*CONN
*I *5122:B I *D sg13g2_nor2_1
*I *5121:Y O *D sg13g2_o21ai_1
*CAP
1 *5122:B 5.17885e-05
2 *5121:Y 5.17885e-05
*RES
1 *5121:Y *5122:B 40.5974 
*END

*D_NET *361 0.00469609
*CONN
*I *5125:A2 I *D sg13g2_a21oi_1
*I *5123:A I *D sg13g2_nor3_1
*I *5126:A2 I *D sg13g2_a21oi_1
*I *5127:C I *D sg13g2_and3_1
*I *5124:A2 I *D sg13g2_o21ai_1
*I *5122:Y O *D sg13g2_nor2_1
*CAP
1 *5125:A2 0.000170427
2 *5123:A 2.8765e-05
3 *5126:A2 6.56138e-05
4 *5127:C 2.13247e-05
5 *5124:A2 1.71422e-05
6 *5122:Y 0.000172008
7 *361:29 0.000177145
8 *361:25 0.000700415
9 *361:12 0.000623633
10 *361:8 0.000367483
11 *5124:A2 *5124:A1 3.14288e-05
12 *5125:A2 *5125:A1 7.44751e-05
13 *5125:A2 *661:59 0
14 *5125:A2 *1116:8 5.25851e-05
15 *5125:A2 *1116:10 0.000340227
16 *5126:A2 *1116:79 0.000261293
17 *5127:C *5127:B 4.77425e-05
18 *361:8 *5121:B1 0
19 *361:8 *1116:10 5.15366e-05
20 *361:8 *1116:12 0.000394474
21 *361:25 *5124:A1 6.46561e-05
22 *361:25 *5127:B 0
23 *361:25 *5131:C 0.000164861
24 *361:25 *364:18 0
25 *361:25 *1016:12 0
26 *361:25 *1116:71 0
27 *361:29 *1116:79 7.49652e-05
28 *361:29 *1118:18 0
29 *5123:C *5123:A 0
30 *5124:B1 *5124:A2 2.29967e-06
31 *5124:B1 *361:8 0
32 *5962:A *361:25 0.000272363
33 *121:8 *5126:A2 0.000233588
34 *121:8 *361:29 0.000285638
35 *122:10 *361:25 0
36 *349:33 *5125:A2 0
37 *349:46 *361:29 0
*RES
1 *5122:Y *361:8 42.0806 
2 *361:8 *361:12 20.3193 
3 *361:12 *5124:A2 20.2111 
4 *361:12 *361:25 6.18 
5 *361:25 *361:29 21.339 
6 *361:29 *5127:C 40.3193 
7 *361:29 *5126:A2 41.4111 
8 *361:25 *5123:A 20.3193 
9 *361:8 *5125:A2 42.369 
*END

*D_NET *362 9.90264e-05
*CONN
*I *5125:B1 I *D sg13g2_a21oi_1
*I *5124:Y O *D sg13g2_o21ai_1
*CAP
1 *5125:B1 4.95132e-05
2 *5124:Y 4.95132e-05
*RES
1 *5124:Y *5125:B1 40.5974 
*END

*D_NET *363 0.00107183
*CONN
*I *5128:B I *D sg13g2_nor3_1
*I *5126:Y O *D sg13g2_a21oi_1
*CAP
1 *5128:B 0.000115849
2 *5126:Y 0.000207502
3 *363:10 0.000323351
4 *5128:B *364:8 0
5 *5128:B *1116:71 0
6 *363:10 *364:8 0
7 *363:10 *661:59 0.0001448
8 *363:10 *1116:79 0
9 *121:8 *363:10 0
10 *123:8 *363:10 0.000232582
11 *349:46 *5128:B 4.77425e-05
*RES
1 *5126:Y *363:10 42.3072 
2 *363:10 *5128:B 41.1021 
*END

*D_NET *364 0.00109741
*CONN
*I *5128:C I *D sg13g2_nor3_1
*I *5129:B I *D sg13g2_nor2_1
*I *5127:X O *D sg13g2_and3_1
*CAP
1 *5128:C 0
2 *5129:B 0
3 *5127:X 0.000219849
4 *364:18 0.000161761
5 *364:8 0.000381609
6 *364:8 *661:59 0
7 *364:18 *1116:71 4.77425e-05
8 *364:18 *1118:14 0.000286447
9 *5128:B *364:8 0
10 *361:25 *364:18 0
11 *363:10 *364:8 0
*RES
1 *5127:X *364:8 22.2145 
2 *364:8 *364:18 41.7928 
3 *364:18 *5129:B 20 
4 *364:8 *5128:C 20 
*END

*D_NET *365 0.00198124
*CONN
*I *5131:C I *D sg13g2_nor3_1
*I *5129:Y O *D sg13g2_nor2_1
*CAP
1 *5131:C 0.000670937
2 *5129:Y 0.000670937
3 *5131:C *5125:A1 0.000106817
4 *5131:C *1116:71 0.000288643
5 *5124:B1 *5131:C 0
6 *5962:A *5131:C 0
7 *122:10 *5131:C 7.90445e-05
8 *361:25 *5131:C 0.000164861
*RES
1 *5129:Y *5131:C 47.7868 
*END

*D_NET *366 0.00338469
*CONN
*I *5131:A I *D sg13g2_nor3_1
*I *5134:A2 I *D sg13g2_a21oi_1
*I *5130:Y O *D sg13g2_nor3_1
*CAP
1 *5131:A 0.000842524
2 *5134:A2 0.000619963
3 *5130:Y 0
4 *366:6 0.00146249
5 *5131:A *367:75 0
6 *5131:A *1019:111 0.000444262
7 *5134:A2 *1019:10 0
8 *5134:A2 *1119:105 1.54556e-05
9 *5124:B1 *5131:A 0
10 *5133:B1 *5134:A2 0
11 *5962:A *5131:A 0
12 *282:12 *5134:A2 0
13 *285:10 *5131:A 0
14 *285:10 *5134:A2 0
15 *287:12 *5134:A2 0
16 *287:14 *5134:A2 0
17 *348:10 *5131:A 0
*RES
1 *5130:Y *366:6 40 
2 *366:6 *5134:A2 46.3242 
3 *366:6 *5131:A 48.549 
*END

*D_NET *367 0.0218702
*CONN
*I *5135:A2 I *D sg13g2_a21oi_1
*I *5133:A2 I *D sg13g2_o21ai_1
*I *5164:A1 I *D sg13g2_a21o_1
*I *5177:B I *D sg13g2_nand4_1
*I *5210:A I *D sg13g2_nand4_1
*I *5196:B I *D sg13g2_nand4_1
*I *5200:A I *D sg13g2_nand4_1
*I *5132:Y O *D sg13g2_nor3_1
*CAP
1 *5135:A2 0
2 *5133:A2 0
3 *5164:A1 0
4 *5177:B 0.000102568
5 *5210:A 2.10666e-05
6 *5196:B 0
7 *5200:A 0.000140361
8 *5132:Y 0.000166112
9 *367:96 0.000619715
10 *367:79 0.000716478
11 *367:75 0.00113578
12 *367:30 0.000672175
13 *367:20 0.00167103
14 *367:16 0.00294356
15 *367:12 0.0025816
16 *367:10 0.00189777
17 *367:8 0.000166112
18 *5177:B *5177:A 0.000337633
19 *5177:B *1005:86 0.000127553
20 *5177:B *1008:59 0
21 *5200:A *5196:A 0
22 *5200:A *5200:B 0.000410939
23 *5210:A *425:10 4.7803e-05
24 *5210:A *1005:10 3.24568e-05
25 *367:8 *1017:52 0
26 *367:8 *1019:8 0
27 *367:12 *1008:23 0
28 *367:12 *1096:12 0.00029147
29 *367:12 *1096:18 1.54008e-05
30 *367:16 *5163:A 0.000144542
31 *367:16 *5164:A2 8.84981e-05
32 *367:16 *5179:A2 0.000176274
33 *367:16 *1006:25 0
34 *367:16 *1006:31 0
35 *367:16 *1096:18 0.000143951
36 *367:16 *1096:50 0
37 *367:16 *1096:58 0
38 *367:16 *1097:39 0.000889079
39 *367:20 *5177:A 0.000530735
40 *367:20 *5183:C 0.000607524
41 *367:20 *398:33 0.000234224
42 *367:20 *404:8 0.000235055
43 *367:20 *425:10 7.51285e-05
44 *367:20 *1005:65 0
45 *367:20 *1008:59 0
46 *367:20 *1008:95 0
47 *367:20 *1102:31 0.000713173
48 *367:30 *5194:C 0.000128663
49 *367:30 *5200:B 5.33604e-05
50 *367:30 *425:10 4.77425e-05
51 *367:30 *1005:8 0
52 *367:30 *1005:10 1.54556e-05
53 *367:30 *1005:14 0.00014502
54 *367:30 *1005:16 0.000128247
55 *367:75 *1008:23 0
56 *367:75 *1019:111 0.000144691
57 *367:79 *5133:A1 1.54556e-05
58 *367:79 *1120:8 0
59 *367:96 *5133:A1 3.23472e-05
60 *367:96 *5569:CLK 0
61 *367:96 *636:10 0
62 *367:96 *636:20 0
63 *367:96 *636:38 0
64 *367:96 *1119:105 7.51285e-05
65 *5131:A *367:75 0
66 *5133:B1 *367:79 0.000112548
67 *5133:B1 *367:96 1.54556e-05
68 *5194:B *367:30 0
69 *286:14 *367:12 0
70 *286:14 *367:75 0
71 *287:12 *367:75 0
72 *287:14 *367:75 0
73 *287:90 *367:75 0
74 *288:18 *367:16 0.000848299
75 *348:10 *367:75 0.00182239
76 *348:14 *367:75 7.53228e-05
77 *348:14 *367:96 0
78 *352:16 *367:12 0
79 *352:16 *367:16 0
80 *358:36 *367:16 0.000274282
*RES
1 *5132:Y *367:8 41.5862 
2 *367:8 *367:10 20 
3 *367:10 *367:12 7.4572 
4 *367:12 *367:16 37.1907 
5 *367:16 *367:20 33.9462 
6 *367:20 *367:30 25.7886 
7 *367:30 *5200:A 42.1527 
8 *367:30 *5196:B 40 
9 *367:20 *5210:A 20.3193 
10 *367:16 *5177:B 41.5862 
11 *367:12 *5164:A1 20 
12 *367:10 *367:75 32.3188 
13 *367:75 *367:79 20.9682 
14 *367:79 *5133:A2 20 
15 *367:79 *367:96 47.2718 
16 *367:96 *5135:A2 20 
*END

*D_NET *368 9.45957e-05
*CONN
*I *5134:B1 I *D sg13g2_a21oi_1
*I *5133:Y O *D sg13g2_o21ai_1
*CAP
1 *5134:B1 4.72978e-05
2 *5133:Y 4.72978e-05
*RES
1 *5133:Y *5134:B1 40.5974 
*END

*D_NET *369 0.00129067
*CONN
*I *5137:C I *D sg13g2_nor3_1
*I *5135:Y O *D sg13g2_a21oi_1
*CAP
1 *5137:C 0
2 *5135:Y 0.000366898
3 *369:10 0.000366898
4 *369:10 *5054:A 0.000242088
5 *369:10 *608:23 0
6 *369:10 *636:20 8.01445e-05
7 *369:10 *1119:14 0.00023464
8 *369:10 *1119:23 0
9 *126:8 *369:10 0
*RES
1 *5135:Y *369:10 43.6977 
2 *369:10 *5137:C 40 
*END

*D_NET *370 0.00434205
*CONN
*I *5139:A2 I *D sg13g2_a21oi_1
*I *5137:A I *D sg13g2_nor3_1
*I *5140:A2 I *D sg13g2_a21oi_1
*I *5138:A2 I *D sg13g2_o21ai_1
*I *5136:Y O *D sg13g2_nor4_1
*CAP
1 *5139:A2 0
2 *5137:A 0.000107535
3 *5140:A2 5.45783e-05
4 *5138:A2 0
5 *5136:Y 0.000575056
6 *370:25 0.000162113
7 *370:23 0.000268972
8 *370:12 0.000518824
9 *370:8 0.000824908
10 *5137:A *1007:52 0.000372141
11 *5137:A *1090:51 7.51285e-05
12 *5137:A *1091:34 0
13 *5140:A2 *1007:52 0.000288173
14 *5140:A2 *1090:36 0.00023464
15 *5140:A2 *1090:51 5.30319e-05
16 *370:8 *374:10 0
17 *370:8 *1093:85 0.000234726
18 *370:8 *1119:33 0.00023464
19 *370:12 *1090:62 0
20 *370:23 *5138:A1 0
21 *370:23 *5139:A1 1.54008e-05
22 *370:23 *5139:B1 0
23 *370:23 *1090:51 0.000209638
24 *370:23 *1090:62 0
25 *5138:B1 *370:12 0.000112548
26 *5142:D *370:8 0
27 *348:14 *370:8 0
28 *348:22 *370:12 0
*RES
1 *5136:Y *370:8 46.5302 
2 *370:8 *370:12 22.266 
3 *370:12 *5138:A2 20 
4 *370:12 *370:23 2.7192 
5 *370:23 *370:25 20 
6 *370:25 *5140:A2 41.339 
7 *370:25 *5137:A 41.8334 
8 *370:23 *5139:A2 20 
*END

*D_NET *371 0.0004738
*CONN
*I *5139:B1 I *D sg13g2_a21oi_1
*I *5138:Y O *D sg13g2_o21ai_1
*CAP
1 *5139:B1 0.000229172
2 *5138:Y 0.000229172
3 *5139:B1 *5140:A1 0
4 *5138:B1 *5139:B1 1.54556e-05
5 *370:23 *5139:B1 0
*RES
1 *5138:Y *5139:B1 42.266 
*END

*D_NET *372 0.000552415
*CONN
*I *5143:C I *D sg13g2_nor3_1
*I *5140:Y O *D sg13g2_a21oi_1
*CAP
1 *5143:C 0.000252289
2 *5140:Y 0.000252289
3 *5143:C *5140:B1 0
4 *5143:C *5143:A 0
5 *5143:C *5143:B 4.78359e-05
*RES
1 *5140:Y *5143:C 43.1106 
*END

*D_NET *373 0.00394714
*CONN
*I *5142:B I *D sg13g2_nor4_1
*I *5161:C I *D sg13g2_nor4_1
*I *5159:A I *D sg13g2_nor2_1
*I *5160:C I *D sg13g2_nor4_1
*I *5141:Y O *D sg13g2_nand4_1
*CAP
1 *5142:B 0
2 *5161:C 0
3 *5159:A 0.000218461
4 *5160:C 3.12138e-05
5 *5141:Y 0.000124904
6 *373:22 0.000303185
7 *373:18 0.000720371
8 *373:12 0.000720578
9 *373:8 0.000178621
10 *5159:A *388:8 0
11 *5159:A *389:18 0.000242203
12 *5159:A *1019:40 7.61954e-05
13 *373:8 *374:10 0
14 *373:8 *1019:16 7.48178e-05
15 *373:8 *1120:16 0.000234329
16 *373:12 *1017:97 1.54008e-05
17 *373:12 *1019:16 4.77425e-05
18 *373:12 *1019:26 3.23417e-05
19 *373:18 *5158:B 0
20 *373:18 *386:6 0
21 *373:18 *386:23 8.00842e-05
22 *373:18 *636:31 0
23 *373:18 *1017:97 4.77425e-05
24 *373:18 *1019:26 0.000247252
25 *373:18 *1019:30 0
26 *373:18 *1093:101 0
27 *373:22 *1019:40 0.000237751
28 *5160:B *5160:C 2.23797e-05
29 *5160:B *373:22 0.000291566
*RES
1 *5141:Y *373:8 41.5862 
2 *373:8 *373:12 20.5356 
3 *373:12 *373:18 6.3963 
4 *373:18 *373:22 21.339 
5 *373:22 *5160:C 40.3502 
6 *373:22 *5159:A 42.7501 
7 *373:18 *5161:C 20 
8 *373:12 *5142:B 20 
*END

*D_NET *374 0.0139771
*CONN
*I *5143:A I *D sg13g2_nor3_1
*I *5153:B I *D sg13g2_nand3_1
*I *5146:A2 I *D sg13g2_a21oi_1
*I *5149:C I *D sg13g2_and3_1
*I *5152:D I *D sg13g2_and4_1
*I *5151:A1 I *D sg13g2_a21oi_1
*I *5144:A2 I *D sg13g2_o21ai_1
*I *5145:A2 I *D sg13g2_a21oi_1
*I *5142:Y O *D sg13g2_nor4_1
*CAP
1 *5143:A 0.000475141
2 *5153:B 0.00026899
3 *5146:A2 2.18538e-05
4 *5149:C 0
5 *5152:D 0
6 *5151:A1 0.000287576
7 *5144:A2 5.37171e-05
8 *5145:A2 0.000202005
9 *5142:Y 5.85941e-05
10 *374:84 0.000166546
11 *374:76 0.000585503
12 *374:69 0.000167723
13 *374:48 0.000513003
14 *374:46 0.000554487
15 *374:42 0.000555917
16 *374:31 0.000531625
17 *374:12 0.000670352
18 *374:10 0.00159536
19 *374:8 0.00100113
20 *5143:A *5143:B 0
21 *5143:A *607:8 0
22 *5143:A *1093:8 0
23 *5144:A2 *691:25 8.00842e-05
24 *5145:A2 *5145:A1 0.000326354
25 *5145:A2 *607:8 0
26 *5146:A2 *691:49 3.23417e-05
27 *5146:A2 *1007:58 4.77425e-05
28 *5151:A1 *5151:A2 0
29 *5151:A1 *5153:C 0
30 *5151:A1 *5154:C 0
31 *5151:A1 *377:6 1.54556e-05
32 *5151:A1 *691:49 2.21754e-05
33 *5151:A1 *1007:62 0
34 *5153:B *377:6 0
35 *5153:B *1007:62 0
36 *374:8 *1120:26 0
37 *374:10 *4992:B 0.000287256
38 *374:10 *5141:B 0
39 *374:10 *691:10 0.00107623
40 *374:10 *1093:85 0
41 *374:12 *5145:A1 0.000106064
42 *374:12 *691:10 0.000345126
43 *374:12 *1093:12 0
44 *374:12 *1093:85 0
45 *374:31 *5145:B1 8.03692e-05
46 *374:31 *607:8 0
47 *374:31 *691:25 0.000145053
48 *374:42 *5145:A1 0
49 *374:42 *705:31 0.000639288
50 *374:46 *705:31 0.000341534
51 *374:48 *691:49 8.00842e-05
52 *374:48 *1007:62 0.000112426
53 *374:69 *5152:B 0
54 *374:69 *5152:C 0.000343546
55 *374:69 *5154:A 0
56 *374:69 *691:29 0.000106015
57 *374:76 *691:49 0.000745113
58 *374:76 *1007:58 0.000226709
59 *374:76 *1007:62 0.000533805
60 *374:84 *5149:A 0
61 *374:84 *691:53 0.000339305
62 *374:84 *1007:92 0
63 *5142:D *374:8 7.97013e-05
64 *5143:C *5143:A 0
65 *5144:B1 *5144:A2 1.54008e-05
66 *5577:D *374:31 8.02431e-05
67 *5579:D *374:84 6.0197e-05
68 *348:32 *5153:B 0
69 *370:8 *374:10 0
70 *373:8 *374:10 0
*RES
1 *5142:Y *374:8 40.5356 
2 *374:8 *374:10 9.7438 
3 *374:10 *374:12 2.0806 
4 *374:12 *5145:A2 42.2763 
5 *374:12 *374:31 22.9355 
6 *374:31 *5144:A2 20.5356 
7 *374:31 *374:42 23.0694 
8 *374:42 *374:46 21.5862 
9 *374:46 *374:48 0.7519 
10 *374:48 *5151:A1 22.8531 
11 *374:48 *374:69 42.3999 
12 *374:69 *5152:D 20 
13 *374:46 *374:76 5.0779 
14 *374:76 *374:84 42.1527 
15 *374:84 *5149:C 20 
16 *374:76 *5146:A2 20.3193 
17 *374:42 *5153:B 42.6986 
18 *374:10 *5143:A 45.0779 
*END

*D_NET *375 0.000713078
*CONN
*I *5145:B1 I *D sg13g2_a21oi_1
*I *5144:Y O *D sg13g2_o21ai_1
*CAP
1 *5145:B1 0.000171329
2 *5144:Y 0.000171329
3 *5145:B1 *607:8 0.00027465
4 *5144:B1 *5145:B1 1.54008e-05
5 *374:31 *5145:B1 8.03692e-05
*RES
1 *5144:Y *5145:B1 41.8334 
*END

*D_NET *376 0.000962009
*CONN
*I *5150:B I *D sg13g2_nor3_1
*I *5146:Y O *D sg13g2_a21oi_1
*CAP
1 *5150:B 0.000298755
2 *5146:Y 0.000298755
3 *5150:B *5150:C 0.000143717
4 *5150:B *1007:58 0
5 *5150:B *1093:44 0.00018844
6 *5150:B *1093:57 3.23417e-05
7 *5579:D *5150:B 0
*RES
1 *5146:Y *5150:B 43.0793 
*END

*D_NET *377 0.000782163
*CONN
*I *5153:C I *D sg13g2_nand3_1
*I *5151:A2 I *D sg13g2_a21oi_1
*I *5147:X O *D sg13g2_and2_1
*CAP
1 *5153:C 0.000112011
2 *5151:A2 2.77263e-05
3 *5147:X 0.000171233
4 *377:6 0.00031097
5 *377:6 *1007:62 0.000144767
6 *5151:A1 *5151:A2 0
7 *5151:A1 *5153:C 0
8 *5151:A1 *377:6 1.54556e-05
9 *5153:B *377:6 0
*RES
1 *5147:X *377:6 21.6171 
2 *377:6 *5151:A2 20.3502 
3 *377:6 *5153:C 21.339 
*END

*D_NET *378 0.00377704
*CONN
*I *5157:C I *D sg13g2_nor4_1
*I *5156:A I *D sg13g2_nor2_1
*I *5148:Y O *D sg13g2_nand4_1
*CAP
1 *5157:C 0.000248711
2 *5156:A 5.37687e-05
3 *5148:Y 0
4 *378:8 0.00128836
5 *378:6 0.00098588
6 *5156:A *5155:C 0
7 *5157:C *5157:D 4.77425e-05
8 *5157:C *383:10 0
9 *378:8 *5011:C 0.000551859
10 *378:8 *383:10 0
11 *378:8 *1019:26 0.000179386
12 *378:8 *1093:101 0.000341119
13 *378:8 *1119:50 0
14 *5157:B *5157:C 8.0216e-05
15 *270:14 *5157:C 0
16 *270:14 *378:8 0
*RES
1 *5148:Y *378:6 40 
2 *378:6 *378:8 11.9686 
3 *378:8 *5156:A 40.4476 
4 *378:8 *5157:C 42.3381 
*END

*D_NET *379 0.000759523
*CONN
*I *5150:C I *D sg13g2_nor3_1
*I *5149:X O *D sg13g2_and3_1
*CAP
1 *5150:C 0.000185265
2 *5149:X 0.000185265
3 *5150:B *5150:C 0.000143717
4 *5579:D *5150:C 0.000245275
*RES
1 *5149:X *5150:C 42.0703 
*END

*D_NET *380 0.000664195
*CONN
*I *5154:B I *D sg13g2_nor3_1
*I *5151:Y O *D sg13g2_a21oi_1
*CAP
1 *5154:B 4.61761e-05
2 *5151:Y 0.000147378
3 *380:8 0.000193554
4 *5154:B *5152:A 8.00842e-05
5 *5154:B *5154:C 1.54008e-05
6 *380:8 *5154:A 0.000181601
7 *5581:D *5154:B 0
*RES
1 *5151:Y *380:8 41.339 
2 *380:8 *5154:B 40.5356 
*END

*D_NET *381 0.000771706
*CONN
*I *5154:C I *D sg13g2_nor3_1
*I *5152:X O *D sg13g2_and4_1
*CAP
1 *5154:C 0.000321939
2 *5152:X 0.000321939
3 *5154:C *5154:A 0.000112426
4 *5151:A1 *5154:C 0
5 *5154:B *5154:C 1.54008e-05
6 *5581:D *5154:C 0
*RES
1 *5152:X *5154:C 43.6771 
*END

*D_NET *382 0.00190126
*CONN
*I *5162:B1 I *D sg13g2_a221oi_1
*I *5153:Y O *D sg13g2_nand3_1
*CAP
1 *5162:B1 0.000226745
2 *5153:Y 0.000683826
3 *382:8 0.000910571
4 *5162:B1 *4966:A 0
5 *5162:B1 *1108:41 0
6 *382:8 *5611:CLK 0
7 *382:8 *634:44 0
8 *382:8 *1094:8 0
9 *382:8 *1094:16 8.01211e-05
10 *262:16 *5162:B1 0
11 *348:32 *382:8 0
*RES
1 *5153:Y *382:8 47.4572 
2 *382:8 *5162:B1 42.575 
*END

*D_NET *383 0.00110821
*CONN
*I *5157:D I *D sg13g2_nor4_1
*I *5156:B I *D sg13g2_nor2_1
*I *5155:Y O *D sg13g2_nand4_1
*CAP
1 *5157:D 0.000121737
2 *5156:B 0
3 *5155:Y 0.000347062
4 *383:10 0.000468799
5 *383:10 *5155:C 0
6 *383:10 *384:8 0
7 *5157:C *5157:D 4.77425e-05
8 *5157:C *383:10 0
9 *270:14 *5157:D 4.77425e-05
10 *270:14 *383:10 0
11 *270:24 *5157:D 7.51285e-05
12 *378:8 *383:10 0
*RES
1 *5155:Y *383:10 43.2033 
2 *383:10 *5156:B 40 
3 *383:10 *5157:D 41.3802 
*END

*D_NET *384 0.00640993
*CONN
*I *5165:C I *D sg13g2_nand4_1
*I *5185:B I *D sg13g2_nand4_1
*I *5156:Y O *D sg13g2_nor2_1
*CAP
1 *5165:C 0.000151314
2 *5185:B 0
3 *5156:Y 0.00061593
4 *384:22 0.00119173
5 *384:14 0.00125649
6 *384:8 0.000832005
7 *384:8 *4993:C 0
8 *384:8 *5155:B 0
9 *384:8 *5155:C 0
10 *384:8 *385:12 0.00105043
11 *384:8 *1097:22 0.000240531
12 *384:22 *5615:CLK 0
13 *384:22 *5860:A 0
14 *384:22 *385:12 0
15 *384:22 *385:18 0
16 *384:22 *410:8 0
17 *384:22 *1097:22 0.000468819
18 *5012:D *5165:C 0.000345327
19 *268:37 *5165:C 0.00018387
20 *279:12 *384:22 0
21 *290:8 *5165:C 7.34889e-05
22 *383:10 *384:8 0
*RES
1 *5156:Y *384:8 47.0246 
2 *384:8 *384:14 40.7519 
3 *384:14 *384:22 31.5875 
4 *384:22 *5185:B 20 
5 *384:8 *5165:C 42.2557 
*END

*D_NET *385 0.0137535
*CONN
*I *5216:A I *D sg13g2_nand4_1
*I *5170:B I *D sg13g2_nand4_1
*I *5157:Y O *D sg13g2_nor4_1
*CAP
1 *5216:A 0.00019355
2 *5170:B 0
3 *5157:Y 0.00160879
4 *385:29 0.00168618
5 *385:18 0.00102492
6 *385:12 0.00412634
7 *5216:A *410:20 0.000241907
8 *5216:A *605:53 0
9 *385:12 *1097:22 0
10 *385:18 *5171:A 0.000235055
11 *385:18 *5860:A 0.000122871
12 *385:18 *605:29 0
13 *385:18 *1098:14 0.00140487
14 *385:18 *1098:16 0.000286789
15 *385:29 *5223:A 0
16 *385:29 *5226:B 0
17 *385:29 *410:12 0
18 *385:29 *605:29 0
19 *385:29 *605:31 0
20 *385:29 *605:33 0
21 *4994:A *385:12 0.000315817
22 *4994:C *385:12 0
23 *260:14 *385:18 0
24 *268:20 *385:12 0.0013759
25 *268:20 *385:18 8.00842e-05
26 *270:24 *385:12 0
27 *384:8 *385:12 0.00105043
28 *384:22 *385:12 0
29 *384:22 *385:18 0
*RES
1 *5157:Y *385:12 37.3761 
2 *385:12 *385:18 31.9171 
3 *385:18 *5170:B 40 
4 *385:12 *385:29 33.4518 
5 *385:29 *5216:A 41.8334 
*END

*D_NET *386 0.00165613
*CONN
*I *5161:D I *D sg13g2_nor4_1
*I *5159:B I *D sg13g2_nor2_1
*I *5160:D I *D sg13g2_nor4_1
*I *5158:Y O *D sg13g2_nand4_1
*CAP
1 *5161:D 0
2 *5159:B 0.000243687
3 *5160:D 9.34557e-05
4 *5158:Y 0.000127156
5 *386:23 0.000408445
6 *386:6 0.000385369
7 *5159:B *389:18 8.01424e-05
8 *5159:B *636:31 0
9 *5160:D *605:65 0
10 *5160:D *1019:40 0
11 *5160:B *5160:D 0
12 *5160:B *386:23 0.000237794
13 *373:18 *386:6 0
14 *373:18 *386:23 8.00842e-05
*RES
1 *5158:Y *386:6 21.1845 
2 *386:6 *5160:D 21.1021 
3 *386:6 *386:23 42.0909 
4 *386:23 *5159:B 22.6368 
5 *386:23 *5161:D 20 
*END

*D_NET *387 0.00983964
*CONN
*I *5953:A I *D sg13g2_buf_1
*I *5952:A I *D sg13g2_buf_1
*I *5159:Y O *D sg13g2_nor2_1
*CAP
1 *5953:A 0
2 *5952:A 0
3 *5159:Y 0.000473789
4 *387:25 0.00138819
5 *387:14 0.00165158
6 *387:8 0.00351356
7 *387:8 *1019:40 0
8 *387:14 *4997:A 0.00056637
9 *387:14 *5189:A 0
10 *387:14 *5223:B 0.000209676
11 *387:14 *5226:B 0
12 *387:14 *5615:RESET_B 0
13 *387:14 *5859:A 0.000565536
14 *387:14 *657:20 0
15 *387:14 *1113:19 0.000436424
16 *387:25 *708:56 0.000450485
17 *387:25 *1049:10 0
18 *4997:C *387:14 0
19 *5012:A *387:14 0
20 *270:39 *387:25 0.000345758
21 *272:8 *387:25 0.000238265
22 *279:12 *387:14 0
23 *287:41 *387:8 0
24 *291:12 *387:25 0
*RES
1 *5159:Y *387:8 45.047 
2 *387:8 *387:14 38.4679 
3 *387:14 *5952:A 20 
4 *387:8 *387:25 35.0071 
5 *387:25 *5953:A 20 
*END

*D_NET *388 0.00664181
*CONN
*I *5162:A2 I *D sg13g2_a221oi_1
*I *5213:B I *D sg13g2_nand4_1
*I *5206:A I *D sg13g2_nand4_1
*I *5204:B I *D sg13g2_nand4_1
*I *5160:Y O *D sg13g2_nor4_1
*CAP
1 *5162:A2 0
2 *5213:B 0
3 *5206:A 9.60605e-05
4 *5204:B 0
5 *5160:Y 0.000507358
6 *388:38 0.000497619
7 *388:26 0.000871519
8 *388:24 0.000898707
9 *388:14 0.00140803
10 *388:8 0.00129452
11 *5206:A *5213:C 2.20736e-05
12 *5206:A *410:31 0.000111025
13 *388:8 *5613:RESET_B 0
14 *388:8 *389:18 0
15 *388:8 *605:65 0
16 *388:14 *5001:C 0
17 *388:14 *1108:41 0
18 *388:24 *5001:A 0
19 *388:24 *5001:B 0
20 *388:24 *430:20 8.01118e-05
21 *388:24 *1015:60 0.000242131
22 *388:24 *1107:35 0
23 *388:26 *5213:C 0.000404438
24 *388:26 *410:31 0
25 *388:26 *427:10 8.00842e-05
26 *388:38 *5204:C 4.78356e-05
27 *388:38 *5204:A 8.02924e-05
28 *388:38 *5204:D 0
29 *388:38 *5209:B1 0
30 *388:38 *5858:A 0
31 *388:38 *1015:60 0
32 *388:38 *1109:14 0
33 *5159:A *388:8 0
34 *5207:B *388:24 0
35 *5207:B *388:26 0
36 *5207:B *388:38 0
37 *5583:D *388:14 0
38 *5583:D *388:24 0
39 *5613:D *388:8 0
40 *262:10 *388:14 0
41 *278:8 *388:14 0
42 *279:12 *388:14 0
*RES
1 *5160:Y *388:8 45.1094 
2 *388:8 *388:14 29.6202 
3 *388:14 *388:24 6.6126 
4 *388:24 *388:26 3.1312 
5 *388:26 *388:38 44.8616 
6 *388:38 *5204:B 20 
7 *388:26 *5206:A 21.1021 
8 *388:24 *5213:B 20 
9 *388:14 *5162:A2 20 
*END

*D_NET *389 0.00777888
*CONN
*I *5220:A I *D sg13g2_nand4_1
*I *5189:B I *D sg13g2_nand4_1
*I *5225:A I *D sg13g2_nand4_1
*I *5161:Y O *D sg13g2_nor4_1
*CAP
1 *5220:A 0
2 *5189:B 0
3 *5225:A 8.93327e-05
4 *5161:Y 0.00116189
5 *389:43 0.000894943
6 *389:22 0.00111021
7 *389:18 0.00128783
8 *5225:A *5226:A 0
9 *5225:A *412:72 6.4728e-06
10 *389:18 *5219:B 1.54008e-05
11 *389:18 *5220:D 0
12 *389:18 *5221:A 0
13 *389:18 *5224:C 8.00842e-05
14 *389:18 *5225:D 0
15 *389:18 *433:8 2.4669e-05
16 *389:18 *636:31 0
17 *389:22 *5221:A 0
18 *389:22 *5227:A1 4.8699e-05
19 *389:22 *410:12 0.000312768
20 *389:43 *5189:A 0.00101866
21 *389:43 *5227:A1 0.000368137
22 *389:43 *5615:CLK 0
23 *389:43 *398:12 0
24 *389:43 *410:12 0.00103744
25 *389:43 *657:33 0
26 *389:43 *1113:8 0
27 *4998:A *389:18 0
28 *5159:A *389:18 0.000242203
29 *5159:B *389:18 8.01424e-05
30 *5224:A *389:18 0
31 *5613:D *389:18 0
32 *255:34 *389:43 0
33 *388:8 *389:18 0
*RES
1 *5161:Y *389:18 32.5557 
2 *389:18 *389:22 21.4626 
3 *389:22 *5225:A 41.0609 
4 *389:22 *389:43 31.7317 
5 *389:43 *5189:B 20 
6 *389:18 *5220:A 20 
*END

*D_NET *390 0.00700418
*CONN
*I *5169:B2 I *D sg13g2_a221oi_1
*I *5176:A1 I *D sg13g2_a221oi_1
*I *5181:B2 I *D sg13g2_a221oi_1
*I *5163:X O *D sg13g2_and4_1
*CAP
1 *5169:B2 0
2 *5176:A1 0
3 *5181:B2 0
4 *5163:X 0.000443746
5 *390:28 0.000843594
6 *390:18 0.00184112
7 *390:12 0.00119378
8 *390:8 0.000640001
9 *390:8 *1015:107 0
10 *390:12 *5585:CLK 0
11 *390:18 *5169:B1 0
12 *390:18 *5170:C 0
13 *390:18 *5170:D 0
14 *390:18 *5176:B1 0.000192759
15 *390:18 *5176:A2 1.27224e-05
16 *390:18 *5587:RESET_B 0
17 *390:18 *1098:10 0
18 *390:28 *5170:D 0
19 *390:28 *5173:B 0
20 *390:28 *5176:B1 1.54008e-05
21 *390:28 *5176:A2 0.000304036
22 *390:28 *5181:C1 4.75265e-05
23 *390:28 *397:14 0.000501389
24 *390:28 *632:34 0
25 *390:28 *708:66 0.000786811
26 *390:28 *1008:80 0
27 *5587:D *390:12 0
28 *5591:D *390:18 0
29 *5595:D *390:28 0
30 *261:12 *390:8 0.000181298
31 *261:12 *390:12 0
*RES
1 *5163:X *390:8 43.811 
2 *390:8 *390:12 21.8334 
3 *390:12 *390:18 10.5678 
4 *390:18 *390:28 49.579 
5 *390:28 *5181:B2 20 
6 *390:18 *5176:A1 20 
7 *390:12 *5169:B2 20 
*END

*D_NET *391 0.000317393
*CONN
*I *5166:A I *D sg13g2_and4_1
*I *5164:X O *D sg13g2_a21o_1
*CAP
1 *5166:A 0.000118737
2 *5164:X 0.000118737
3 *5166:A *708:56 6.45171e-05
4 *5166:A *708:66 1.54008e-05
5 *5166:A *1018:10 0
*RES
1 *5164:X *5166:A 41.3802 
*END

*D_NET *392 0.00425122
*CONN
*I *5169:A2 I *D sg13g2_a221oi_1
*I *5166:D I *D sg13g2_and4_1
*I *5165:Y O *D sg13g2_nand4_1
*CAP
1 *5169:A2 0.000477349
2 *5166:D 0.000211586
3 *5165:Y 0.000651863
4 *392:10 0.0013408
5 *5166:D *708:66 0
6 *5166:D *1006:10 0
7 *5169:A2 *708:66 0
8 *392:10 *5164:A2 0
9 *392:10 *1006:10 0
10 *5012:D *392:10 0.000774194
11 *5163:D *392:10 0.000442529
12 *5166:C *5166:D 1.54008e-05
13 *261:12 *5169:A2 0
14 *268:37 *392:10 0.000183828
15 *283:12 *392:10 8.01776e-05
16 *286:18 *392:10 7.34889e-05
*RES
1 *5165:Y *392:10 47.5602 
2 *392:10 *5166:D 41.8334 
3 *392:10 *5169:A2 44.3543 
*END

*D_NET *393 0.00595808
*CONN
*I *5169:B1 I *D sg13g2_a221oi_1
*I *5170:C I *D sg13g2_nand4_1
*I *5168:D I *D sg13g2_nand4_1
*I *5172:B2 I *D sg13g2_a221oi_1
*I *5167:X O *D sg13g2_and2_1
*CAP
1 *5169:B1 0.000241972
2 *5170:C 0.000656017
3 *5168:D 0
4 *5172:B2 0.00021803
5 *5167:X 0
6 *393:30 0.0010797
7 *393:12 0.000567044
8 *393:6 0.000530724
9 *5169:B1 *708:66 0
10 *5170:C *5170:D 1.53311e-05
11 *5170:C *5589:CLK 0
12 *5170:C *708:66 0
13 *5172:B2 *5171:D 0
14 *5172:B2 *5172:B1 1.54556e-05
15 *5172:B2 *5172:A2 0
16 *5172:B2 *1018:18 0
17 *393:12 *657:16 0.000337718
18 *393:12 *1018:18 0
19 *393:12 *1097:16 0.000158332
20 *393:12 *1097:22 0.000179386
21 *393:30 *657:16 0.000960394
22 *393:30 *1097:16 0.000982577
23 *261:12 *5169:B1 1.54008e-05
24 *358:14 *393:12 0
25 *390:18 *5169:B1 0
26 *390:18 *5170:C 0
*RES
1 *5167:X *393:6 40 
2 *393:6 *393:12 24.0685 
3 *393:12 *5172:B2 22.1836 
4 *393:12 *5168:D 20 
5 *393:6 *393:30 24.5526 
6 *393:30 *5170:C 26.8289 
7 *393:30 *5169:B1 22.5647 
*END

*D_NET *394 0.000497173
*CONN
*I *5172:A2 I *D sg13g2_a221oi_1
*I *5168:Y O *D sg13g2_nand4_1
*CAP
1 *5172:A2 0.000143735
2 *5168:Y 0.000143735
3 *5172:B2 *5172:A2 0
4 *5172:A1 *5172:A2 0
5 *358:22 *5172:A2 0.000209703
*RES
1 *5168:Y *5172:A2 41.5991 
*END

*D_NET *395 0.000742422
*CONN
*I *5176:B1 I *D sg13g2_a221oi_1
*I *5170:Y O *D sg13g2_nand4_1
*CAP
1 *5176:B1 0.000195164
2 *5170:Y 0.000195164
3 *5176:B1 *5170:D 0
4 *5176:B1 *5173:B 0.000143934
5 *390:18 *5176:B1 0.000192759
6 *390:28 *5176:B1 1.54008e-05
*RES
1 *5170:Y *5176:B1 42.2454 
*END

*D_NET *396 0.000486966
*CONN
*I *5172:B1 I *D sg13g2_a221oi_1
*I *5171:X O *D sg13g2_and4_1
*CAP
1 *5172:B1 0.000179397
2 *5171:X 0.000179397
3 *5172:B1 *4976:A 0
4 *5172:B2 *5172:B1 1.54556e-05
5 *5172:A1 *5172:B1 0.000112717
6 *358:64 *5172:B1 0
*RES
1 *5171:X *5172:B1 42.0909 
*END

*D_NET *397 0.00344032
*CONN
*I *5176:A2 I *D sg13g2_a221oi_1
*I *5175:C I *D sg13g2_nand4_1
*I *5177:D I *D sg13g2_nand4_1
*I *5173:X O *D sg13g2_and4_1
*CAP
1 *5176:A2 0.000188251
2 *5175:C 0
3 *5177:D 0.00017574
4 *5173:X 8.19879e-05
5 *397:14 0.000713625
6 *397:8 0.000808124
7 *5176:A2 *632:42 0
8 *5177:D *5175:D 0.000111943
9 *5177:D *708:66 0
10 *5177:D *1005:86 0.000240556
11 *397:8 *5176:C1 0.000143273
12 *397:14 *5175:D 1.54008e-05
13 *397:14 *708:66 0
14 *5176:B2 *397:8 0.000143273
15 *288:18 *397:14 0
16 *390:18 *5176:A2 1.27224e-05
17 *390:28 *5176:A2 0.000304036
18 *390:28 *397:14 0.000501389
*RES
1 *5173:X *397:8 40.9682 
2 *397:8 *397:14 25.9225 
3 *397:14 *5177:D 21.8334 
4 *397:14 *5175:C 20 
5 *397:8 *5176:A2 42.1038 
*END

*D_NET *398 0.00762841
*CONN
*I *5180:C I *D sg13g2_nor3_1
*I *5191:B I *D sg13g2_nor3_1
*I *5184:A I *D sg13g2_nor2_1
*I *5193:A I *D sg13g2_nor2_1
*I *5174:Y O *D sg13g2_nand4_1
*CAP
1 *5180:C 0.000767453
2 *5191:B 0
3 *5184:A 0
4 *5193:A 0
5 *5174:Y 0
6 *398:33 4.60526e-05
7 *398:22 0.000388552
8 *398:14 0.000614699
9 *398:12 0.000902876
10 *398:6 0.00149023
11 *5180:C *402:8 0
12 *5180:C *1101:27 0
13 *398:12 *5185:C 0
14 *398:12 *5615:CLK 0
15 *398:12 *5888:A 0
16 *398:12 *410:8 0.000177142
17 *398:12 *632:8 0
18 *398:12 *1015:46 0
19 *398:14 *5191:C 0
20 *398:14 *406:26 0.000144852
21 *398:22 *5190:A2 0
22 *398:22 *406:26 0.000274545
23 *398:22 *631:8 0.000273688
24 *398:22 *1104:32 0.000128247
25 *398:33 *1008:95 0.000234224
26 *5180:A *5180:C 0
27 *5180:B *5180:C 1.54556e-05
28 *5194:A *398:22 0.00012816
29 *255:34 *398:14 0
30 *255:34 *398:22 0
31 *260:14 *5180:C 0
32 *260:14 *398:12 0
33 *283:12 *398:12 0
34 *286:64 *5180:C 0.00104951
35 *358:36 *5180:C 0.000758498
36 *367:20 *398:33 0.000234224
37 *389:43 *398:12 0
*RES
1 *5174:Y *398:6 40 
2 *398:6 *398:12 27.1585 
3 *398:12 *398:14 1.8334 
4 *398:14 *398:22 44.5938 
5 *398:22 *5193:A 20 
6 *398:14 *398:33 41.0918 
7 *398:33 *5184:A 20 
8 *398:12 *5191:B 20 
9 *398:6 *5180:C 48.5799 
*END

*D_NET *399 0.00224806
*CONN
*I *5179:A2 I *D sg13g2_a21oi_1
*I *5175:Y O *D sg13g2_nand4_1
*CAP
1 *5179:A2 0.000788084
2 *5175:Y 0.000788084
3 *5179:A2 *5178:C 7.97219e-05
4 *5179:A2 *5178:A 0
5 *5179:A2 *400:10 0
6 *5179:A2 *401:10 0.000240369
7 *5179:A2 *402:8 0
8 *5179:A2 *1005:86 0
9 *5175:A *5179:A2 1.54008e-05
10 *5180:A *5179:A2 0.000144722
11 *5180:B *5179:A2 0
12 *258:25 *5179:A2 1.54008e-05
13 *358:36 *5179:A2 0
14 *367:16 *5179:A2 0.000176274
*RES
1 *5175:Y *5179:A2 47.9104 
*END

*D_NET *400 0.00111591
*CONN
*I *5181:A2 I *D sg13g2_a221oi_1
*I *5178:A I *D sg13g2_nand3_1
*I *5177:Y O *D sg13g2_nand4_1
*CAP
1 *5181:A2 7.77634e-05
2 *5178:A 0.000262473
3 *5177:Y 0.000177674
4 *400:10 0.000517911
5 *5178:A *4973:A 8.00842e-05
6 *5178:A *1018:56 0
7 *5181:A2 *708:66 0
8 *400:10 *708:66 0
9 *5086:A2 *5178:A 0
10 *5179:A2 *5178:A 0
11 *5179:A2 *400:10 0
*RES
1 *5177:Y *400:10 22.1321 
2 *400:10 *5178:A 22.6162 
3 *400:10 *5181:A2 20.9347 
*END

*D_NET *401 0.000988075
*CONN
*I *5179:B1 I *D sg13g2_a21oi_1
*I *5178:Y O *D sg13g2_nand3_1
*CAP
1 *5179:B1 0
2 *5178:Y 0.000253669
3 *401:10 0.000253669
4 *401:10 *631:49 0
5 *401:10 *700:92 0
6 *401:10 *1018:56 0.000240369
7 *5179:A2 *401:10 0.000240369
*RES
1 *5178:Y *401:10 42.7089 
2 *401:10 *5179:B1 40 
*END

*D_NET *402 0.00262046
*CONN
*I *5181:B1 I *D sg13g2_a221oi_1
*I *5182:D I *D sg13g2_nand4_1
*I *5180:Y O *D sg13g2_nor3_1
*CAP
1 *5181:B1 0.000394697
2 *5182:D 0.000351956
3 *5180:Y 0.000140321
4 *402:8 0.000886974
5 *5181:B1 *1008:59 0
6 *5181:B1 *1102:10 0
7 *5182:D *5182:C 0.000273568
8 *5182:D *1008:59 0
9 *5182:D *1101:27 0.000316354
10 *5179:A2 *402:8 0
11 *5180:A *402:8 8.01207e-05
12 *5180:C *402:8 0
13 *358:36 *402:8 0.000176471
*RES
1 *5180:Y *402:8 41.4008 
2 *402:8 *5182:D 43.4196 
3 *402:8 *5181:B1 42.8222 
*END

*D_NET *403 0.00437646
*CONN
*I *5187:A2 I *D sg13g2_a21oi_1
*I *5182:Y O *D sg13g2_nand4_1
*CAP
1 *5187:A2 0.00077073
2 *5182:Y 0.000766175
3 *403:10 0.00153691
4 *5187:A2 *5087:B1 0.000695869
5 *5187:A2 *5187:B1 0
6 *5187:A2 *5190:A1 0.000414197
7 *5187:A2 *5599:RESET_B 0.00017718
8 *5187:A2 *631:8 0
9 *403:10 *631:49 0
10 *403:10 *700:92 0
11 *403:10 *1101:27 0
12 *403:10 *1104:28 0
13 *403:10 *1105:102 0
14 *5187:A1 *5187:A2 1.54008e-05
15 *255:8 *5187:A2 0
*RES
1 *5182:Y *403:10 48.2095 
2 *403:10 *5187:A2 48.1576 
*END

*D_NET *404 0.00117268
*CONN
*I *5191:C I *D sg13g2_nor3_1
*I *5184:B I *D sg13g2_nor2_1
*I *5183:Y O *D sg13g2_nand3_1
*CAP
1 *5191:C 0.000193471
2 *5184:B 4.34363e-05
3 *5183:Y 8.84396e-05
4 *404:10 0.000236907
5 *404:8 8.84396e-05
6 *5184:B *405:10 8.00842e-05
7 *5184:B *406:26 8.01447e-05
8 *5191:C *5888:A 1.54008e-05
9 *5191:C *405:10 4.74248e-05
10 *5191:C *406:26 6.38822e-05
11 *404:8 *406:10 0
12 *404:8 *1005:65 0
13 *367:20 *404:8 0.000235055
14 *398:14 *5191:C 0
*RES
1 *5183:Y *404:8 41.0918 
2 *404:8 *404:10 20 
3 *404:10 *5184:B 20.5356 
4 *404:10 *5191:C 21.751 
*END

*D_NET *405 0.00249754
*CONN
*I *5185:C I *D sg13g2_nand4_1
*I *5189:C I *D sg13g2_nand4_1
*I *5184:Y O *D sg13g2_nor2_1
*CAP
1 *5185:C 0.000231787
2 *5189:C 0
3 *5184:Y 0.000258732
4 *405:16 0.000203595
5 *405:10 0.000694115
6 *5185:C *5185:D 4.7803e-05
7 *5185:C *5860:A 0
8 *5185:C *5888:A 9.71568e-05
9 *5185:C *406:10 0.000177199
10 *5185:C *410:8 0
11 *405:10 *5888:A 1.54008e-05
12 *405:10 *406:10 0.000144028
13 *405:10 *406:26 0
14 *405:16 *1005:65 0.000500214
15 *5184:B *405:10 8.00842e-05
16 *5191:C *405:10 4.74248e-05
17 *288:35 *405:16 0
18 *398:12 *5185:C 0
*RES
1 *5184:Y *405:10 22.5029 
2 *405:10 *405:16 42.3278 
3 *405:16 *5189:C 20 
4 *405:10 *5185:C 22.4376 
*END

*D_NET *406 0.00652954
*CONN
*I *5186:A I *D sg13g2_nand3_1
*I *5188:A I *D sg13g2_nand3_1
*I *5185:Y O *D sg13g2_nand4_1
*CAP
1 *5186:A 0.000197712
2 *5188:A 0.000270505
3 *5185:Y 0.000399289
4 *406:26 0.00140562
5 *406:10 0.00133669
6 *5186:A *629:31 0.000339163
7 *5186:A *1103:19 0.000404076
8 *5188:A *629:31 0.000339163
9 *5188:A *631:8 0.000404076
10 *406:10 *5860:A 0
11 *406:26 *5183:A 0.000194649
12 *406:26 *631:8 0
13 *406:26 *1103:19 0.000274682
14 *406:26 *1103:32 7.92691e-05
15 *5184:B *406:26 8.01447e-05
16 *5185:C *406:10 0.000177199
17 *5191:C *406:26 6.38822e-05
18 *268:20 *406:10 0
19 *398:14 *406:26 0.000144852
20 *398:22 *406:26 0.000274545
21 *404:8 *406:10 0
22 *405:10 *406:10 0.000144028
23 *405:10 *406:26 0
*RES
1 *5185:Y *406:10 43.5741 
2 *406:10 *406:26 30.1764 
3 *406:26 *5188:A 23.296 
4 *406:26 *5186:A 22.6986 
*END

*D_NET *407 0.0012267
*CONN
*I *5187:B1 I *D sg13g2_a21oi_1
*I *5186:Y O *D sg13g2_nand3_1
*CAP
1 *5187:B1 0.000461785
2 *5186:Y 0.000143866
3 *407:8 0.000605651
4 *5187:B1 *631:8 0
5 *407:8 *629:31 0
6 *407:8 *1104:10 0
7 *5187:A1 *5187:B1 1.54008e-05
8 *5187:A2 *5187:B1 0
*RES
1 *5186:Y *407:8 41.339 
2 *407:8 *5187:B1 43.914 
*END

*D_NET *408 0.00151635
*CONN
*I *5190:A1 I *D sg13g2_a21oi_1
*I *5188:Y O *D sg13g2_nand3_1
*CAP
1 *5190:A1 0.000414673
2 *5188:Y 0.000414673
3 *5190:A1 *5190:A2 1.54556e-05
4 *5190:A1 *5190:B1 0
5 *5190:A1 *631:8 0.00011236
6 *5190:A1 *709:64 0
7 *5190:A1 *1106:18 0
8 *5187:A2 *5190:A1 0.000414197
9 *140:10 *5190:A1 0.000144992
*RES
1 *5188:Y *5190:A1 44.5423 
*END

*D_NET *409 0.00196761
*CONN
*I *5190:A2 I *D sg13g2_a21oi_1
*I *5189:Y O *D sg13g2_nand4_1
*CAP
1 *5190:A2 0.000823613
2 *5189:Y 0.000823613
3 *5190:A2 *4971:A 0
4 *5190:A2 *4990:A 0.000209385
5 *5190:A2 *5189:A 1.54556e-05
6 *5190:A2 *5190:B1 0
7 *5190:A2 *5859:A 0
8 *5190:A2 *1106:18 0
9 *5190:A1 *5190:A2 1.54556e-05
10 *255:30 *5190:A2 0
11 *255:34 *5190:A2 8.00913e-05
12 *398:22 *5190:A2 0
*RES
1 *5189:Y *5190:A2 45.448 
*END

*D_NET *410 0.0121755
*CONN
*I *5216:B I *D sg13g2_nand4_1
*I *5206:B I *D sg13g2_nand4_1
*I *5204:C I *D sg13g2_nand4_1
*I *5213:C I *D sg13g2_nand4_1
*I *5191:Y O *D sg13g2_nor3_1
*CAP
1 *5216:B 0
2 *5206:B 0
3 *5204:C 0.000304284
4 *5213:C 0.000288958
5 *5191:Y 0.000526336
6 *410:31 0.00040371
7 *410:20 0.00106702
8 *410:12 0.00140645
9 *410:8 0.00125415
10 *5204:C *5204:A 8.02379e-05
11 *5204:C *5204:D 1.54556e-05
12 *5204:C *5206:C 4.78685e-05
13 *5204:C *5206:D 0
14 *5204:C *1107:35 0
15 *5213:C *421:21 0
16 *410:8 *5185:D 0
17 *410:8 *5615:CLK 0.000856556
18 *410:8 *5860:A 0
19 *410:12 *5221:A 0
20 *410:12 *5223:A 0.000819739
21 *410:12 *5225:C 0.000338955
22 *410:12 *5226:B 0
23 *410:12 *412:72 0
24 *410:12 *421:41 0.000871772
25 *410:12 *605:53 0
26 *410:12 *1113:8 0
27 *410:20 *5216:D 0
28 *410:20 *605:33 0
29 *410:20 *605:53 0
30 *410:20 *705:43 0
31 *410:20 *1109:29 0
32 *410:31 *5206:C 0.000111668
33 *410:31 *421:21 6.38558e-05
34 *5185:C *410:8 0
35 *5206:A *5213:C 2.20736e-05
36 *5206:A *410:31 0.000111025
37 *5216:A *410:20 0.000241907
38 *5222:A1 *410:12 0
39 *260:14 *410:20 0.00136387
40 *348:55 *410:12 0
41 *384:22 *410:8 0
42 *385:29 *410:12 0
43 *388:26 *5213:C 0.000404438
44 *388:26 *410:31 0
45 *388:38 *5204:C 4.78356e-05
46 *389:22 *410:12 0.000312768
47 *389:43 *410:12 0.00103744
48 *398:12 *410:8 0.000177142
*RES
1 *5191:Y *410:8 45.9431 
2 *410:8 *410:12 31.9686 
3 *410:12 *410:20 49.1979 
4 *410:20 *5213:C 23.0488 
5 *410:20 *410:31 1.1845 
6 *410:31 *5204:C 22.9355 
7 *410:31 *5206:B 20 
8 *410:12 *5216:B 20 
*END

*D_NET *411 0.00155085
*CONN
*I *5193:B I *D sg13g2_nor2_1
*I *5192:Y O *D sg13g2_nand4_1
*CAP
1 *5193:B 0
2 *5192:Y 0.000222643
3 *411:10 0.000222643
4 *411:10 *5192:A 0.000208299
5 *411:10 *1104:32 0.000448842
6 *5194:A *411:10 0.000448427
7 *268:20 *411:10 0
*RES
1 *5192:Y *411:10 43.4814 
2 *411:10 *5193:B 40 
*END

*D_NET *412 0.00879083
*CONN
*I *5194:D I *D sg13g2_and4_1
*I *5220:B I *D sg13g2_nand4_1
*I *5225:B I *D sg13g2_nand4_1
*I *5208:C I *D sg13g2_and4_1
*I *5210:C I *D sg13g2_nand4_1
*I *5196:D I *D sg13g2_nand4_1
*I *5200:C I *D sg13g2_nand4_1
*I *5193:Y O *D sg13g2_nor2_1
*CAP
1 *5194:D 7.62585e-05
2 *5220:B 4.59073e-05
3 *5225:B 0
4 *5208:C 0
5 *5210:C 0
6 *5196:D 0
7 *5200:C 0
8 *5193:Y 0.000492627
9 *412:72 0.000119669
10 *412:62 0.000748795
11 *412:51 0.000790051
12 *412:40 0.000543588
13 *412:33 0.000363919
14 *412:26 0.000216352
15 *412:18 0.000657612
16 *412:8 0.000982983
17 *5220:B *421:47 3.23417e-05
18 *412:8 *4971:A 0
19 *412:8 *5194:C 0
20 *412:8 *709:56 0
21 *412:8 *1103:25 0.000287757
22 *412:8 *1104:32 0
23 *412:18 *5194:C 0
24 *412:18 *5196:A 0
25 *412:18 *413:10 0
26 *412:18 *415:6 0
27 *412:18 *709:56 0.000130405
28 *412:18 *1005:16 0
29 *412:26 *5200:B 0.000517691
30 *412:26 *5200:D 4.79124e-05
31 *412:26 *709:56 0
32 *412:26 *1005:16 5.30319e-05
33 *412:33 *1005:14 1.54008e-05
34 *412:40 *5196:A 0
35 *412:40 *5210:D 1.54008e-05
36 *412:40 *1005:14 0.000598581
37 *412:51 *5208:B 1.54008e-05
38 *412:51 *5210:D 0.00031731
39 *412:51 *1005:10 0.000129487
40 *412:51 *1005:14 4.78195e-05
41 *412:62 *5208:B 8.02763e-05
42 *412:62 *421:47 0.000824472
43 *412:72 *5225:C 0.000287706
44 *412:72 *5226:B 0.000345607
45 *5194:A *412:8 0
46 *5194:B *412:8 0
47 *5212:A1 *412:40 0
48 *5225:A *412:72 6.4728e-06
49 *255:30 *5194:D 0
50 *410:12 *412:72 0
*RES
1 *5193:Y *412:8 45.2942 
2 *412:8 *412:18 24.429 
3 *412:18 *412:26 43.1415 
4 *412:26 *5200:C 20 
5 *412:18 *412:33 0.3193 
6 *412:33 *5196:D 20 
7 *412:33 *412:40 3.9964 
8 *412:40 *5210:C 20 
9 *412:40 *412:51 2.5338 
10 *412:51 *5208:C 20 
11 *412:51 *412:62 6.6435 
12 *412:62 *412:72 42.06 
13 *412:72 *5225:B 20 
14 *412:62 *5220:B 20.5356 
15 *412:8 *5194:D 40.7519 
*END

*D_NET *413 0.00633871
*CONN
*I *5195:B I *D sg13g2_nor2_1
*I *5201:B2 I *D sg13g2_a221oi_1
*I *5203:B2 I *D sg13g2_a221oi_1
*I *5194:X O *D sg13g2_and4_1
*CAP
1 *5195:B 0.00030108
2 *5201:B2 0
3 *5203:B2 0.00043631
4 *5194:X 0.000383372
5 *413:14 0.00081443
6 *413:10 0.00106257
7 *5195:B *5198:A 0
8 *5195:B *5198:B 3.75762e-05
9 *5195:B *704:31 0
10 *5195:B *1106:8 0
11 *5203:B2 *5201:C1 0
12 *5203:B2 *5205:D 0.000112558
13 *5203:B2 *1008:124 4.77534e-05
14 *5203:B2 *1105:32 0.000177334
15 *5203:B2 *1106:35 0
16 *5203:B2 *1106:37 0
17 *413:10 *704:25 0
18 *413:10 *709:56 0
19 *413:10 *709:64 0
20 *413:10 *1018:81 0.000266907
21 *413:14 *415:12 0.00100317
22 *413:14 *416:8 0
23 *413:14 *709:56 0
24 *413:14 *1018:81 0.00023464
25 *413:14 *1106:33 0.00127932
26 *413:14 *1106:35 0.000181695
27 *5094:A2 *5203:B2 0
28 *5201:A1 *5203:B2 0
29 *5201:A1 *413:14 0
30 *412:18 *413:10 0
*RES
1 *5194:X *413:10 44.4702 
2 *413:10 *413:14 7.8383 
3 *413:14 *5203:B2 44.1612 
4 *413:14 *5201:B2 40 
5 *413:10 *5195:B 42.8325 
*END

*D_NET *414 0.000344475
*CONN
*I *5198:B I *D sg13g2_nor2_1
*I *5195:Y O *D sg13g2_nor2_1
*CAP
1 *5198:B 0.000153449
2 *5195:Y 0.000153449
3 *5198:B *704:31 0
4 *5195:B *5198:B 3.75762e-05
*RES
1 *5195:Y *5198:B 42.0085 
*END

*D_NET *415 0.00276619
*CONN
*I *5197:A I *D sg13g2_nand3_1
*I *5201:A2 I *D sg13g2_a221oi_1
*I *5196:Y O *D sg13g2_nand4_1
*CAP
1 *5197:A 0
2 *5201:A2 0
3 *5196:Y 0.000334776
4 *415:12 0.000281053
5 *415:6 0.000615828
6 *415:6 *5196:A 0.000338761
7 *415:6 *704:25 0
8 *415:6 *704:31 1.54008e-05
9 *415:6 *1105:18 0.000177203
10 *415:12 *5543:CLK 0
11 *415:12 *629:31 0
12 *412:18 *415:6 0
13 *413:14 *415:12 0.00100317
*RES
1 *5196:Y *415:6 23.3475 
2 *415:6 *415:12 44.6479 
3 *415:12 *5201:A2 20 
4 *415:6 *5197:A 20 
*END

*D_NET *416 0.000795555
*CONN
*I *5198:A I *D sg13g2_nor2_1
*I *5197:Y O *D sg13g2_nand3_1
*CAP
1 *5198:A 0.000174573
2 *5197:Y 0.000223204
3 *416:8 0.000397777
4 *5198:A *709:64 0
5 *416:8 *1018:81 0
6 *416:8 *1105:12 0
7 *416:8 *1105:18 0
8 *416:8 *1106:18 0
9 *5195:B *5198:A 0
10 *413:14 *416:8 0
*RES
1 *5197:Y *416:8 42.0806 
2 *416:8 *5198:A 41.6171 
*END

*D_NET *417 0.00208209
*CONN
*I *5200:D I *D sg13g2_nand4_1
*I *5201:B1 I *D sg13g2_a221oi_1
*I *5199:X O *D sg13g2_and2_1
*CAP
1 *5200:D 0.00024911
2 *5201:B1 0.000414174
3 *5199:X 0
4 *417:6 0.000663284
5 *5200:D *5196:A 0
6 *5200:D *5199:B 0
7 *5200:D *418:10 1.54008e-05
8 *5200:D *709:56 0
9 *5200:D *1008:105 0
10 *5201:B1 *5199:A 0.000435441
11 *5201:B1 *5201:C1 0
12 *5201:B1 *5609:CLK 0.000241341
13 *5201:B1 *709:56 0
14 *5201:B1 *1008:105 0
15 *5201:A1 *5201:B1 1.54282e-05
16 *412:26 *5200:D 4.79124e-05
*RES
1 *5199:X *417:6 40 
2 *417:6 *5201:B1 44.4393 
3 *417:6 *5200:D 42.8325 
*END

*D_NET *418 0.0039689
*CONN
*I *5203:A2 I *D sg13g2_a221oi_1
*I *5200:Y O *D sg13g2_nand4_1
*CAP
1 *5203:A2 4.01952e-05
2 *5200:Y 0.000458833
3 *418:10 0.000499028
4 *418:10 *5196:A 0
5 *418:10 *629:45 0.000607938
6 *418:10 *629:47 0.000800038
7 *418:10 *704:25 0.00154747
8 *418:10 *1105:22 0
9 *5200:D *418:10 1.54008e-05
*RES
1 *5200:Y *418:10 48.585 
2 *418:10 *5203:A2 40.2807 
*END

*D_NET *419 0.00349387
*CONN
*I *5204:D I *D sg13g2_nand4_1
*I *5203:B1 I *D sg13g2_a221oi_1
*I *5202:X O *D sg13g2_and3_1
*CAP
1 *5204:D 0.000303484
2 *5203:B1 0
3 *5202:X 0.000244125
4 *419:31 0.000950029
5 *419:14 0.00089067
6 *5204:D *5204:A 0
7 *5204:D *5209:A2 0
8 *5204:D *1107:35 0.000533952
9 *419:14 *5205:C 1.54008e-05
10 *419:14 *5205:D 8.94836e-05
11 *419:14 *1105:32 0
12 *419:31 *4969:A 0
13 *419:31 *5205:C 0
14 *419:31 *5205:D 0.000403532
15 *419:31 *709:56 0
16 *419:31 *1107:24 0
17 *419:31 *1107:35 0
18 *5203:A1 *419:14 4.77425e-05
19 *5204:C *5204:D 1.54556e-05
20 *5209:A1 *5204:D 0
21 *5209:A1 *419:31 0
22 *388:38 *5204:D 0
*RES
1 *5202:X *419:14 22.7707 
2 *419:14 *5203:B1 20 
3 *419:14 *419:31 46.9628 
4 *419:31 *5204:D 23.5638 
*END

*D_NET *420 0.000423358
*CONN
*I *5209:A2 I *D sg13g2_a21oi_1
*I *5204:Y O *D sg13g2_nand4_1
*CAP
1 *5209:A2 0.000203951
2 *5204:Y 0.000203951
3 *5209:A2 *5204:A 0
4 *5209:A2 *5209:B1 0
5 *5204:D *5209:A2 0
6 *5209:A1 *5209:A2 1.54556e-05
*RES
1 *5204:Y *5209:A2 42.2454 
*END

*D_NET *421 0.0116746
*CONN
*I *5225:C I *D sg13g2_nand4_1
*I *5220:C I *D sg13g2_nand4_1
*I *5208:D I *D sg13g2_and4_1
*I *5210:D I *D sg13g2_nand4_1
*I *5216:C I *D sg13g2_nand4_1
*I *5213:D I *D sg13g2_nand4_1
*I *5206:C I *D sg13g2_nand4_1
*I *5205:X O *D sg13g2_and4_1
*CAP
1 *5225:C 7.16443e-05
2 *5220:C 0
3 *5208:D 0
4 *5210:D 0.000224859
5 *5216:C 0
6 *5213:D 2.77263e-05
7 *5206:C 9.27026e-05
8 *5205:X 0.000695292
9 *421:47 0.000832751
10 *421:43 0.000607891
11 *421:41 0.000408953
12 *421:32 0.000694974
13 *421:21 0.000704099
14 *421:12 0.00041141
15 *421:10 0.000695292
16 *5206:C *5206:D 1.54556e-05
17 *5206:C *1034:12 7.93152e-05
18 *5206:C *1107:35 0
19 *5210:D *5212:B1 0
20 *5210:D *424:10 0
21 *421:10 *5858:A 0.000287672
22 *421:10 *620:8 4.69735e-05
23 *421:10 *620:25 7.51285e-05
24 *421:10 *856:10 0
25 *421:10 *1107:35 0
26 *421:10 *1109:8 0
27 *421:21 *1034:12 0.000370688
28 *421:21 *1107:35 0
29 *421:32 *656:20 0
30 *421:32 *656:24 0.000821415
31 *421:32 *657:49 0.00108515
32 *421:41 *5226:B 0
33 *421:41 *657:49 0.00015729
34 *421:47 *5220:D 1.54008e-05
35 *421:47 *5849:A 0
36 *5204:C *5206:C 4.78685e-05
37 *5211:A *5210:D 0
38 *5211:A *421:47 0
39 *5212:A1 *5210:D 0
40 *5213:C *421:21 0
41 *5220:B *421:47 3.23417e-05
42 *260:14 *421:10 0.000341216
43 *410:12 *5225:C 0.000338955
44 *410:12 *421:41 0.000871772
45 *410:31 *5206:C 0.000111668
46 *410:31 *421:21 6.38558e-05
47 *412:40 *5210:D 1.54008e-05
48 *412:51 *5210:D 0.00031731
49 *412:62 *421:47 0.000824472
50 *412:72 *5225:C 0.000287706
*RES
1 *5205:X *421:10 45.6475 
2 *421:10 *421:12 20 
3 *421:12 *5206:C 20.9682 
4 *421:12 *421:21 3.1312 
5 *421:21 *5213:D 20.3502 
6 *421:21 *421:32 25.7886 
7 *421:32 *5216:C 40 
8 *421:32 *421:41 4.3054 
9 *421:41 *421:43 20 
10 *421:43 *421:47 6.7568 
11 *421:47 *5210:D 22.5338 
12 *421:47 *5208:D 20 
13 *421:43 *5220:C 20 
14 *421:41 *5225:C 41.5862 
*END

*D_NET *422 0.000654908
*CONN
*I *5207:A I *D sg13g2_nand2_1
*I *5206:Y O *D sg13g2_nand4_1
*CAP
1 *5207:A 7.90819e-05
2 *5206:Y 8.00017e-05
3 *422:8 0.000159084
4 *5207:A *5209:B1 0
5 *5207:A *1015:60 0.000102517
6 *422:8 *5858:A 0.000234224
7 *422:8 *1015:60 0
8 *5207:B *5207:A 0
*RES
1 *5206:Y *422:8 41.0918 
2 *422:8 *5207:A 40.8858 
*END

*D_NET *423 0.000758744
*CONN
*I *5209:B1 I *D sg13g2_a21oi_1
*I *5207:Y O *D sg13g2_nand2_1
*CAP
1 *5209:B1 0.000379372
2 *5207:Y 0.000379372
3 *5209:B1 *5204:A 0
4 *5209:B1 *5858:A 0
5 *5209:B1 *1015:60 0
6 *5209:B1 *1108:37 0
7 *5207:A *5209:B1 0
8 *5209:A1 *5209:B1 0
9 *5209:A2 *5209:B1 0
10 *388:38 *5209:B1 0
*RES
1 *5207:Y *5209:B1 43.9449 
*END

*D_NET *424 0.000696361
*CONN
*I *5212:B2 I *D sg13g2_a221oi_1
*I *5208:X O *D sg13g2_and4_1
*CAP
1 *5212:B2 4.54087e-05
2 *5208:X 0.000182481
3 *424:10 0.00022789
4 *5212:B2 *5212:C1 1.54556e-05
5 *424:10 *5212:B1 0.000144817
6 *5210:D *424:10 0
7 *5211:A *5212:B2 8.03089e-05
8 *5609:D *5212:B2 0
*RES
1 *5208:X *424:10 41.8128 
2 *424:10 *5212:B2 40.5356 
*END

*D_NET *425 0.000839665
*CONN
*I *5212:A2 I *D sg13g2_a221oi_1
*I *5210:Y O *D sg13g2_nand4_1
*CAP
1 *5212:A2 0
2 *5210:Y 0.00015355
3 *425:10 0.00015355
4 *425:10 *1008:95 0.000361891
5 *425:10 *1017:84 0
6 *5210:A *425:10 4.7803e-05
7 *367:20 *425:10 7.51285e-05
8 *367:30 *425:10 4.77425e-05
*RES
1 *5210:Y *425:10 42.2171 
2 *425:10 *5212:A2 40 
*END

*D_NET *426 0.000664537
*CONN
*I *5212:B1 I *D sg13g2_a221oi_1
*I *5211:Y O *D sg13g2_nor2_1
*CAP
1 *5212:B1 0.00017966
2 *5211:Y 0.00017966
3 *5210:D *5212:B1 0
4 *5211:A *5212:B1 0.000144946
5 *5212:A1 *5212:B1 1.54556e-05
6 *424:10 *5212:B1 0.000144817
*RES
1 *5211:Y *5212:B1 41.9982 
*END

*D_NET *427 0.00142749
*CONN
*I *5218:A2 I *D sg13g2_a21oi_1
*I *5213:Y O *D sg13g2_nand4_1
*CAP
1 *5218:A2 0.000196371
2 *5213:Y 0.000216761
3 *427:10 0.000413132
4 *5218:A2 *5099:A 4.77425e-05
5 *5218:A2 *5099:B 0
6 *5218:A2 *1015:60 0
7 *5218:A2 *1108:37 0
8 *427:10 *656:24 0.00039332
9 *427:10 *705:43 0
10 *5218:A1 *5218:A2 8.00842e-05
11 *388:26 *427:10 8.00842e-05
*RES
1 *5213:Y *427:10 42.369 
2 *427:10 *5218:A2 41.8334 
*END

*D_NET *428 0.000295224
*CONN
*I *5216:D I *D sg13g2_nand4_1
*I *5214:X O *D sg13g2_and3_1
*CAP
1 *5216:D 0.000147612
2 *5214:X 0.000147612
3 *5216:D *430:12 0
4 *5216:D *656:8 0
5 *410:20 *5216:D 0
*RES
1 *5214:X *5216:D 41.4111 
*END

*D_NET *429 0.00258803
*CONN
*I *5224:C I *D sg13g2_nor3_1
*I *5219:B I *D sg13g2_nor2_1
*I *5215:Y O *D sg13g2_nand3_1
*CAP
1 *5224:C 0.000168403
2 *5219:B 8.70181e-05
3 *5215:Y 0.000320217
4 *429:8 0.000575638
5 *5224:C *657:33 0.000287361
6 *429:8 *430:35 0.000446386
7 *429:8 *657:33 0.000607524
8 *5222:A1 *5224:C 0
9 *249:12 *5224:C 0
10 *280:16 *429:8 0
11 *348:55 *429:8 0
12 *389:18 *5219:B 1.54008e-05
13 *389:18 *5224:C 8.00842e-05
*RES
1 *5215:Y *429:8 44.3054 
2 *429:8 *5219:B 40.8858 
3 *429:8 *5224:C 41.8746 
*END

*D_NET *430 0.00456537
*CONN
*I *5222:A2 I *D sg13g2_a21oi_1
*I *5217:A I *D sg13g2_nand2_1
*I *5216:Y O *D sg13g2_nand4_1
*CAP
1 *5222:A2 0
2 *5217:A 0
3 *5216:Y 0.000348819
4 *430:35 0.000356845
5 *430:20 0.000558388
6 *430:12 0.00126405
7 *430:12 *5214:B 0
8 *430:12 *5215:C 0
9 *430:12 *605:53 0
10 *430:12 *656:20 0
11 *430:12 *1109:29 4.77425e-05
12 *430:12 *1109:38 0.000144388
13 *430:20 *5099:B 0
14 *430:20 *5215:C 0
15 *430:20 *1109:40 0
16 *430:20 *1109:42 0
17 *430:35 *4999:B 0
18 *430:35 *5215:B 0.000180972
19 *5216:D *430:12 0
20 *280:16 *430:35 0
21 *348:55 *430:20 0.00113767
22 *348:55 *430:35 0
23 *388:24 *430:20 8.01118e-05
24 *429:8 *430:35 0.000446386
*RES
1 *5216:Y *430:12 23.6256 
2 *430:12 *430:20 45.8298 
3 *430:20 *5217:A 20 
4 *430:12 *430:35 43.8934 
5 *430:35 *5222:A2 20 
*END

*D_NET *431 0.000716836
*CONN
*I *5218:B1 I *D sg13g2_a21oi_1
*I *5217:Y O *D sg13g2_nand2_1
*CAP
1 *5218:B1 0
2 *5217:Y 0.000203534
3 *431:8 0.000203534
4 *5218:A1 *431:8 0
5 *146:8 *431:8 0
6 *348:40 *431:8 0.00023464
7 *348:55 *431:8 7.51285e-05
*RES
1 *5217:Y *431:8 42.3278 
2 *431:8 *5218:B1 40 
*END

*D_NET *432 0.00033371
*CONN
*I *5220:D I *D sg13g2_nand4_1
*I *5219:Y O *D sg13g2_nor2_1
*CAP
1 *5220:D 0.000159155
2 *5219:Y 0.000159155
3 *5220:D *5221:A 0
4 *389:18 *5220:D 0
5 *421:47 *5220:D 1.54008e-05
*RES
1 *5219:Y *5220:D 41.4008 
*END

*D_NET *433 0.00226484
*CONN
*I *5227:A1 I *D sg13g2_a21oi_1
*I *5221:A I *D sg13g2_nand2_1
*I *5220:Y O *D sg13g2_nand4_1
*CAP
1 *5227:A1 0.000373061
2 *5221:A 0.000331572
3 *5220:Y 5.44809e-05
4 *433:8 0.000759114
5 *5221:A *605:53 0
6 *5227:A1 *5227:A2 0.000177493
7 *5227:A1 *5227:B1 0
8 *5227:A1 *657:33 0
9 *433:8 *5225:D 7.97045e-05
10 *5220:D *5221:A 0
11 *5222:A1 *5221:A 0
12 *5615:D *5227:A1 4.79124e-05
13 *249:10 *5227:A1 0
14 *249:12 *5221:A 0
15 *389:18 *5221:A 0
16 *389:18 *433:8 2.4669e-05
17 *389:22 *5221:A 0
18 *389:22 *5227:A1 4.8699e-05
19 *389:43 *5227:A1 0.000368137
20 *410:12 *5221:A 0
*RES
1 *5220:Y *433:8 40.5356 
2 *433:8 *5221:A 43.0488 
3 *433:8 *5227:A1 44.429 
*END

*D_NET *434 0.000317581
*CONN
*I *5222:B1 I *D sg13g2_a21oi_1
*I *5221:Y O *D sg13g2_nand2_1
*CAP
1 *5222:B1 0.000118748
2 *5221:Y 0.000118748
3 *5613:D *5222:B1 8.00842e-05
*RES
1 *5221:Y *5222:B1 41.3802 
*END

*D_NET *435 0.000663243
*CONN
*I *5227:A2 I *D sg13g2_a21oi_1
*I *5223:Y O *D sg13g2_nand2_1
*CAP
1 *5227:A2 0.00021437
2 *5223:Y 0.00021437
3 *5227:A2 *5223:B 5.70106e-05
4 *5227:A2 *1113:19 0
5 *5227:A1 *5227:A2 0.000177493
6 *5615:D *5227:A2 0
*RES
1 *5223:Y *5227:A2 42.5647 
*END

*D_NET *436 0.000416005
*CONN
*I *5225:D I *D sg13g2_nand4_1
*I *5224:Y O *D sg13g2_nor3_1
*CAP
1 *5225:D 0.00016815
2 *5224:Y 0.00016815
3 *5225:D *5227:B1 0
4 *389:18 *5225:D 0
5 *433:8 *5225:D 7.97045e-05
*RES
1 *5224:Y *5225:D 41.751 
*END

*D_NET *437 0.000261141
*CONN
*I *5226:A I *D sg13g2_nand2_1
*I *5225:Y O *D sg13g2_nand4_1
*CAP
1 *5226:A 0.000130571
2 *5225:Y 0.000130571
3 *5226:A *5226:B 0
4 *5225:A *5226:A 0
*RES
1 *5225:Y *5226:A 41.3802 
*END

*D_NET *438 0.000383791
*CONN
*I *5227:B1 I *D sg13g2_a21oi_1
*I *5226:Y O *D sg13g2_nand2_1
*CAP
1 *5227:B1 0.000167939
2 *5226:Y 0.000167939
3 *5225:D *5227:B1 0
4 *5227:A1 *5227:B1 0
5 *5615:D *5227:B1 4.79124e-05
*RES
1 *5226:Y *5227:B1 41.6171 
*END

*D_NET *439 0.00027654
*CONN
*I *5229:B1 I *D sg13g2_a21oi_1
*I *5228:Y O *D sg13g2_nor2_1
*CAP
1 *5229:B1 9.81484e-05
2 *5228:Y 9.81484e-05
3 *5229:B1 *5228:B 0
4 *5229:B1 *5235:A2 8.02434e-05
*RES
1 *5228:Y *5229:B1 41.133 
*END

*D_NET *440 0.000648737
*CONN
*I *5235:A2 I *D sg13g2_a22oi_1
*I *5229:Y O *D sg13g2_a21oi_1
*CAP
1 *5235:A2 0.000260376
2 *5229:Y 0.000260376
3 *5235:A2 *5228:B 0
4 *5235:A2 *5229:A1 4.77425e-05
5 *5235:A2 *5237:A 0
6 *5235:A2 *445:10 0
7 *5229:B1 *5235:A2 8.02434e-05
8 *5235:B2 *5235:A2 0
*RES
1 *5229:Y *5235:A2 42.8325 
*END

*D_NET *441 0.000764146
*CONN
*I *5233:A2 I *D sg13g2_a21oi_1
*I *5230:Y O *D sg13g2_o21ai_1
*CAP
1 *5233:A2 0.000204503
2 *5230:Y 0.000204503
3 *5233:A2 *5233:A1 0.000339683
4 *5233:A2 *1017:50 0
5 *5233:A2 *1023:53 1.54556e-05
*RES
1 *5230:Y *5233:A2 42.266 
*END

*D_NET *442 0.00174464
*CONN
*I *5232:A2 I *D sg13g2_o21ai_1
*I *5231:Y O *D sg13g2_nor3_1
*CAP
1 *5232:A2 0
2 *5231:Y 0.000341801
3 *442:10 0.000341801
4 *442:10 *664:37 0
5 *442:10 *715:123 0.000181608
6 *442:10 *718:41 0.000605863
7 *442:10 *1023:39 0
8 *442:10 *1023:43 0.000273562
9 *442:10 *1046:44 0
*RES
1 *5231:Y *442:10 44.6556 
2 *442:10 *5232:A2 40 
*END

*D_NET *443 0.00278023
*CONN
*I *5233:B1 I *D sg13g2_a21oi_1
*I *5232:Y O *D sg13g2_o21ai_1
*CAP
1 *5233:B1 0.000312233
2 *5232:Y 0.000574997
3 *443:10 0.00088723
4 *5233:B1 *5231:B 0.000491453
5 *5233:B1 *5233:A1 0
6 *5233:B1 *1023:53 0.00011159
7 *443:10 *672:14 0
8 *443:10 *672:109 0
9 *443:10 *715:123 1.54008e-05
10 *443:10 *1017:26 0
11 *443:10 *1017:37 0
12 *5617:D *5233:B1 0.000242313
13 *351:14 *443:10 0.000145018
*RES
1 *5232:Y *443:10 45.2427 
2 *443:10 *5233:B1 43.8007 
*END

*D_NET *444 0.000791327
*CONN
*I *5235:B1 I *D sg13g2_a22oi_1
*I *5234:Y O *D sg13g2_a21oi_1
*CAP
1 *5235:B1 0.000291634
2 *5234:Y 0.000291634
3 *5235:B1 *5234:B1 4.77425e-05
4 *5235:B1 *5235:A1 0.000112563
5 *5235:B1 *445:10 4.77534e-05
6 *5235:B2 *5235:B1 0
*RES
1 *5234:Y *5235:B1 42.8325 
*END

*D_NET *445 0.000562847
*CONN
*I *5237:B I *D sg13g2_nor2_1
*I *5235:Y O *D sg13g2_a22oi_1
*CAP
1 *5237:B 0
2 *5235:Y 0.000116515
3 *445:10 0.000116515
4 *445:10 *4980:A 0
5 *445:10 *672:96 0
6 *5235:B1 *445:10 4.77534e-05
7 *5235:B2 *445:10 4.77534e-05
8 *5235:A2 *445:10 0
9 *150:8 *445:10 0.000234311
*RES
1 *5235:Y *445:10 41.6274 
2 *445:10 *5237:B 40 
*END

*D_NET *446 0.000938317
*CONN
*I *5237:A I *D sg13g2_nor2_1
*I *5236:Y O *D sg13g2_o21ai_1
*CAP
1 *5237:A 0.000142235
2 *5236:Y 0.000218044
3 *446:8 0.000360279
4 *5237:A *5228:B 8.95113e-05
5 *5237:A *638:10 0
6 *5237:A *1017:26 0
7 *446:8 *5016:A 0
8 *446:8 *5234:B1 0.000128248
9 *446:8 *638:16 0
10 *446:8 *638:47 0
11 *5235:B2 *5237:A 0
12 *5235:A2 *5237:A 0
*RES
1 *5236:Y *446:8 42.0806 
2 *446:8 *5237:A 41.4008 
*END

*D_NET *447 0.000952129
*CONN
*I *5240:C I *D sg13g2_nor3_1
*I *5238:Y O *D sg13g2_nor2_1
*CAP
1 *5240:C 0.000175999
2 *5238:Y 5.73773e-05
3 *447:8 0.000233376
4 *5240:C *701:33 0.000304613
5 *5240:C *1026:14 0
6 *447:8 *1026:14 0.000180763
*RES
1 *5238:Y *447:8 40.8446 
2 *447:8 *5240:C 42.0497 
*END

*D_NET *448 0.000305925
*CONN
*I *5240:A I *D sg13g2_nor3_1
*I *5239:Y O *D sg13g2_a21oi_1
*CAP
1 *5240:A 0.000145262
2 *5239:Y 0.000145262
3 *5240:A *673:93 0
4 *5240:A *701:25 1.54008e-05
5 *5240:A *701:33 0
*RES
1 *5239:Y *5240:A 41.6274 
*END

*D_NET *449 0.000850789
*CONN
*I *5243:C I *D sg13g2_nor3_1
*I *5241:Y O *D sg13g2_nor2_1
*CAP
1 *5243:C 0.00036161
2 *5241:Y 0.00036161
3 *5243:C *5242:A2 0
4 *5243:C *5243:A 4.7687e-05
5 *5623:D *5243:C 7.98824e-05
6 *79:8 *5243:C 0
*RES
1 *5241:Y *5243:C 44.0685 
*END

*D_NET *450 0.000485093
*CONN
*I *5243:A I *D sg13g2_nor3_1
*I *5242:Y O *D sg13g2_a21oi_1
*CAP
1 *5243:A 3.09842e-05
2 *5242:Y 7.09874e-05
3 *450:8 0.000101972
4 *450:8 *701:19 0.000233463
5 *5243:C *5243:A 4.7687e-05
*RES
1 *5242:Y *450:8 41.0918 
2 *450:8 *5243:A 40.3193 
*END

*D_NET *451 0.000914175
*CONN
*I *5246:C I *D sg13g2_nor3_1
*I *5244:Y O *D sg13g2_nor2_1
*CAP
1 *5246:C 0.00041695
2 *5244:Y 0.00041695
3 *5246:C *5244:B 0
4 *5246:C *5246:A 0
5 *5246:C *5246:B 0
6 *5625:D *5246:C 8.02763e-05
7 *5968:A *5246:C 0
*RES
1 *5244:Y *5246:C 44.4934 
*END

*D_NET *452 0.00048757
*CONN
*I *5246:A I *D sg13g2_nor3_1
*I *5245:Y O *D sg13g2_a21oi_1
*CAP
1 *5246:A 2.76997e-05
2 *5245:Y 0.000154606
3 *452:8 0.000182306
4 *5246:A *5244:B 4.77425e-05
5 *5246:A *5246:B 0
6 *452:8 *673:33 0
7 *452:8 *687:56 7.52158e-05
8 *5246:C *5246:A 0
9 *5625:D *5246:A 0
*RES
1 *5245:Y *452:8 41.8334 
2 *452:8 *5246:A 40.3193 
*END

*D_NET *453 0.000743911
*CONN
*I *5249:C I *D sg13g2_nor3_1
*I *5247:Y O *D sg13g2_nor2_1
*CAP
1 *5249:C 0.00016274
2 *5247:Y 0.00016274
3 *5627:D *5249:C 0.00017724
4 *5968:A *5249:C 0.00024119
*RES
1 *5247:Y *5249:C 41.9493 
*END

*D_NET *454 0.000943618
*CONN
*I *5249:A I *D sg13g2_nor3_1
*I *5248:Y O *D sg13g2_a21oi_1
*CAP
1 *5249:A 2.88802e-05
2 *5248:Y 0.000168199
3 *454:8 0.000197079
4 *5249:A *670:10 0
5 *5249:A *1022:87 4.79124e-05
6 *454:8 *5797:CLK 0
7 *454:8 *764:16 0.000501548
*RES
1 *5248:Y *454:8 42.3278 
2 *454:8 *5249:A 40.3193 
*END

*D_NET *455 0.00021263
*CONN
*I *5252:C I *D sg13g2_nor3_1
*I *5250:Y O *D sg13g2_nor2_1
*CAP
1 *5252:C 0.000106315
2 *5250:Y 0.000106315
3 *5252:C *5250:B 0
4 *5252:C *5252:A 0
5 *5252:C *1040:8 0
6 *5629:D *5252:C 0
*RES
1 *5250:Y *5252:C 41.133 
*END

*D_NET *456 0.000582673
*CONN
*I *5252:A I *D sg13g2_nor3_1
*I *5251:Y O *D sg13g2_a21oi_1
*CAP
1 *5252:A 5.16825e-05
2 *5251:Y 0.000231926
3 *456:8 0.000283608
4 *5252:A *1022:8 0
5 *456:8 *5276:B 0
6 *456:8 *5629:CLK 0
7 *456:8 *696:35 0
8 *456:8 *935:25 0
9 *5252:C *5252:A 0
10 *5629:D *5252:A 1.54556e-05
*RES
1 *5251:Y *456:8 42.0806 
2 *456:8 *5252:A 40.5356 
*END

*D_NET *457 0.000434062
*CONN
*I *5255:C I *D sg13g2_nor3_1
*I *5253:Y O *D sg13g2_nor2_1
*CAP
1 *5255:C 0.000209331
2 *5253:Y 0.000209331
3 *5255:C *5253:B 0
4 *5255:C *5255:B 1.54008e-05
5 *5255:C *695:10 0
6 *5631:D *5255:C 0
*RES
1 *5253:Y *5255:C 41.9982 
*END

*D_NET *458 0.00209942
*CONN
*I *5255:A I *D sg13g2_nor3_1
*I *5254:Y O *D sg13g2_a21oi_1
*CAP
1 *5255:A 0
2 *5254:Y 9.80339e-05
3 *458:16 0.000799562
4 *458:8 0.000897595
5 *458:8 *5277:B 7.51285e-05
6 *458:8 *622:10 0
7 *458:8 *622:12 0
8 *458:8 *1020:81 0.000181279
9 *458:16 *5631:RESET_B 0
10 *458:16 *669:99 4.78195e-05
11 *458:16 *683:8 0
12 *458:16 *683:14 0
*RES
1 *5254:Y *458:8 41.0918 
2 *458:8 *458:16 48.24 
3 *458:16 *5255:A 40 
*END

*D_NET *459 0.000402124
*CONN
*I *5258:C I *D sg13g2_nor3_1
*I *5256:Y O *D sg13g2_nor2_1
*CAP
1 *5258:C 0
2 *5256:Y 0.000201062
3 *459:12 0.000201062
4 *459:12 *1085:36 0
*RES
1 *5256:Y *459:12 42.5029 
2 *459:12 *5258:C 40 
*END

*D_NET *460 0.000707941
*CONN
*I *5258:A I *D sg13g2_nor3_1
*I *5257:Y O *D sg13g2_a21oi_1
*CAP
1 *5258:A 0.000346243
2 *5257:Y 0.000346243
3 *5258:A *5256:B 0
4 *5258:A *5258:B 1.54556e-05
5 *5258:A *1020:6 0
6 *5633:D *5258:A 0
*RES
1 *5257:Y *5258:A 43.1595 
*END

*D_NET *461 0.000359518
*CONN
*I *5261:C I *D sg13g2_nor3_1
*I *5259:Y O *D sg13g2_nor2_1
*CAP
1 *5261:C 0.000179759
2 *5259:Y 0.000179759
3 *5261:C *695:18 0
4 *5635:D *5261:C 0
*RES
1 *5259:Y *5261:C 41.9982 
*END

*D_NET *462 0.00143671
*CONN
*I *5261:A I *D sg13g2_nor3_1
*I *5260:Y O *D sg13g2_a21oi_1
*CAP
1 *5261:A 0
2 *5260:Y 0.000387619
3 *462:12 0.000387619
4 *462:12 *5260:B1 0
5 *462:12 *5261:B 0.000501633
6 *462:12 *5635:RESET_B 0
7 *462:12 *5635:CLK 0
8 *462:12 *695:35 0.000159839
9 *462:12 *1020:64 0
*RES
1 *5260:Y *462:12 45.2839 
2 *462:12 *5261:A 40 
*END

*D_NET *463 0.000482494
*CONN
*I *5264:C I *D sg13g2_nor3_1
*I *5262:Y O *D sg13g2_nor2_1
*CAP
1 *5264:C 0.0002016
2 *5262:Y 0.0002016
3 *5264:C *5336:S 7.92946e-05
4 *5264:C *5637:D 0
*RES
1 *5262:Y *5264:C 41.9673 
*END

*D_NET *464 0.00190899
*CONN
*I *5264:A I *D sg13g2_nor3_1
*I *5263:Y O *D sg13g2_a21oi_1
*CAP
1 *5264:A 3.43728e-05
2 *5263:Y 0.000222329
3 *464:8 0.000256702
4 *464:8 *5264:B 0.000128663
5 *464:8 *663:46 0
6 *464:8 *687:96 0.000552918
7 *464:8 *1026:110 0.000714003
*RES
1 *5263:Y *464:8 44.0582 
2 *464:8 *5264:A 40.3193 
*END

*D_NET *465 0.00105433
*CONN
*I *5267:C I *D sg13g2_nor3_1
*I *5265:Y O *D sg13g2_nor2_1
*CAP
1 *5267:C 0.000431606
2 *5265:Y 0.000431606
3 *5267:C *5265:B 0
4 *5267:C *5639:RESET_B 0
5 *5267:C *702:32 1.53311e-05
6 *160:10 *5267:C 0.00017579
*RES
1 *5265:Y *5267:C 44.2333 
*END

*D_NET *466 0.000714207
*CONN
*I *5267:A I *D sg13g2_nor3_1
*I *5266:Y O *D sg13g2_a21oi_1
*CAP
1 *5267:A 3.75563e-05
2 *5266:Y 0.000122941
3 *466:8 0.000160498
4 *466:8 *702:24 0.000393212
5 *466:8 *718:41 0
*RES
1 *5266:Y *466:8 41.8334 
2 *466:8 *5267:A 40.3193 
*END

*D_NET *467 0.000771809
*CONN
*I *5270:C I *D sg13g2_nor3_1
*I *5268:Y O *D sg13g2_nor2_1
*CAP
1 *5270:C 0.000378204
2 *5268:Y 0.000378204
3 *5270:C *5268:B 1.54008e-05
4 *5270:C *668:60 0
*RES
1 *5268:Y *5270:C 43.5638 
*END

*D_NET *468 0.00128086
*CONN
*I *5270:A I *D sg13g2_nor3_1
*I *5269:Y O *D sg13g2_a21oi_1
*CAP
1 *5270:A 3.44048e-05
2 *5269:Y 0.000265442
3 *468:8 0.000299847
4 *468:8 *5269:A1 0
5 *468:8 *701:77 0.000128576
6 *468:8 *701:90 0.000552589
*RES
1 *5269:Y *468:8 43.0694 
2 *468:8 *5270:A 40.3193 
*END

*D_NET *469 0.00236245
*CONN
*I *5273:C I *D sg13g2_nor3_1
*I *5271:Y O *D sg13g2_nor2_1
*CAP
1 *5273:C 0.000115857
2 *5271:Y 0.000670179
3 *469:10 0.000786037
4 *5273:C *5273:B 4.77425e-05
5 *5273:C *5643:D 0
6 *469:10 *5272:A2 0
7 *469:10 *696:111 0
8 *469:10 *713:18 0.000371316
9 *469:10 *1033:57 0.000371316
10 *162:10 *5273:C 0
*RES
1 *5271:Y *469:10 47.0349 
2 *469:10 *5273:C 40.9682 
*END

*D_NET *470 0.00183473
*CONN
*I *5273:A I *D sg13g2_nor3_1
*I *5272:Y O *D sg13g2_a21oi_1
*CAP
1 *5273:A 0
2 *5272:Y 0.00042939
3 *470:10 0.00042939
4 *470:10 *5272:A1 0.000208917
5 *470:10 *5643:CLK 0
6 *470:10 *696:96 0
7 *470:10 *696:111 0.000767034
*RES
1 *5272:Y *470:10 45.459 
2 *470:10 *5273:A 40 
*END

*D_NET *471 0.000543227
*CONN
*I *5276:C I *D sg13g2_nor3_1
*I *5274:Y O *D sg13g2_nor2_1
*CAP
1 *5276:C 0.000150929
2 *5274:Y 0.000150929
3 *5276:C *5276:B 0.000241368
4 *5276:C *5645:RESET_B 0
*RES
1 *5274:Y *5276:C 41.6171 
*END

*D_NET *472 0.00106403
*CONN
*I *5276:A I *D sg13g2_nor3_1
*I *5275:Y O *D sg13g2_a21oi_1
*CAP
1 *5276:A 0.000118534
2 *5275:Y 0.000308483
3 *472:8 0.000427017
4 *5276:A *5276:B 0
5 *5276:A *671:22 0.000209999
6 *472:8 *679:43 0
7 *472:8 *697:51 0
8 *5645:D *5276:A 0
*RES
1 *5275:Y *472:8 43.811 
2 *472:8 *5276:A 41.4008 
*END

*D_NET *473 0.000350946
*CONN
*I *5279:C I *D sg13g2_nor3_1
*I *5277:Y O *D sg13g2_nor2_1
*CAP
1 *5279:C 0.000160072
2 *5277:Y 0.000160072
3 *5279:C *5277:B 1.54008e-05
4 *5279:C *5279:B 1.54008e-05
5 *5279:C *669:8 0
6 *5279:C *711:71 0
*RES
1 *5277:Y *5279:C 41.6171 
*END

*D_NET *474 0.00131398
*CONN
*I *5279:A I *D sg13g2_nor3_1
*I *5278:Y O *D sg13g2_a21oi_1
*CAP
1 *5279:A 0.000151374
2 *5278:Y 0.000505616
3 *474:8 0.00065699
4 *5279:A *5279:B 0
5 *5279:A *669:8 0
6 *474:8 *683:33 0
7 *474:8 *683:44 0
8 *474:8 *683:48 0
9 *474:8 *1030:70 0
10 *164:8 *474:8 0
*RES
1 *5278:Y *474:8 44.5526 
2 *474:8 *5279:A 41.4008 
*END

*D_NET *475 0.000689085
*CONN
*I *5282:C I *D sg13g2_nor3_1
*I *5280:Y O *D sg13g2_nor2_1
*CAP
1 *5282:C 0.000320591
2 *5280:Y 0.000320591
3 *5282:C *5282:A 0
4 *5282:C *5649:RESET_B 0
5 *5282:C *1085:10 0
6 *5649:D *5282:C 4.79017e-05
*RES
1 *5280:Y *5282:C 43.5638 
*END

*D_NET *476 0.000662945
*CONN
*I *5282:A I *D sg13g2_nor3_1
*I *5281:Y O *D sg13g2_a21oi_1
*CAP
1 *5282:A 0.000331472
2 *5281:Y 0.000331472
3 *5282:A *5281:A1 0
4 *5282:C *5282:A 0
5 *5649:D *5282:A 0
6 *69:20 *5282:A 0
*RES
1 *5281:Y *5282:A 43.9037 
*END

*D_NET *477 0.00153513
*CONN
*I *5285:C I *D sg13g2_nor3_1
*I *5283:Y O *D sg13g2_nor2_1
*CAP
1 *5285:C 0.000485173
2 *5283:Y 0.000485173
3 *5285:C *5283:B 0
4 *5285:C *5285:B 8.03089e-05
5 *5285:C *5651:RESET_B 0
6 *5285:C *671:28 0
7 *5285:C *685:27 0.000404367
8 *5285:C *1086:25 0
9 *5651:D *5285:C 8.01118e-05
*RES
1 *5283:Y *5285:C 45.7268 
*END

*D_NET *478 0.00189027
*CONN
*I *5285:A I *D sg13g2_nor3_1
*I *5284:Y O *D sg13g2_a21oi_1
*CAP
1 *5285:A 0.000219226
2 *5284:Y 0.000382953
3 *478:8 0.000602178
4 *5285:A *5285:B 0
5 *5285:A *5651:RESET_B 0
6 *5285:A *1030:28 0
7 *5285:A *1086:25 0.000339491
8 *478:8 *988:25 0.000346423
*RES
1 *5284:Y *478:8 44.5526 
2 *478:8 *5285:A 42.266 
*END

*D_NET *479 0.000644439
*CONN
*I *5288:C I *D sg13g2_nor3_1
*I *5286:Y O *D sg13g2_nor2_1
*CAP
1 *5288:C 0.000290599
2 *5286:Y 0.000290599
3 *5288:C *5286:A 0
4 *5288:C *668:48 0
5 *5288:C *702:68 0
6 *5288:C *997:8 4.77863e-05
7 *5288:C *1023:127 1.54556e-05
*RES
1 *5286:Y *5288:C 43.3475 
*END

*D_NET *480 0.00112443
*CONN
*I *5288:A I *D sg13g2_nor3_1
*I *5287:Y O *D sg13g2_a21oi_1
*CAP
1 *5288:A 4.25611e-05
2 *5287:Y 0.000205053
3 *480:8 0.000247614
4 *5288:A *702:62 0
5 *480:8 *689:48 7.51285e-05
6 *480:8 *717:51 0
7 *480:8 *997:25 0.000554077
*RES
1 *5287:Y *480:8 42.575 
2 *480:8 *5288:A 40.3193 
*END

*D_NET *481 0.000341397
*CONN
*I *5291:C I *D sg13g2_nor3_1
*I *5289:Y O *D sg13g2_nor2_1
*CAP
1 *5291:C 0.000162971
2 *5289:Y 0.000162971
3 *5291:C *640:18 0
4 *5291:C *702:14 0
5 *5291:C *702:131 1.54556e-05
*RES
1 *5289:Y *5291:C 41.751 
*END

*D_NET *482 0.000955761
*CONN
*I *5291:A I *D sg13g2_nor3_1
*I *5290:Y O *D sg13g2_a21oi_1
*CAP
1 *5291:A 5.0266e-05
2 *5290:Y 0.000200255
3 *482:8 0.000250521
4 *5291:A *640:18 0
5 *5291:A *702:8 0
6 *5291:A *702:131 0
7 *482:8 *702:131 0.00045472
*RES
1 *5290:Y *482:8 42.8222 
2 *482:8 *5291:A 40.5356 
*END

*D_NET *483 0.00170535
*CONN
*I *5294:C I *D sg13g2_nor3_1
*I *5292:Y O *D sg13g2_nor2_1
*CAP
1 *5294:C 0.000651377
2 *5292:Y 0.000651377
3 *5294:C *5292:A 0.000144915
4 *5294:C *5293:B1 0
5 *5294:C *6013:A 0
6 *5294:C *484:12 1.54556e-05
7 *5294:C *701:90 0
8 *5294:C *1058:19 0
9 *5657:D *5294:C 0.00024222
*RES
1 *5292:Y *5294:C 46.592 
*END

*D_NET *484 0.00123852
*CONN
*I *5294:A I *D sg13g2_nor3_1
*I *5293:Y O *D sg13g2_a21oi_1
*CAP
1 *5294:A 0
2 *5293:Y 0.000611535
3 *484:12 0.000611535
4 *484:12 *5293:A1 0
5 *484:12 *5293:B1 0
6 *484:12 *5316:A 0
7 *484:12 *5641:CLK 0
8 *484:12 *5657:RESET_B 0
9 *484:12 *5922:A 0
10 *5294:C *484:12 1.54556e-05
11 *5657:D *484:12 0
*RES
1 *5293:Y *484:12 44.9263 
2 *484:12 *5294:A 40 
*END

*D_NET *485 0.000667758
*CONN
*I *5297:C I *D sg13g2_nor3_1
*I *5295:Y O *D sg13g2_nor2_1
*CAP
1 *5297:C 0
2 *5295:Y 0.000293741
3 *485:10 0.000293741
4 *485:10 *5295:B 0
5 *485:10 *486:10 0
6 *485:10 *687:24 0
7 *485:10 *696:111 0
8 *5659:D *485:10 8.0276e-05
*RES
1 *5295:Y *485:10 42.8943 
2 *485:10 *5297:C 40 
*END

*D_NET *486 0.00130412
*CONN
*I *5297:A I *D sg13g2_nor3_1
*I *5296:Y O *D sg13g2_a21oi_1
*CAP
1 *5297:A 0.000195894
2 *5296:Y 0.000392133
3 *486:10 0.000588027
4 *5297:A *696:111 0
5 *486:10 *5296:A1 8.0216e-05
6 *486:10 *5296:A2 0
7 *486:10 *5296:B1 4.78524e-05
8 *486:10 *5358:A1 0
9 *486:10 *605:296 0
10 *486:10 *1059:23 0
11 *485:10 *486:10 0
*RES
1 *5296:Y *486:10 43.5741 
2 *486:10 *5297:A 41.8334 
*END

*D_NET *487 0.000617361
*CONN
*I *5300:C I *D sg13g2_nor3_1
*I *5298:Y O *D sg13g2_nor2_1
*CAP
1 *5300:C 0.00025354
2 *5298:Y 0.00025354
3 *5300:C *5298:A 0
4 *5300:C *697:51 0.000110282
*RES
1 *5298:Y *5300:C 42.5673 
*END

*D_NET *488 0.000294544
*CONN
*I *5300:A I *D sg13g2_nor3_1
*I *5299:Y O *D sg13g2_a21oi_1
*CAP
1 *5300:A 0.000147272
2 *5299:Y 0.000147272
3 *5300:A *5299:A2 0
4 *5300:A *5322:B 0
5 *5300:A *5324:B 0
6 *5300:A *697:51 0
*RES
1 *5299:Y *5300:A 41.6274 
*END

*D_NET *489 0.00027993
*CONN
*I *5303:C I *D sg13g2_nor3_1
*I *5301:Y O *D sg13g2_nor2_1
*CAP
1 *5303:C 9.98433e-05
2 *5301:Y 9.98433e-05
3 *5303:C *695:88 8.02431e-05
4 *5303:C *1021:26 0
*RES
1 *5301:Y *5303:C 41.133 
*END

*D_NET *490 0.000866168
*CONN
*I *5303:A I *D sg13g2_nor3_1
*I *5302:Y O *D sg13g2_a21oi_1
*CAP
1 *5303:A 0.000328967
2 *5302:Y 0.000328967
3 *5303:A *5302:A1 1.54556e-05
4 *5303:A *5326:A1 0
5 *5303:A *5663:D 1.54556e-05
6 *5303:A *683:82 0.000177323
7 *5303:A *695:88 0
8 *5303:A *1021:20 0
9 *6006:A *5303:A 0
*RES
1 *5302:Y *5303:A 43.708 
*END

*D_NET *491 0.000594994
*CONN
*I *5306:C I *D sg13g2_nor3_1
*I *5304:Y O *D sg13g2_nor2_1
*CAP
1 *5306:C 0.000201588
2 *5304:Y 0.000201588
3 *5306:C *5304:B 0
4 *5306:C *671:55 0
5 *5306:C *694:56 1.54008e-05
6 *5665:D *5306:C 0.000176416
*RES
1 *5304:Y *5306:C 41.9673 
*END

*D_NET *492 0.000607256
*CONN
*I *5306:A I *D sg13g2_nor3_1
*I *5305:Y O *D sg13g2_a21oi_1
*CAP
1 *5306:A 0
2 *5305:Y 0.000211548
3 *492:10 0.000211548
4 *492:10 *685:58 0.00018416
5 *492:10 *1020:12 0
*RES
1 *5305:Y *492:10 42.3999 
2 *492:10 *5306:A 40 
*END

*D_NET *493 0.000207475
*CONN
*I *5309:C I *D sg13g2_nor3_1
*I *5307:Y O *D sg13g2_nor2_1
*CAP
1 *5309:C 9.60371e-05
2 *5307:Y 9.60371e-05
3 *5309:C *5309:B 1.54008e-05
4 *5309:C *1030:16 0
*RES
1 *5307:Y *5309:C 41.133 
*END

*D_NET *494 0.00137684
*CONN
*I *5309:A I *D sg13g2_nor3_1
*I *5308:Y O *D sg13g2_a21oi_1
*CAP
1 *5309:A 0
2 *5308:Y 0.000521236
3 *494:12 0.000521236
4 *494:12 *5667:CLK 1.54008e-05
5 *494:12 *683:52 0.000242252
6 *494:12 *954:10 7.67102e-05
*RES
1 *5308:Y *494:12 45.5311 
2 *494:12 *5309:A 40 
*END

*D_NET *495 0.000573917
*CONN
*I *5312:C I *D sg13g2_nor3_1
*I *5310:Y O *D sg13g2_nor2_1
*CAP
1 *5312:C 0.000174377
2 *5310:Y 0.000174377
3 *5312:C *5312:A 0
4 *5312:C *5312:B 0.000225164
*RES
1 *5310:Y *5312:C 41.9982 
*END

*D_NET *496 0.000953962
*CONN
*I *5312:A I *D sg13g2_nor3_1
*I *5311:Y O *D sg13g2_a21oi_1
*CAP
1 *5312:A 0.000160628
2 *5311:Y 0.000316353
3 *496:8 0.000476981
4 *5312:A *5669:D 0
5 *5312:C *5312:A 0
*RES
1 *5311:Y *496:8 43.3166 
2 *496:8 *5312:A 41.4008 
*END

*D_NET *497 0.000643767
*CONN
*I *5315:C I *D sg13g2_nor3_1
*I *5313:Y O *D sg13g2_nor2_1
*CAP
1 *5315:C 0.000314156
2 *5313:Y 0.000314156
3 *5315:C *5313:A 0
4 *5315:C *5313:B 0
5 *5315:C *6028:A 0
6 *5315:C *702:54 1.54556e-05
7 *5315:C *718:54 0
*RES
1 *5313:Y *5315:C 43.2342 
*END

*D_NET *498 0.00263457
*CONN
*I *5315:A I *D sg13g2_nor3_1
*I *5314:Y O *D sg13g2_a21oi_1
*CAP
1 *5315:A 7.87561e-05
2 *5314:Y 0.0001748
3 *498:8 0.000253556
4 *5315:A *718:54 0.000112426
5 *498:8 *674:21 0.000833093
6 *498:8 *674:32 0.000161737
7 *498:8 *689:61 0.000130636
8 *498:8 *689:67 0.000889568
*RES
1 *5314:Y *498:8 44.5526 
2 *498:8 *5315:A 40.7519 
*END

*D_NET *499 0.000567676
*CONN
*I *5318:C I *D sg13g2_nor3_1
*I *5316:Y O *D sg13g2_nor2_1
*CAP
1 *5318:C 0.00017894
2 *5316:Y 0.00017894
3 *5318:C *5316:B 0.000209796
4 *5318:C *5318:A 0
5 *5318:C *674:48 0
*RES
1 *5316:Y *5318:C 41.9982 
*END

*D_NET *500 0.000285131
*CONN
*I *5318:A I *D sg13g2_nor3_1
*I *5317:Y O *D sg13g2_a21oi_1
*CAP
1 *5318:A 3.58295e-05
2 *5317:Y 0.000106736
3 *500:8 0.000142565
4 *5318:A *674:48 0
5 *500:8 *996:32 0
6 *5318:C *5318:A 0
*RES
1 *5317:Y *500:8 41.0918 
2 *500:8 *5318:A 40.3193 
*END

*D_NET *501 0.000499355
*CONN
*I *5321:C I *D sg13g2_nor3_1
*I *5319:Y O *D sg13g2_nor2_1
*CAP
1 *5321:C 0.000249678
2 *5319:Y 0.000249678
3 *5321:C *5295:B 0
4 *5321:C *605:296 0
5 *5321:C *1026:61 0
*RES
1 *5319:Y *5321:C 42.6327 
*END

*D_NET *502 0.00120421
*CONN
*I *5321:A I *D sg13g2_nor3_1
*I *5320:Y O *D sg13g2_a21oi_1
*CAP
1 *5321:A 0.000144255
2 *5320:Y 0.000171657
3 *502:8 0.000315913
4 *5321:A *605:279 0
5 *5321:A *605:296 0
6 *5321:A *1026:61 0
7 *5321:A *1026:80 0
8 *502:8 *5320:A2 0.000394981
9 *502:8 *987:23 0
10 *502:8 *1026:80 0
11 *502:8 *1067:43 0
12 *5988:A *5321:A 0.000177399
*RES
1 *5320:Y *502:8 42.3278 
2 *502:8 *5321:A 41.6171 
*END

*D_NET *503 0.000735003
*CONN
*I *5324:C I *D sg13g2_nor3_1
*I *5322:Y O *D sg13g2_nor2_1
*CAP
1 *5324:C 0.000367501
2 *5322:Y 0.000367501
3 *5324:C *5323:A2 0
4 *5324:C *5324:B 0
5 *5324:C *5661:CLK 0
6 *5324:C *605:306 0
*RES
1 *5322:Y *5324:C 43.3475 
*END

*D_NET *504 0.00131646
*CONN
*I *5324:A I *D sg13g2_nor3_1
*I *5323:Y O *D sg13g2_a21oi_1
*CAP
1 *5324:A 0.000199821
2 *5323:Y 0.000288776
3 *504:8 0.000488597
4 *5324:A *5324:B 0.000339267
5 *504:8 *712:71 0
6 *504:8 *967:8 0
*RES
1 *5323:Y *504:8 42.575 
2 *504:8 *5324:A 42.266 
*END

*D_NET *505 0.000975686
*CONN
*I *5327:C I *D sg13g2_nor3_1
*I *5325:Y O *D sg13g2_nor2_1
*CAP
1 *5327:C 0
2 *5325:Y 0.000268557
3 *505:10 0.000268557
4 *505:10 *623:27 0
5 *505:10 *1021:12 0.000209637
6 *505:10 *1022:66 4.77425e-05
7 *505:10 *1031:57 0.000181192
8 *5679:D *505:10 0
*RES
1 *5325:Y *505:10 42.7975 
2 *505:10 *5327:C 40 
*END

*D_NET *506 0.00053755
*CONN
*I *5327:A I *D sg13g2_nor3_1
*I *5326:Y O *D sg13g2_a21oi_1
*CAP
1 *5327:A 0.000163847
2 *5326:Y 0.000163847
3 *5327:A *5326:A1 0
4 *5327:A *5326:A2 0.000209856
5 *5327:A *5326:B1 0
6 *5327:A *695:103 0
7 *5679:D *5327:A 0
*RES
1 *5326:Y *5327:A 41.751 
*END

*D_NET *507 0.000591947
*CONN
*I *5330:C I *D sg13g2_nor3_1
*I *5328:Y O *D sg13g2_nor2_1
*CAP
1 *5330:C 0.000178845
2 *5328:Y 0.000178845
3 *5330:C *5328:B 0.000154173
4 *5330:C *5330:B 8.00842e-05
5 *5330:C *1020:6 0
*RES
1 *5328:Y *5330:C 41.9982 
*END

*D_NET *508 0.00181539
*CONN
*I *5330:A I *D sg13g2_nor3_1
*I *5329:Y O *D sg13g2_a21oi_1
*CAP
1 *5330:A 3.31371e-05
2 *5329:Y 0.000284374
3 *508:8 0.000317511
4 *5330:A *1020:6 4.76038e-05
5 *508:8 *694:39 0.000395488
6 *508:8 *694:43 0.000128439
7 *181:8 *508:8 0.000608842
*RES
1 *5329:Y *508:8 44.3054 
2 *508:8 *5330:A 40.3193 
*END

*D_NET *509 0.00101616
*CONN
*I *5333:C I *D sg13g2_nor3_1
*I *5331:Y O *D sg13g2_nor2_1
*CAP
1 *5333:C 0.00050035
2 *5331:Y 0.00050035
3 *5333:C *5331:B 0
4 *5333:C *5332:A2 0
5 *5333:C *5333:A 0
6 *5333:C *5333:B 1.54556e-05
7 *5333:C *5382:A1 0
8 *5333:C *5735:CLK 0
*RES
1 *5331:Y *5333:C 44.7792 
*END

*D_NET *510 0.000482605
*CONN
*I *5333:A I *D sg13g2_nor3_1
*I *5332:Y O *D sg13g2_a21oi_1
*CAP
1 *5333:A 0.000241303
2 *5332:Y 0.000241303
3 *5333:A *5333:B 0
4 *5333:A *5735:CLK 0
5 *5333:C *5333:A 0
6 *5993:A *5333:A 0
*RES
1 *5332:Y *5333:A 42.6677 
*END

*D_NET *511 0.000290378
*CONN
*I *5335:A2 I *D sg13g2_a21oi_1
*I *5334:Y O *D sg13g2_nor2_1
*CAP
1 *5335:A2 0.000137461
2 *5334:Y 0.000137461
3 *5335:A2 *5334:B 0
4 *5335:A2 *1035:22 0
5 *5335:A1 *5335:A2 1.54556e-05
*RES
1 *5334:Y *5335:A2 41.6274 
*END

*D_NET *512 0.000654995
*CONN
*I *5337:A I *D sg13g2_and2_1
*I *5336:X O *D sg13g2_mux2_1
*CAP
1 *5337:A 0.000271654
2 *5336:X 0.000271654
3 *5337:A *5336:A0 0
4 *5337:A *5336:A1 0.000111688
5 *5337:A *5337:B 0
6 *5337:A *673:18 0
7 *5337:A *673:20 0
8 *5337:A *1057:10 0
9 *5968:A *5337:A 0
*RES
1 *5336:X *5337:A 42.781 
*END

*D_NET *513 0.00152333
*CONN
*I *5339:A I *D sg13g2_and2_1
*I *5338:X O *D sg13g2_mux2_1
*CAP
1 *5339:A 0.000432625
2 *5338:X 0.000432625
3 *5339:A *5338:A0 0
4 *5339:A *715:108 0.000658084
5 *79:8 *5339:A 0
*RES
1 *5338:X *5339:A 44.8616 
*END

*D_NET *514 0.000524759
*CONN
*I *5341:A I *D sg13g2_and2_1
*I *5340:X O *D sg13g2_mux2_1
*CAP
1 *5341:A 0.000222225
2 *5340:X 0.000222225
3 *5341:A *5340:A1 0
4 *5341:A *5341:B 0
5 *5341:A *687:56 8.03089e-05
6 *5341:A *690:39 0
7 *5341:A *712:8 0
8 *5341:A *1032:17 0
9 *5693:D *5341:A 0
*RES
1 *5340:X *5341:A 42.1836 
*END

*D_NET *515 0.00103064
*CONN
*I *5343:A I *D sg13g2_and2_1
*I *5342:X O *D sg13g2_mux2_1
*CAP
1 *5343:A 0.0002972
2 *5342:X 0.0002972
3 *5343:A *5345:B 0
4 *5343:A *5643:CLK 0
5 *5343:A *1033:57 0.000436242
*RES
1 *5342:X *5343:A 43.2651 
*END

*D_NET *516 0.000487233
*CONN
*I *5345:A I *D sg13g2_and2_1
*I *5344:X O *D sg13g2_mux2_1
*CAP
1 *5345:A 0.000203478
2 *5344:X 0.000203478
3 *5345:A *5344:A1 0
4 *5345:A *5345:B 8.02763e-05
5 *5345:A *5976:A 0
6 *5697:D *5345:A 0
*RES
1 *5344:X *5345:A 42.3072 
*END

*D_NET *517 0.000840925
*CONN
*I *5347:A I *D sg13g2_and2_1
*I *5346:X O *D sg13g2_mux2_1
*CAP
1 *5347:A 0.000278441
2 *5346:X 0.000278441
3 *5347:A *5346:A1 0
4 *5347:A *6027:A 0
5 *5347:A *711:57 0.000203674
6 *5347:A *711:65 8.03692e-05
7 *5347:A *1030:104 0
*RES
1 *5346:X *5347:A 42.7501 
*END

*D_NET *518 0.000766583
*CONN
*I *5349:A I *D sg13g2_and2_1
*I *5348:X O *D sg13g2_mux2_1
*CAP
1 *5349:A 0.000302922
2 *5348:X 0.000302922
3 *5349:A *714:39 8.03692e-05
4 *5349:A *714:45 8.03692e-05
*RES
1 *5348:X *5349:A 43.7904 
*END

*D_NET *519 0.00053012
*CONN
*I *5351:A I *D sg13g2_and2_1
*I *5350:X O *D sg13g2_mux2_1
*CAP
1 *5351:A 0
2 *5350:X 0.00012844
3 *519:10 0.00012844
4 *519:10 *5703:RESET_B 0.000144993
5 *519:10 *711:81 0.000128247
6 *519:10 *1086:25 0
*RES
1 *5350:X *519:10 41.5656 
2 *519:10 *5351:A 40 
*END

*D_NET *520 0.000431779
*CONN
*I *5353:A I *D sg13g2_and2_1
*I *5352:X O *D sg13g2_mux2_1
*CAP
1 *5353:A 0.000208189
2 *5352:X 0.000208189
3 *5353:A *5352:A1 0
4 *5353:A *6014:A 1.54008e-05
5 *5353:A *947:10 0
6 *5353:A *1023:127 0
*RES
1 *5352:X *5353:A 42.1836 
*END

*D_NET *521 0.00061064
*CONN
*I *5355:A I *D sg13g2_and2_1
*I *5354:X O *D sg13g2_mux2_1
*CAP
1 *5355:A 0.000176436
2 *5354:X 0.000176436
3 *5355:A *5337:B 8.03692e-05
4 *5355:A *663:21 0
5 *5355:A *1026:122 0.000177399
*RES
1 *5354:X *5355:A 42.0497 
*END

*D_NET *522 0.000644071
*CONN
*I *5357:A I *D sg13g2_and2_1
*I *5356:X O *D sg13g2_mux2_1
*CAP
1 *5357:A 0.000184717
2 *5356:X 0.000184717
3 *5357:A *5356:S 0
4 *5357:A *5357:B 0.000274638
*RES
1 *5356:X *5357:A 42.1836 
*END

*D_NET *523 0.000686486
*CONN
*I *5359:A I *D sg13g2_and2_1
*I *5358:X O *D sg13g2_mux2_1
*CAP
1 *5359:A 0.000343243
2 *5358:X 0.000343243
3 *5359:A *5392:A1 0
4 *5359:A *712:37 0
5 *5359:A *1032:66 0
*RES
1 *5358:X *5359:A 43.2651 
*END

*D_NET *524 0.000874353
*CONN
*I *5361:A I *D sg13g2_and2_1
*I *5360:X O *D sg13g2_mux2_1
*CAP
1 *5361:A 0.00016267
2 *5360:X 0.00016267
3 *5361:A *5361:B 0.00024205
4 *5361:A *5399:B 0.000306963
5 *5361:A *617:26 0
*RES
1 *5360:X *5361:A 42.0497 
*END

*D_NET *525 0.000577648
*CONN
*I *5363:A I *D sg13g2_and2_1
*I *5362:X O *D sg13g2_mux2_1
*CAP
1 *5363:A 0.000248669
2 *5362:X 0.000248669
3 *5363:A *711:20 8.03089e-05
4 *5363:A *1061:34 0
5 *5715:D *5363:A 0
*RES
1 *5362:X *5363:A 42.3999 
*END

*D_NET *526 0.000399305
*CONN
*I *5365:A I *D sg13g2_and2_1
*I *5364:X O *D sg13g2_mux2_1
*CAP
1 *5365:A 0.000127077
2 *5364:X 0.000127077
3 *5365:A *5364:A0 0
4 *5365:A *714:49 6.47823e-05
5 *5365:A *714:55 8.03692e-05
6 *5365:A *1062:18 0
*RES
1 *5364:X *5365:A 41.5656 
*END

*D_NET *527 0.000864281
*CONN
*I *5367:A I *D sg13g2_and2_1
*I *5366:X O *D sg13g2_mux2_1
*CAP
1 *5367:A 0.00030422
2 *5366:X 0.00030422
3 *5367:A *5366:A1 0
4 *5367:A *711:71 8.03091e-05
5 *5367:A *711:75 9.5485e-05
6 *5367:A *995:23 0
7 *5719:D *5367:A 8.00473e-05
*RES
1 *5366:X *5367:A 43.3784 
*END

*D_NET *528 0.000419054
*CONN
*I *5369:A I *D sg13g2_and2_1
*I *5368:X O *D sg13g2_mux2_1
*CAP
1 *5369:A 0.000136951
2 *5368:X 0.000136951
3 *5369:A *5385:B 6.49083e-05
4 *5369:A *5990:A 0
5 *5369:A *663:89 0
6 *5369:A *717:88 8.02431e-05
*RES
1 *5368:X *5369:A 41.5656 
*END

*D_NET *529 0.000574818
*CONN
*I *5371:A I *D sg13g2_and2_1
*I *5370:X O *D sg13g2_mux2_1
*CAP
1 *5371:A 0.000247254
2 *5370:X 0.000247254
3 *5371:A *5370:A1 0
4 *5371:A *5371:B 3.23965e-05
5 *5371:A *5868:A 0
6 *5371:A *718:54 4.79124e-05
7 *5723:D *5371:A 0
*RES
1 *5370:X *5371:A 42.6471 
*END

*D_NET *530 0.000614422
*CONN
*I *5373:A I *D sg13g2_and2_1
*I *5372:X O *D sg13g2_mux2_1
*CAP
1 *5373:A 0.00023457
2 *5372:X 0.00023457
3 *5373:A *5357:B 8.03692e-05
4 *5373:A *628:12 0
5 *5373:A *717:55 6.49135e-05
*RES
1 *5372:X *5373:A 42.6471 
*END

*D_NET *531 0.000646881
*CONN
*I *5375:A I *D sg13g2_and2_1
*I *5374:X O *D sg13g2_mux2_1
*CAP
1 *5375:A 0.000186121
2 *5374:X 0.000186121
3 *5375:A *712:31 0.000274638
4 *5375:A *1032:57 0
*RES
1 *5374:X *5375:A 42.1836 
*END

*D_NET *532 0.000397523
*CONN
*I *5377:A I *D sg13g2_and2_1
*I *5376:X O *D sg13g2_mux2_1
*CAP
1 *5377:A 0.000158624
2 *5376:X 0.000158624
3 *5377:A *5361:B 0
4 *5377:A *617:26 0
5 *5377:A *712:51 8.02763e-05
6 *5377:A *713:60 0
*RES
1 *5376:X *5377:A 41.6686 
*END

*D_NET *533 0.000788028
*CONN
*I *5379:A I *D sg13g2_and2_1
*I *5378:X O *D sg13g2_mux2_1
*CAP
1 *5379:A 0
2 *5378:X 0.000394014
3 *533:10 0.000394014
4 *533:10 *5379:B 0
5 *533:10 *5399:B 0
6 *533:10 *1030:84 0
7 *5731:D *533:10 0
*RES
1 *5378:X *533:10 43.6668 
2 *533:10 *5379:A 40 
*END

*D_NET *534 0.000574019
*CONN
*I *5381:A I *D sg13g2_and2_1
*I *5380:X O *D sg13g2_mux2_1
*CAP
1 *5381:A 0.000239364
2 *5380:X 0.000239364
3 *5381:A *5380:A1 7.989e-05
4 *5381:A *5381:B 1.54008e-05
5 *5381:A *978:27 0
*RES
1 *5380:X *5381:A 42.4308 
*END

*D_NET *535 0.000611668
*CONN
*I *5383:A I *D sg13g2_and2_1
*I *5382:X O *D sg13g2_mux2_1
*CAP
1 *5383:A 0.00026568
2 *5382:X 0.00026568
3 *5383:A *5382:A1 8.03091e-05
4 *5383:A *5383:B 0
5 *5383:A *970:10 0
*RES
1 *5382:X *5383:A 42.781 
*END

*D_NET *536 0.000596883
*CONN
*I *5385:A I *D sg13g2_and2_1
*I *5384:X O *D sg13g2_mux2_1
*CAP
1 *5385:A 0.000161188
2 *5384:X 0.000161188
3 *5385:A *5385:B 0.000274507
*RES
1 *5384:X *5385:A 41.8334 
*END

*D_NET *537 0.000636781
*CONN
*I *5387:A I *D sg13g2_and2_1
*I *5386:X O *D sg13g2_mux2_1
*CAP
1 *5387:A 0.000197467
2 *5386:X 0.000197467
3 *5387:A *718:62 0.000241847
*RES
1 *5386:X *5387:A 42.0497 
*END

*D_NET *538 0.000561938
*CONN
*I *5389:A I *D sg13g2_and2_1
*I *5388:X O *D sg13g2_mux2_1
*CAP
1 *5389:A 0.000280969
2 *5388:X 0.000280969
3 *5389:A *5741:RESET_B 0
4 *5389:A *717:53 0
5 *5389:A *1075:24 0
6 *5741:D *5389:A 0
7 *211:10 *5389:A 0
*RES
1 *5388:X *5389:A 42.9252 
*END

*D_NET *539 0.00172366
*CONN
*I *5391:A I *D sg13g2_and2_1
*I *5390:X O *D sg13g2_mux2_1
*CAP
1 *5391:A 0.00027141
2 *5390:X 0.000101843
3 *539:8 0.000373253
4 *5391:A *5391:B 0.000436385
5 *5391:A *5855:A 0
6 *539:8 *5391:B 0.00023464
7 *539:8 *627:17 0
8 *539:8 *712:27 0.000128662
9 *5743:D *5391:A 0.000177466
*RES
1 *5390:X *539:8 41.5862 
2 *539:8 *5391:A 42.9149 
*END

*D_NET *540 0.00034804
*CONN
*I *5393:A I *D sg13g2_and2_1
*I *5392:X O *D sg13g2_mux2_1
*CAP
1 *5393:A 0.000133931
2 *5392:X 0.000133931
3 *5393:A *5745:RESET_B 0
4 *5393:A *712:43 0
5 *5393:A *713:60 8.01773e-05
6 *5745:D *5393:A 0
*RES
1 *5392:X *5393:A 41.5656 
*END

*D_NET *541 0.000954677
*CONN
*I *5395:A I *D sg13g2_and2_1
*I *5394:X O *D sg13g2_mux2_1
*CAP
1 *5395:A 0.000188509
2 *5394:X 0.000135484
3 *541:8 0.000323994
4 *5395:A *624:10 0.00030669
5 *541:8 *993:8 0
*RES
1 *5394:X *541:8 41.5862 
2 *541:8 *5395:A 42.0497 
*END

*D_NET *542 0.000428645
*CONN
*I *5397:A I *D sg13g2_and2_1
*I *5396:X O *D sg13g2_mux2_1
*CAP
1 *5397:A 0.000214322
2 *5396:X 0.000214322
3 *5397:A *5397:B 0
4 *5397:A *5749:RESET_B 0
5 *5397:A *988:14 0
6 *5749:D *5397:A 0
*RES
1 *5396:X *5397:A 42.0497 
*END

*D_NET *543 0.000766253
*CONN
*I *5399:A I *D sg13g2_and2_1
*I *5398:X O *D sg13g2_mux2_1
*CAP
1 *5399:A 0.00026197
2 *5398:X 0.00026197
3 *5399:A *5398:A1 0
4 *5399:A *5399:B 0.000242313
5 *5751:D *5399:A 0
*RES
1 *5398:X *5399:A 43.2445 
*END

*D_NET *544 0.000540129
*CONN
*I *5401:A I *D sg13g2_nand2_1
*I *5400:Y O *D sg13g2_nand2b_1
*CAP
1 *5401:A 0.000270065
2 *5400:Y 0.000270065
3 *5401:A *5400:A_N 0
4 *5401:A *5402:B 0
5 *5401:A *605:114 0
6 *5401:A *700:16 0
7 *291:12 *5401:A 0
*RES
1 *5400:Y *5401:A 42.6986 
*END

*D_NET *545 0.000414269
*CONN
*I *5402:B I *D sg13g2_nand3_1
*I *5401:Y O *D sg13g2_nand2_1
*CAP
1 *5402:B 0.000143015
2 *5401:Y 0.000143015
3 *5402:B *5401:B 4.78688e-05
4 *5402:B *5753:RESET_B 0
5 *5014:A2 *5402:B 8.03692e-05
6 *5401:A *5402:B 0
*RES
1 *5401:Y *5402:B 41.9467 
*END

*D_NET *546 0.00037384
*CONN
*I *5404:A2 I *D sg13g2_a21oi_1
*I *5403:Y O *D sg13g2_nand2b_1
*CAP
1 *5404:A2 0
2 *5403:Y 0.00018692
3 *546:10 0.00018692
4 *546:10 *5403:A_N 0
5 *546:10 *665:22 0
*RES
1 *5403:Y *546:10 42.1218 
2 *546:10 *5404:A2 40 
*END

*D_NET *547 0.000735425
*CONN
*I *5418:B I *D sg13g2_nor4_1
*I *5421:A2 I *D sg13g2_a21oi_1
*I *5405:X O *D sg13g2_and2_1
*CAP
1 *5418:B 8.91919e-05
2 *5421:A2 0.000201451
3 *5405:X 2.92804e-05
4 *547:6 0.000319923
5 *5418:B *5418:A 1.54008e-05
6 *5418:B *5437:A 0
7 *5418:B *1009:8 3.23417e-05
8 *5418:B *1009:24 4.78356e-05
9 *5421:A2 *5437:A 0
10 *5421:A2 *1009:24 0
11 *547:6 *5418:A 0
12 *547:6 *5437:A 0
*RES
1 *5405:X *547:6 20.3502 
2 *547:6 *5421:A2 21.8334 
3 *547:6 *5418:B 21.133 
*END

*D_NET *548 0.00120579
*CONN
*I *5420:C I *D sg13g2_nor4_1
*I *5406:X O *D sg13g2_and3_1
*CAP
1 *5420:C 5.12829e-05
2 *5406:X 0.000221332
3 *548:8 0.000272615
4 *5420:C *5420:A 0
5 *5420:C *719:43 0
6 *548:8 *559:8 0.000660556
7 *548:8 *676:32 0
*RES
1 *5406:X *548:8 43.3166 
2 *548:8 *5420:C 40.4274 
*END

*D_NET *549 0.00209183
*CONN
*I *5422:B I *D sg13g2_nor4_1
*I *5410:B I *D sg13g2_nand3b_1
*I *5407:X O *D sg13g2_and4_1
*CAP
1 *5422:B 0
2 *5410:B 0.000346616
3 *5407:X 0
4 *549:21 8.97271e-05
5 *549:4 0.000436343
6 *5410:B *5422:A 0.000144833
7 *5410:B *5437:C 0
8 *5410:B *5437:A 0.000501173
9 *5410:B *678:99 0
10 *5410:B *693:8 0
11 *549:21 *5422:A 0.000112601
12 *549:21 *5437:A 9.72391e-05
13 *549:21 *1010:12 0.000181608
14 *549:21 *1126:18 0.000181695
*RES
1 *5407:X *549:4 20 
2 *549:4 *5410:B 23.9449 
3 *549:4 *549:21 41.5965 
4 *549:21 *5422:B 20 
*END

*D_NET *550 0.00267856
*CONN
*I *5960:A I *D sg13g2_buf_1
*I *5408:Y O *D sg13g2_nand4_1
*CAP
1 *5960:A 0.000197721
2 *5408:Y 0.000836417
3 *550:10 0.00103414
4 *5960:A *5763:CLK 0
5 *550:10 *5437:A 0
6 *550:10 *678:99 0.000610281
7 *550:10 *693:14 0
8 *69:39 *550:10 0
*RES
1 *5408:Y *550:10 49.3524 
2 *550:10 *5960:A 41.8334 
*END

*D_NET *551 0.0082946
*CONN
*I *5439:B1 I *D sg13g2_a21oi_1
*I *5426:A I *D sg13g2_nand2_1
*I *5428:A1 I *D sg13g2_a221oi_1
*I *5951:A I *D sg13g2_buf_1
*I *5409:Y O *D sg13g2_nor3_1
*CAP
1 *5439:B1 0.000267073
2 *5426:A 0.000190709
3 *5428:A1 0.000117145
4 *5951:A 0
5 *5409:Y 0.00160733
6 *551:32 0.000909301
7 *551:30 0.000868519
8 *551:28 0.0013521
9 *551:10 0.000255224
10 *5426:A *5427:A 0.000274381
11 *5426:A *5427:C 0.000242039
12 *5428:A1 *693:24 0.000399681
13 *551:10 *680:32 0
14 *551:10 *680:71 0.000242341
15 *551:10 *680:79 0
16 *551:10 *1027:64 0.000242341
17 *551:28 *5424:A 0
18 *551:28 *5424:D 0
19 *551:28 *5434:A2 8.00842e-05
20 *551:28 *5434:B1 0
21 *551:28 *5771:RESET_B 0
22 *551:28 *5771:CLK 0
23 *551:28 *651:14 0
24 *551:28 *714:19 0
25 *551:28 *714:27 0
26 *551:28 *719:43 0
27 *551:28 *1011:25 0.000793271
28 *551:32 *693:24 0.000453057
29 *5771:D *551:28 0
30 *69:39 *551:28 0
*RES
1 *5409:Y *551:10 42.9561 
2 *551:10 *5951:A 40 
3 *5409:Y *551:28 34.4612 
4 *551:28 *551:30 20 
5 *551:30 *551:32 7.519 
6 *551:32 *5428:A1 41.8334 
7 *551:32 *5426:A 42.369 
8 *551:30 *5439:B1 42.8222 
*END

*D_NET *552 0.00970862
*CONN
*I *5487:A I *D sg13g2_and4_1
*I *5433:C I *D sg13g2_or3_1
*I *5432:A2 I *D sg13g2_o21ai_1
*I *5430:A I *D sg13g2_nand2_1
*I *5441:A1 I *D sg13g2_a22oi_1
*I *5410:Y O *D sg13g2_nand3b_1
*CAP
1 *5487:A 0.000288918
2 *5433:C 3.04198e-05
3 *5432:A2 3.02592e-05
4 *5430:A 0.000518543
5 *5441:A1 0
6 *5410:Y 0.000706699
7 *552:27 0.000616593
8 *552:25 0.000653517
9 *552:14 0.000592526
10 *552:12 0.00103284
11 *5430:A *5431:A2 0
12 *5430:A *556:8 0.000274583
13 *5430:A *693:41 0
14 *5430:A *1004:116 0.000112108
15 *5430:A *1121:25 0
16 *5430:A *1121:33 0
17 *5432:A2 *5432:B1 4.77425e-05
18 *5432:A2 *1121:40 1.54008e-05
19 *5432:A2 *1121:51 4.77425e-05
20 *5433:C *719:43 4.77425e-05
21 *5487:A *5439:A2 5.33604e-05
22 *5487:A *5487:B 0.000112651
23 *5487:A *556:38 0.000285836
24 *5487:A *571:10 0.000338954
25 *5487:A *650:18 0
26 *5487:A *1009:24 0.000339228
27 *552:12 *5437:B 0.000145162
28 *552:12 *5437:C 0
29 *552:12 *5437:A 0.000242313
30 *552:12 *5441:B1 0.000621047
31 *552:12 *5775:RESET_B 0
32 *552:12 *556:38 0
33 *552:12 *570:6 0.000177526
34 *552:12 *1009:24 0
35 *552:14 *5439:A2 0.000128334
36 *552:25 *5439:A2 0
37 *552:25 *556:23 0
38 *552:25 *567:8 0.000478118
39 *552:25 *1122:10 0.00127908
40 *552:25 *1122:12 0.000181192
41 *552:27 *567:8 0.000128576
42 *552:27 *1121:33 0
43 *552:27 *1122:12 0.000181608
44 *228:10 *552:25 0
*RES
1 *5410:Y *552:12 47.6941 
2 *552:12 *552:14 0.5974 
3 *552:14 *5441:A1 40 
4 *552:14 *552:25 8.5799 
5 *552:25 *552:27 1.0918 
6 *552:27 *5430:A 45.0573 
7 *552:27 *5432:A2 40.3193 
8 *552:25 *5433:C 40.3193 
9 *552:12 *5487:A 44.0994 
*END

*D_NET *553 0.00160177
*CONN
*I *5412:C I *D sg13g2_nand3_1
*I *5411:Y O *D sg13g2_nor3_1
*CAP
1 *5412:C 0.000146036
2 *5411:Y 0.00014268
3 *553:8 0.000288716
4 *5412:C *5412:B 0.000274452
5 *5412:C *5427:B 0.000274452
6 *553:8 *5425:C 0.00023775
7 *553:8 *1121:55 0.000237686
*RES
1 *5411:Y *553:8 42.0806 
2 *553:8 *5412:C 41.8334 
*END

*D_NET *554 0.00121394
*CONN
*I *5413:B I *D sg13g2_nor2_1
*I *5488:B1 I *D sg13g2_o21ai_1
*I *5412:Y O *D sg13g2_nand3_1
*CAP
1 *5413:B 0
2 *5488:B1 0.000218788
3 *5412:Y 0.000372779
4 *554:6 0.000591568
5 *5488:B1 *5415:B 0
6 *5488:B1 *5488:A1 0
7 *5488:B1 *5488:A2 1.54008e-05
8 *5488:B1 *556:8 0
9 *5488:B1 *604:10 1.54008e-05
10 *5488:B1 *649:67 0
11 *5488:B1 *676:14 0
12 *5488:B1 *693:14 0
13 *554:6 *649:67 0
14 *554:6 *693:16 0
15 *554:6 *1124:23 0
16 *219:10 *5488:B1 0
*RES
1 *5412:Y *554:6 23.5638 
2 *554:6 *5488:B1 22.4308 
3 *554:6 *5413:B 20 
*END

*D_NET *555 0.00437037
*CONN
*I *5956:A I *D sg13g2_buf_1
*I *5957:A I *D sg13g2_buf_1
*I *5414:Y O *D sg13g2_nor2b_1
*CAP
1 *5956:A 0.000644832
2 *5957:A 0
3 *5414:Y 0.000695203
4 *555:10 0.00134003
5 *5956:A *5437:A 0
6 *5956:A *605:189 0
7 *5956:A *605:269 0
8 *5956:A *719:43 0.000318373
9 *5956:A *719:54 0.00118982
10 *5956:A *1052:16 0
11 *555:10 *5761:RESET_B 0
12 *555:10 *605:189 0
13 *555:10 *700:92 0
14 *555:10 *719:43 0.00018211
15 *555:10 *735:10 0
16 *555:10 *1033:12 0
17 *555:10 *1044:18 0
18 *183:10 *555:10 0
*RES
1 *5414:Y *555:10 47.6529 
2 *555:10 *5957:A 40 
3 *555:10 *5956:A 48.858 
*END

*D_NET *556 0.00936821
*CONN
*I *5487:B I *D sg13g2_and4_1
*I *5423:B I *D sg13g2_and4_1
*I *5438:A I *D sg13g2_nand3_1
*I *5441:A2 I *D sg13g2_a22oi_1
*I *5416:A I *D sg13g2_nand2_1
*I *5415:Y O *D sg13g2_nand2b_1
*CAP
1 *5487:B 0.000229913
2 *5423:B 0.000624155
3 *5438:A 3.02592e-05
4 *5441:A2 0
5 *5416:A 6.61279e-05
6 *5415:Y 0.00100013
7 *556:38 0.000929138
8 *556:27 0.000454103
9 *556:23 0.0012122
10 *556:12 0.000910073
11 *556:8 0.00104117
12 *5416:A *5416:B 0
13 *5416:A *719:43 0
14 *5416:A *1121:25 0.000112651
15 *5423:B *5423:A 8.01118e-05
16 *5423:B *5423:C 4.77702e-05
17 *5423:B *5423:D 0
18 *5423:B *714:104 0
19 *5423:B *1014:8 0
20 *5423:B *1014:29 0.000106064
21 *5423:B *1130:10 0.000182525
22 *5438:A *5879:A 4.77425e-05
23 *5438:A *5959:A 1.54008e-05
24 *5438:A *1014:8 4.77425e-05
25 *5487:B *5487:C 1.54556e-05
26 *5487:B *571:10 0
27 *5487:B *714:80 0
28 *5487:B *714:95 0
29 *556:8 *5757:RESET_B 0
30 *556:8 *676:8 0
31 *556:8 *676:14 0
32 *556:8 *693:14 0
33 *556:8 *693:16 0
34 *556:8 *693:41 0
35 *556:8 *719:43 0
36 *556:8 *1121:25 0.000209714
37 *556:8 *1121:40 3.23965e-05
38 *556:8 *1121:51 0.000323185
39 *556:12 *557:12 0.00012816
40 *556:23 *5434:B1 0.000608769
41 *556:23 *5439:A2 0
42 *556:23 *557:12 5.31192e-05
43 *556:23 *567:8 0
44 *556:23 *571:10 0
45 *556:23 *714:80 0
46 *556:23 *1121:33 0
47 *556:27 *573:8 0
48 *556:27 *1009:24 0
49 *556:38 *571:10 0
50 *556:38 *1014:29 7.51285e-05
51 *5430:A *556:8 0.000274583
52 *5487:A *5487:B 0.000112651
53 *5487:A *556:38 0.000285836
54 *5488:B1 *556:8 0
55 *5757:D *556:8 0.000111946
56 *219:10 *556:8 0
57 *552:12 *556:38 0
58 *552:25 *556:23 0
*RES
1 *5415:Y *556:8 29.3887 
2 *556:8 *556:12 20.5974 
3 *556:12 *5416:A 40.7519 
4 *556:12 *556:23 10.2382 
5 *556:23 *556:27 21.6171 
6 *556:27 *5441:A2 20 
7 *556:27 *556:38 23.1415 
8 *556:38 *5438:A 40.3193 
9 *556:38 *5423:B 47.0967 
10 *556:23 *5487:B 42.3381 
*END

*D_NET *557 0.00319335
*CONN
*I *5434:B1 I *D sg13g2_a21oi_1
*I *5431:B1 I *D sg13g2_a21oi_1
*I *5436:B1 I *D sg13g2_a21oi_1
*I *5416:Y O *D sg13g2_nand2_1
*CAP
1 *5434:B1 0.000400915
2 *5431:B1 0
3 *5436:B1 0
4 *5416:Y 0
5 *557:18 0.000209458
6 *557:12 0.000800737
7 *557:6 0.000992193
8 *5434:B1 *5434:A2 0
9 *5434:B1 *561:8 0
10 *5434:B1 *714:19 0
11 *5434:B1 *719:43 0
12 *5434:B1 *1121:12 0
13 *557:12 *5412:B 0
14 *557:12 *5431:A1 0
15 *557:12 *5435:A1 0
16 *557:12 *5435:A2 0
17 *557:12 *5436:A2 0
18 *557:12 *561:8 0
19 *557:12 *1004:116 0
20 *557:18 *5435:A2 0
21 *557:18 *649:10 0
22 *557:18 *830:10 0
23 *557:18 *1123:47 0
24 *5771:D *5434:B1 0
25 *227:8 *557:18 0
26 *551:28 *5434:B1 0
27 *556:12 *557:12 0.00012816
28 *556:23 *5434:B1 0.000608769
29 *556:23 *557:12 5.31192e-05
*RES
1 *5416:Y *557:6 40 
2 *557:6 *557:12 26.5714 
3 *557:12 *557:18 42.0806 
4 *557:18 *5436:B1 20 
5 *557:12 *5431:B1 20 
6 *557:6 *5434:B1 45.0058 
*END

*D_NET *558 0.000543998
*CONN
*I *5418:D I *D sg13g2_nor4_1
*I *5417:Y O *D sg13g2_nor2_1
*CAP
1 *5418:D 0.000216425
2 *5417:Y 0.000216425
3 *5418:D *676:59 1.54008e-05
4 *5418:D *1009:24 8.02914e-05
5 *5418:D *1126:42 0
6 *5759:D *5418:D 1.54556e-05
*RES
1 *5417:Y *5418:D 42.3793 
*END

*D_NET *559 0.00205213
*CONN
*I *5420:D I *D sg13g2_nor4_1
*I *5419:Y O *D sg13g2_a21oi_1
*CAP
1 *5420:D 0
2 *5419:Y 0.000290585
3 *559:8 0.000290585
4 *559:8 *5406:C 0.000287672
5 *559:8 *5420:B 0.000288087
6 *559:8 *676:36 0
7 *559:8 *936:8 0
8 *559:8 *1127:25 0.00023464
9 *548:8 *559:8 0.000660556
*RES
1 *5419:Y *559:8 44.7998 
2 *559:8 *5420:D 40 
*END

*D_NET *560 0.000884052
*CONN
*I *5422:D I *D sg13g2_nor4_1
*I *5421:Y O *D sg13g2_a21oi_1
*CAP
1 *5422:D 0.000305532
2 *5421:Y 0.000305532
3 *5422:D *5422:A 0
4 *5422:D *5437:C 4.78028e-05
5 *5422:D *5437:A 0.000144817
6 *5422:D *1009:24 0
7 *222:10 *5422:D 8.03692e-05
*RES
1 *5421:Y *5422:D 43.2754 
*END

*D_NET *561 0.00213269
*CONN
*I *5431:A1 I *D sg13g2_a21oi_1
*I *5435:A2 I *D sg13g2_o21ai_1
*I *5424:X O *D sg13g2_or4_1
*CAP
1 *5431:A1 5.62282e-05
2 *5435:A2 0.000288205
3 *5424:X 0.000285332
4 *561:8 0.000629765
5 *5431:A1 *5431:A2 0
6 *5431:A1 *693:41 0
7 *5435:A2 *5435:A1 1.54556e-05
8 *5435:A2 *5436:A1 0
9 *5435:A2 *5436:A2 0
10 *5435:A2 *1123:47 1.54556e-05
11 *561:8 *693:41 0.000340704
12 *561:8 *830:10 0
13 *561:8 *1004:116 0.000501546
14 *561:8 *1121:12 0
15 *5434:B1 *561:8 0
16 *557:12 *5431:A1 0
17 *557:12 *5435:A2 0
18 *557:12 *561:8 0
19 *557:18 *5435:A2 0
*RES
1 *5424:X *561:8 44.3054 
2 *561:8 *5435:A2 42.7398 
3 *561:8 *5431:A1 40.5356 
*END

*D_NET *562 0.00108414
*CONN
*I *5426:B I *D sg13g2_nand2_1
*I *5425:Y O *D sg13g2_nor3_1
*CAP
1 *5426:B 5.59339e-05
2 *5425:Y 0.000212156
3 *562:8 0.00026809
4 *5426:B *563:8 4.77425e-05
5 *562:8 *5425:B 0
6 *562:8 *5427:A 0.000265904
7 *562:8 *1122:27 0
8 *562:8 *1122:29 0
9 *562:8 *1123:12 0.000234311
*RES
1 *5425:Y *562:8 42.3278 
2 *562:8 *5426:B 40.5356 
*END

*D_NET *563 0.00238881
*CONN
*I *5436:A1 I *D sg13g2_a21oi_1
*I *5428:B1 I *D sg13g2_a221oi_1
*I *5426:Y O *D sg13g2_nand2_1
*CAP
1 *5436:A1 0.000412098
2 *5428:B1 0.000388682
3 *5426:Y 0.000241001
4 *563:8 0.00104178
5 *5428:B1 *5411:A 4.77425e-05
6 *5428:B1 *5411:B 0
7 *5428:B1 *5411:C 0
8 *5428:B1 *5425:B 0
9 *5428:B1 *5428:B2 0
10 *5428:B1 *5428:A2 0
11 *5428:B1 *699:16 0
12 *5428:B1 *1123:8 0
13 *5436:A1 *5435:A1 0
14 *5436:A1 *5436:A2 0.000209763
15 *5436:A1 *649:25 0
16 *5436:A1 *699:16 0
17 *5436:A1 *1123:8 0
18 *5436:A1 *1123:47 0
19 *563:8 *5411:B 0
20 *563:8 *5411:C 0
21 *563:8 *5412:B 0
22 *563:8 *5427:B 0
23 *5426:B *563:8 4.77425e-05
24 *5435:A2 *5436:A1 0
*RES
1 *5426:Y *563:8 22.7707 
2 *563:8 *5428:B1 23.914 
3 *563:8 *5436:A1 24.429 
*END

*D_NET *564 0.000210519
*CONN
*I *5428:A2 I *D sg13g2_a221oi_1
*I *5427:Y O *D sg13g2_nor4_1
*CAP
1 *5428:A2 0.000105259
2 *5427:Y 0.000105259
3 *5428:A2 *5411:C 0
4 *5428:A2 *1124:23 0
5 *5428:B1 *5428:A2 0
*RES
1 *5427:Y *5428:A2 41.1845 
*END

*D_NET *565 0.00134632
*CONN
*I *5429:B I *D sg13g2_nor2_1
*I *5428:Y O *D sg13g2_a221oi_1
*CAP
1 *5429:B 7.14919e-05
2 *5428:Y 0.000601668
3 *565:8 0.00067316
4 *5429:B *720:12 0
5 *565:8 *693:24 0
*RES
1 *5428:Y *565:8 46.5302 
2 *565:8 *5429:B 40.7519 
*END

*D_NET *566 0.000473571
*CONN
*I *5431:A2 I *D sg13g2_a21oi_1
*I *5430:Y O *D sg13g2_nand2_1
*CAP
1 *5431:A2 0.000236786
2 *5430:Y 0.000236786
3 *5431:A2 *830:10 0
4 *5431:A2 *1004:116 0
5 *5430:A *5431:A2 0
6 *5431:A1 *5431:A2 0
*RES
1 *5430:Y *5431:A2 43.1724 
*END

*D_NET *567 0.00114113
*CONN
*I *5434:A1 I *D sg13g2_a21oi_1
*I *5432:Y O *D sg13g2_o21ai_1
*CAP
1 *5434:A1 0
2 *5432:Y 0.00014965
3 *567:8 0.00014965
4 *567:8 *1121:33 0.000235141
5 *552:25 *567:8 0.000478118
6 *552:27 *567:8 0.000128576
7 *556:23 *567:8 0
*RES
1 *5432:Y *567:8 42.8222 
2 *567:8 *5434:A1 40 
*END

*D_NET *568 0.000422749
*CONN
*I *5434:A2 I *D sg13g2_a21oi_1
*I *5433:X O *D sg13g2_or3_1
*CAP
1 *5434:A2 0.000171332
2 *5433:X 0.000171332
3 *5434:B1 *5434:A2 0
4 *5771:D *5434:A2 0
5 *551:28 *5434:A2 8.00842e-05
*RES
1 *5433:X *5434:A2 41.8746 
*END

*D_NET *569 0.000480655
*CONN
*I *5436:A2 I *D sg13g2_a21oi_1
*I *5435:Y O *D sg13g2_o21ai_1
*CAP
1 *5436:A2 0.000135446
2 *5435:Y 0.000135446
3 *5435:A2 *5436:A2 0
4 *5436:A1 *5436:A2 0.000209763
5 *557:12 *5436:A2 0
*RES
1 *5435:Y *5436:A2 41.4008 
*END

*D_NET *570 0.00235956
*CONN
*I *5441:B1 I *D sg13g2_a22oi_1
*I *5439:A1 I *D sg13g2_a21oi_1
*I *5437:Y O *D sg13g2_nand3_1
*CAP
1 *5441:B1 0.000399122
2 *5439:A1 0
3 *5437:Y 0.000119741
4 *570:12 0.000221527
5 *570:6 0.00074039
6 *5441:B1 *5439:A2 0
7 *5441:B1 *1122:10 0
8 *5775:D *5441:B1 8.02102e-05
9 *228:10 *570:12 0
10 *552:12 *5441:B1 0.000621047
11 *552:12 *570:6 0.000177526
*RES
1 *5437:Y *570:6 21.4008 
2 *570:6 *570:12 42.3278 
3 *570:12 *5439:A1 20 
4 *570:6 *5441:B1 24.5629 
*END

*D_NET *571 0.0025877
*CONN
*I *5441:B2 I *D sg13g2_a22oi_1
*I *5439:A2 I *D sg13g2_a21oi_1
*I *5438:Y O *D sg13g2_nand3_1
*CAP
1 *5441:B2 0
2 *5439:A2 0.00070298
3 *5438:Y 0.000292979
4 *571:10 0.00099596
5 *5439:A2 *1122:10 0
6 *571:10 *1014:29 7.51285e-05
7 *5441:B1 *5439:A2 0
8 *5487:A *5439:A2 5.33604e-05
9 *5487:A *571:10 0.000338954
10 *5487:B *571:10 0
11 *5775:D *5439:A2 0
12 *69:39 *5439:A2 0
13 *228:10 *5439:A2 0
14 *552:14 *5439:A2 0.000128334
15 *552:25 *5439:A2 0
16 *556:23 *5439:A2 0
17 *556:23 *571:10 0
18 *556:38 *571:10 0
*RES
1 *5438:Y *571:10 43.3887 
2 *571:10 *5439:A2 47.0349 
3 *571:10 *5441:B2 40 
*END

*D_NET *572 0.00187769
*CONN
*I *5442:A2 I *D sg13g2_a21o_1
*I *5440:Y O *D sg13g2_nor3_1
*CAP
1 *5442:A2 0.00034224
2 *5440:Y 0.000175754
3 *572:8 0.000517994
4 *5442:A2 *5442:A1 0.000241979
5 *5442:A2 *615:8 0.000599727
6 *572:8 *5777:CLK 0
7 *572:8 *615:14 0
8 *572:8 *698:41 0
9 *229:10 *5442:A2 0
*RES
1 *5440:Y *572:8 41.8334 
2 *572:8 *5442:A2 44.0067 
*END

*D_NET *573 0.0027762
*CONN
*I *5442:B1 I *D sg13g2_a21o_1
*I *5441:Y O *D sg13g2_a22oi_1
*CAP
1 *5442:B1 0.000101174
2 *5441:Y 0.00093919
3 *573:8 0.00104036
4 *5442:B1 *5777:CLK 0
5 *5442:B1 *1004:50 0
6 *573:8 *5440:C 0
7 *573:8 *5443:B 0
8 *573:8 *615:8 0.000695475
9 *573:8 *1009:24 0
10 *573:8 *1009:38 0
11 *556:27 *573:8 0
*RES
1 *5441:Y *573:8 49.6202 
2 *573:8 *5442:B1 41.0918 
*END

*D_NET *574 0.00104895
*CONN
*I *5445:C I *D sg13g2_nor4_1
*I *5443:Y O *D sg13g2_nor4_1
*CAP
1 *5445:C 6.55615e-05
2 *5443:Y 0.000193694
3 *574:10 0.000259256
4 *5445:C *5445:D 0.000112426
5 *5445:C *1009:38 4.77425e-05
6 *5445:C *1009:48 8.00842e-05
7 *574:10 *5443:D 0.000145157
8 *574:10 *5444:B 0
9 *5486:B1 *574:10 0.000145031
*RES
1 *5443:Y *574:10 42.06 
2 *574:10 *5445:C 40.7519 
*END

*D_NET *575 0.000548654
*CONN
*I *5445:D I *D sg13g2_nor4_1
*I *5444:Y O *D sg13g2_nor2_1
*CAP
1 *5445:D 0.000178072
2 *5444:Y 0.000178072
3 *5445:D *650:64 0
4 *5445:D *1009:48 0
5 *5445:C *5445:D 0.000112426
6 *5779:D *5445:D 8.00842e-05
*RES
1 *5444:Y *5445:D 41.8334 
*END

*D_NET *576 0.000569674
*CONN
*I *5448:C I *D sg13g2_nor4_1
*I *5446:Y O *D sg13g2_nor2_1
*CAP
1 *5448:C 0.000225192
2 *5446:Y 0.000225192
3 *5448:C *5446:B 0
4 *5448:C *5448:A 5.60495e-05
5 *5448:C *5448:D 4.78195e-05
6 *5448:C *5781:RESET_B 0
7 *5781:D *5448:C 1.54205e-05
*RES
1 *5446:Y *5448:C 42.2042 
*END

*D_NET *577 0.000709156
*CONN
*I *5448:D I *D sg13g2_nor4_1
*I *5447:Y O *D sg13g2_nor4_1
*CAP
1 *5448:D 5.71564e-05
2 *5447:Y 0.000273512
3 *577:10 0.000330668
4 *5448:D *5448:A 0
5 *5448:D *5448:B 0
6 *5448:D *1011:81 0
7 *577:10 *650:64 0
8 *577:10 *1011:81 0
9 *577:10 *1133:8 0
10 *5448:C *5448:D 4.78195e-05
*RES
1 *5447:Y *577:10 42.4926 
2 *577:10 *5448:D 40.5356 
*END

*D_NET *578 0.000607635
*CONN
*I *5451:C I *D sg13g2_nor4_1
*I *5449:Y O *D sg13g2_nor2_1
*CAP
1 *5451:C 4.85846e-05
2 *5449:Y 8.72799e-05
3 *578:8 0.000135864
4 *5451:C *5451:B 4.78195e-05
5 *5451:C *5876:A 0
6 *578:8 *1004:29 0
7 *578:8 *1004:44 0
8 *578:8 *1134:18 0.000288087
9 *69:20 *5451:C 0
*RES
1 *5449:Y *578:8 41.339 
2 *578:8 *5451:C 40.5356 
*END

*D_NET *579 0.00102278
*CONN
*I *5451:D I *D sg13g2_nor4_1
*I *5450:Y O *D sg13g2_nor4_1
*CAP
1 *5451:D 6.81412e-05
2 *5450:Y 0.000155328
3 *579:10 0.000223469
4 *579:10 *5448:A 0.000287672
5 *579:10 *1009:56 0.000288173
*RES
1 *5450:Y *579:10 42.0909 
2 *579:10 *5451:D 40.5356 
*END

*D_NET *580 0.000318181
*CONN
*I *5454:C I *D sg13g2_nor4_1
*I *5452:Y O *D sg13g2_nor2_1
*CAP
1 *5454:C 0
2 *5452:Y 0.000159091
3 *580:8 0.000159091
4 *580:8 *5458:B 0
5 *580:8 *581:8 0
6 *580:8 *1009:58 0
*RES
1 *5452:Y *580:8 41.339 
2 *580:8 *5454:C 40 
*END

*D_NET *581 0.000716772
*CONN
*I *5454:D I *D sg13g2_nor4_1
*I *5453:Y O *D sg13g2_nor4_1
*CAP
1 *5454:D 9.92776e-05
2 *5453:Y 0.000259108
3 *581:8 0.000358386
4 *5454:D *5454:B 0
5 *5454:D *1004:14 0
6 *5454:D *1135:8 0
7 *581:8 *5458:B 0
8 *581:8 *1004:29 0
9 *581:8 *1009:58 0
10 *581:8 *1134:18 0
11 *580:8 *581:8 0
*RES
1 *5453:Y *581:8 42.8222 
2 *581:8 *5454:D 40.9682 
*END

*D_NET *582 0.000503628
*CONN
*I *5457:C I *D sg13g2_nor4_1
*I *5455:Y O *D sg13g2_nor2_1
*CAP
1 *5457:C 0.000251814
2 *5455:Y 0.000251814
3 *5457:C *5455:A 0
4 *5457:C *5455:B 0
5 *5457:C *5459:B 0
6 *5457:C *5769:CLK 0
7 *5457:C *693:47 0
8 *5457:C *693:55 0
*RES
1 *5455:Y *5457:C 42.4617 
*END

*D_NET *583 0.00109891
*CONN
*I *5457:D I *D sg13g2_nor4_1
*I *5456:Y O *D sg13g2_nor4_1
*CAP
1 *5457:D 0.000288337
2 *5456:Y 0.000165428
3 *583:10 0.000453765
4 *5457:D *5459:B 9.62229e-05
5 *5457:D *5877:A 0
6 *5457:D *648:31 0
7 *5457:D *680:55 0
8 *5457:D *693:55 0
9 *5457:D *1011:46 0
10 *5457:D *1027:49 4.77425e-05
11 *583:10 *5459:C 0
12 *583:10 *680:55 4.74163e-05
13 *583:10 *1011:46 0
14 *583:10 *1027:34 0
*RES
1 *5456:Y *583:10 41.4111 
2 *583:10 *5457:D 42.9355 
*END

*D_NET *584 0.000789066
*CONN
*I *5460:C I *D sg13g2_nor4_1
*I *5458:Y O *D sg13g2_nor2_1
*CAP
1 *5460:C 0
2 *5458:Y 0.000273415
3 *584:10 0.000273415
4 *584:10 *5458:B 0
5 *584:10 *5789:CLK 0
6 *584:10 *699:26 0.000242236
*RES
1 *5458:Y *584:10 43.2033 
2 *584:10 *5460:C 40 
*END

*D_NET *585 0.00132878
*CONN
*I *5460:D I *D sg13g2_nor4_1
*I *5459:Y O *D sg13g2_nor4_1
*CAP
1 *5460:D 0.00029706
2 *5459:Y 0.000359601
3 *585:8 0.00065666
4 *5460:D *5460:B 0
5 *5460:D *648:31 0
6 *5460:D *699:26 0
7 *585:8 *5459:C 0
8 *585:8 *1011:46 0
9 *5789:D *5460:D 1.54556e-05
10 *234:8 *585:8 0
*RES
1 *5459:Y *585:8 44.3054 
2 *585:8 *5460:D 43.1312 
*END

*D_NET *586 0.0155296
*CONN
*I *5478:B I *D sg13g2_nor2_1
*I *5484:B I *D sg13g2_nor2_1
*I *5481:B I *D sg13g2_nor2_1
*I *5463:B I *D sg13g2_nor2_1
*I *5466:B I *D sg13g2_nor2_1
*I *5469:B I *D sg13g2_nor2_1
*I *5472:B I *D sg13g2_nor2_1
*I *5475:B I *D sg13g2_nor2_1
*I *5461:Y O *D sg13g2_nor3_1
*CAP
1 *5478:B 2.19471e-05
2 *5484:B 0.000215651
3 *5481:B 0.000498779
4 *5463:B 3.55603e-05
5 *5466:B 0.000327259
6 *5469:B 0
7 *5472:B 0
8 *5475:B 0
9 *5461:Y 0.000160109
10 *586:103 0.00145643
11 *586:95 0.000768979
12 *586:91 0.000253352
13 *586:61 0.000869297
14 *586:50 7.14007e-05
15 *586:42 0.00131045
16 *586:27 0.00157597
17 *586:16 0.00116031
18 *586:10 0.000725345
19 *5466:B *5465:B 0.000661176
20 *5478:B *5479:B 0
21 *5481:B *5481:A 0
22 *5481:B *5482:C 0.000207515
23 *5481:B *5803:CLK 0.000271906
24 *5484:B *602:8 0.000554843
25 *586:10 *5477:D 0.000287712
26 *586:10 *5915:A 0
27 *586:10 *1012:44 0.000127744
28 *586:16 *5477:B 0.000208028
29 *586:16 *678:81 0.000432993
30 *586:27 *633:24 0
31 *586:27 *678:81 0.000375518
32 *586:27 *679:81 0
33 *586:27 *1014:46 0.000304607
34 *586:42 *5473:A 0
35 *586:42 *697:25 0.00097311
36 *586:42 *1014:46 3.22862e-05
37 *586:42 *1039:10 0.000498074
38 *586:50 *764:24 0.000124824
39 *586:50 *1052:20 0.000125867
40 *586:61 *5465:B 0.000128742
41 *586:61 *697:25 0.00030539
42 *586:61 *1036:16 0.00010637
43 *586:91 *5477:D 0.000104122
44 *586:103 *5477:A 0
45 *586:103 *5479:C 0
46 *586:103 *5480:B 0
47 *586:103 *5483:A 0
48 *586:103 *5483:B 0
49 *586:103 *5485:B 0.000184807
50 *586:103 *605:229 0
51 *586:103 *678:12 0
52 *5797:D *586:27 1.54008e-05
53 *5797:D *586:42 4.77425e-05
*RES
1 *5461:Y *586:10 42.1527 
2 *586:10 *586:16 23.4505 
3 *586:16 *5475:B 20 
4 *586:16 *586:27 8.5902 
5 *586:27 *5472:B 20 
6 *586:27 *586:42 48.8065 
7 *586:42 *586:50 40.9167 
8 *586:50 *5469:B 20 
9 *586:42 *586:61 26.386 
10 *586:61 *5466:B 44.2333 
11 *586:61 *5463:B 40.3193 
12 *586:10 *586:91 42.8634 
13 *586:91 *586:95 20.1056 
14 *586:95 *586:103 26.8263 
15 *586:103 *5481:B 45.0058 
16 *586:103 *5484:B 43.0694 
17 *586:95 *5478:B 20.291 
*END

*D_NET *587 0.00131818
*CONN
*I *5464:B I *D sg13g2_nor3_1
*I *5462:Y O *D sg13g2_nor4_1
*CAP
1 *5464:B 0.000611429
2 *5462:Y 0.000611429
3 *5464:B *5464:C 1.54008e-05
4 *5464:B *5468:B 0
5 *5464:B *5470:A 0
6 *5464:B *5470:C 0
7 *5464:B *5929:A 0
8 *5464:B *591:10 7.99179e-05
9 *5464:B *698:18 0
10 *5464:B *1014:59 0
11 *5464:B *1014:72 0
12 *5464:B *1038:16 0
*RES
1 *5462:Y *5464:B 45.8916 
*END

*D_NET *588 0.000244112
*CONN
*I *5464:C I *D sg13g2_nor3_1
*I *5463:Y O *D sg13g2_nor2_1
*CAP
1 *5464:C 0.00010669
2 *5463:Y 0.00010669
3 *5464:C *701:39 0
4 *5464:C *1036:16 0
5 *5464:B *5464:C 1.54008e-05
6 *5791:D *5464:C 1.53311e-05
*RES
1 *5463:Y *5464:C 41.133 
*END

*D_NET *589 0.00055423
*CONN
*I *5467:B I *D sg13g2_nor3_1
*I *5465:Y O *D sg13g2_nor4_1
*CAP
1 *5467:B 0.000277115
2 *5465:Y 0.000277115
3 *5467:B *5465:B 0
*RES
1 *5465:Y *5467:B 43.2136 
*END

*D_NET *590 0.000604666
*CONN
*I *5467:C I *D sg13g2_nor3_1
*I *5466:Y O *D sg13g2_nor2_1
*CAP
1 *5467:C 0
2 *5466:Y 0.000211684
3 *590:12 0.000211684
4 *590:12 *5466:A 0
5 *590:12 *701:54 0.000181298
6 *237:10 *590:12 0
*RES
1 *5466:Y *590:12 42.472 
2 *590:12 *5467:C 40 
*END

*D_NET *591 0.000645394
*CONN
*I *5470:B I *D sg13g2_nor3_1
*I *5468:Y O *D sg13g2_nor4_1
*CAP
1 *5470:B 0
2 *5468:Y 0.000197176
3 *591:10 0.000197176
4 *591:10 *1014:59 7.9841e-05
5 *591:10 *1014:72 1.54008e-05
6 *5464:B *591:10 7.99179e-05
7 *238:8 *591:10 7.58826e-05
*RES
1 *5468:Y *591:10 41.8746 
2 *591:10 *5470:B 40 
*END

*D_NET *592 0.000389547
*CONN
*I *5470:C I *D sg13g2_nor3_1
*I *5469:Y O *D sg13g2_nor2_1
*CAP
1 *5470:C 0.000194773
2 *5469:Y 0.000194773
3 *5470:C *5471:B 0
4 *5470:C *698:8 0
5 *5470:C *1038:16 0
6 *5464:B *5470:C 0
*RES
1 *5469:Y *5470:C 41.751 
*END

*D_NET *593 0.000797405
*CONN
*I *5473:B I *D sg13g2_nor3_1
*I *5471:Y O *D sg13g2_nor4_1
*CAP
1 *5473:B 0.000222217
2 *5471:Y 0.000222217
3 *5473:B *5471:C 0
4 *5473:B *5471:D 1.53311e-05
5 *5473:B *679:81 0
6 *5473:B *1014:46 0.00033764
*RES
1 *5471:Y *5473:B 42.266 
*END

*D_NET *594 0.000896229
*CONN
*I *5473:C I *D sg13g2_nor3_1
*I *5472:Y O *D sg13g2_nor2_1
*CAP
1 *5473:C 0.000168831
2 *5472:Y 7.1078e-05
3 *594:8 0.000239909
4 *5473:C *679:81 0.000240502
5 *5473:C *1014:46 0
6 *5797:D *5473:C 0.000175908
*RES
1 *5472:Y *594:8 40.5974 
2 *594:8 *5473:C 41.9673 
*END

*D_NET *595 0.00202494
*CONN
*I *5476:B I *D sg13g2_nor3_1
*I *5474:Y O *D sg13g2_nor4_1
*CAP
1 *5476:B 0.000632816
2 *5474:Y 0.000632816
3 *5476:B *5476:A 0
4 *5476:B *5476:C 1.54008e-05
5 *5476:B *5799:RESET_B 0
6 *5476:B *5915:A 0.000743912
7 *5799:D *5476:B 0
*RES
1 *5474:Y *5476:B 46.8707 
*END

*D_NET *596 0.000550051
*CONN
*I *5476:C I *D sg13g2_nor3_1
*I *5475:Y O *D sg13g2_nor2_1
*CAP
1 *5476:C 2.97706e-05
2 *5475:Y 0.000237554
3 *596:8 0.000267325
4 *596:8 *5476:A 0
5 *596:8 *679:26 0
6 *5476:B *5476:C 1.54008e-05
*RES
1 *5475:Y *596:8 42.0806 
2 *596:8 *5476:C 40.3193 
*END

*D_NET *597 0.00046025
*CONN
*I *5479:B I *D sg13g2_nor3_1
*I *5477:Y O *D sg13g2_nor4_1
*CAP
1 *5479:B 0.000222424
2 *5477:Y 0.000222424
3 *5479:B *5479:C 1.54008e-05
4 *5479:B *678:12 0
5 *5478:B *5479:B 0
6 *5801:D *5479:B 0
*RES
1 *5477:Y *5479:B 42.3634 
*END

*D_NET *598 0.000226682
*CONN
*I *5479:C I *D sg13g2_nor3_1
*I *5478:Y O *D sg13g2_nor2_1
*CAP
1 *5479:C 0.000105641
2 *5478:Y 0.000105641
3 *5479:C *5479:A 0
4 *5479:B *5479:C 1.54008e-05
5 *586:103 *5479:C 0
*RES
1 *5478:Y *5479:C 41.133 
*END

*D_NET *599 0.000871979
*CONN
*I *5482:B I *D sg13g2_nor3_1
*I *5480:Y O *D sg13g2_nor4_1
*CAP
1 *5482:B 0
2 *5480:Y 0.000294525
3 *599:10 0.000294525
4 *599:10 *605:229 0
5 *599:10 *681:20 0.00028293
*RES
1 *5480:Y *599:10 43.2342 
2 *599:10 *5482:B 40 
*END

*D_NET *600 0.00112417
*CONN
*I *5482:C I *D sg13g2_nor3_1
*I *5481:Y O *D sg13g2_nor2_1
*CAP
1 *5482:C 0.000458325
2 *5481:Y 0.000458325
3 *5482:C *5481:A 0
4 *5482:C *605:229 0
5 *5482:C *694:33 0
6 *5482:C *1012:32 0
7 *5481:B *5482:C 0.000207515
*RES
1 *5481:Y *5482:C 44.6144 
*END

*D_NET *601 0.00133627
*CONN
*I *5485:B I *D sg13g2_nor3_1
*I *5483:Y O *D sg13g2_nor4_1
*CAP
1 *5485:B 0.000420534
2 *5483:Y 0.000420534
3 *5485:B *5481:A 0
4 *5485:B *5483:B 0
5 *5485:B *5485:C 0.00029653
6 *5485:B *5681:CLK 1.38607e-05
7 *5485:B *605:229 0
8 *586:103 *5485:B 0.000184807
*RES
1 *5483:Y *5485:B 44.394 
*END

*D_NET *602 0.0021006
*CONN
*I *5485:C I *D sg13g2_nor3_1
*I *5484:Y O *D sg13g2_nor2_1
*CAP
1 *5485:C 0.00020823
2 *5484:Y 0.00014209
3 *602:8 0.00035032
4 *5485:C *605:237 0
5 *5485:C *940:10 7.91362e-05
6 *602:8 *6008:A 0.000288852
7 *602:8 *1042:19 0.000180603
8 *5484:B *602:8 0.000554843
9 *5485:B *5485:C 0.00029653
*RES
1 *5484:Y *602:8 42.8222 
2 *602:8 *5485:C 42.3175 
*END

*D_NET *603 0.000643612
*CONN
*I *5487:C I *D sg13g2_and4_1
*I *5486:Y O *D sg13g2_o21ai_1
*CAP
1 *5487:C 0.000241952
2 *5486:Y 0.000241952
3 *5487:C *5959:A 0
4 *5487:C *714:80 0.000144253
5 *5487:C *1009:24 0
6 *5486:B1 *5487:C 0
7 *5487:B *5487:C 1.54556e-05
*RES
1 *5486:Y *5487:C 42.4926 
*END

*D_NET *604 0.00104054
*CONN
*I *5489:B I *D sg13g2_nor2_1
*I *5488:Y O *D sg13g2_o21ai_1
*CAP
1 *5489:B 5.55958e-05
2 *5488:Y 0.000419367
3 *604:10 0.000474963
4 *5489:B *699:16 0
5 *5489:B *1010:52 0
6 *604:10 *5488:A2 0
7 *604:10 *649:67 0
8 *604:10 *698:26 0
9 *5488:B1 *604:10 1.54008e-05
10 *245:8 *604:10 7.52158e-05
*RES
1 *5488:Y *604:10 44.0994 
2 *604:10 *5489:B 40.5356 
*END

*D_NET *605 0.05534
*CONN
*I *5847:A I *D sg13g2_buf_8
*I *5846:A I *D sg13g2_buf_8
*I *5844:A I *D sg13g2_buf_8
*I *5845:A I *D sg13g2_buf_8
*I *5843:A I *D sg13g2_buf_8
*I *5834:A I *D sg13g2_buf_8
*I *5841:A I *D sg13g2_buf_8
*I *5842:A I *D sg13g2_buf_8
*I *5837:A I *D sg13g2_buf_8
*I *5838:A I *D sg13g2_buf_8
*I *5840:A I *D sg13g2_buf_8
*I *5839:A I *D sg13g2_buf_8
*I *5849:A I *D sg13g2_buf_8
*I *5836:A I *D sg13g2_buf_8
*I *5835:A I *D sg13g2_buf_8
*I *5848:A I *D sg13g2_buf_8
*I *5833:X O *D sg13g2_buf_16
*CAP
1 *5847:A 4.93056e-05
2 *5846:A 0
3 *5844:A 0
4 *5845:A 0.000151214
5 *5843:A 0
6 *5834:A 0
7 *5841:A 0.000174766
8 *5842:A 0
9 *5837:A 0
10 *5838:A 5.17238e-05
11 *5840:A 0.000101501
12 *5839:A 0
13 *5849:A 5.86229e-05
14 *5836:A 0
15 *5835:A 0
16 *5848:A 4.67649e-05
17 *5833:X 0.000149721
18 *605:335 0.000391802
19 *605:313 0.000788206
20 *605:306 0.000716912
21 *605:302 0.000224381
22 *605:296 0.00168316
23 *605:279 0.00163096
24 *605:277 0.000209381
25 *605:273 0.000367121
26 *605:269 0.00430675
27 *605:261 0
28 *605:243 0.000318305
29 *605:237 0.00056129
30 *605:229 0.00220309
31 *605:219 0.00232217
32 *605:199 0.000557923
33 *605:197 0.00127413
34 *605:193 0.00271757
35 *605:191 0.00253819
36 *605:189 0.00434227
37 *605:184 0.00068382
38 *605:159 0.000836857
39 *605:154 0.000834583
40 *605:150 4.94502e-05
41 *605:146 0.000817483
42 *605:134 0.000313841
43 *605:129 0.000337964
44 *605:122 0.000224547
45 *605:118 0.000811659
46 *605:114 0.00398891
47 *605:76 0.00056054
48 *605:71 0.00056054
49 *605:69 6.78887e-05
50 *605:65 0.00111713
51 *605:59 0.00119926
52 *605:53 0.000590184
53 *605:33 0.000436915
54 *605:31 0.00112993
55 *605:29 0.0042197
56 *605:27 0.00386147
57 *605:25 0.00281669
58 *605:19 0.00110374
59 *605:6 0.000839655
60 *5840:A *6059:A 0
61 *5840:A *667:42 0
62 *5841:A *5681:CLK 0
63 *5845:A *5994:A 0
64 *5845:A *712:43 0
65 *5845:A *713:60 0
66 *5847:A *5855:A 0
67 *5848:A *1107:35 0
68 *5848:A *1109:29 0
69 *605:6 *700:54 0
70 *605:19 *4987:A1 0
71 *605:19 *700:52 0
72 *605:19 *700:54 0
73 *605:19 *700:92 0
74 *605:19 *719:29 0
75 *605:19 *1051:33 0
76 *605:25 *700:48 0
77 *605:25 *715:25 0
78 *605:25 *715:31 0
79 *605:29 *4986:A 0
80 *605:29 *5591:CLK 0
81 *605:29 *5860:A 0
82 *605:29 *621:8 0
83 *605:29 *632:38 0
84 *605:29 *638:29 0
85 *605:29 *715:23 0
86 *605:29 *1018:37 0
87 *605:29 *1098:10 0
88 *605:33 *5226:B 0
89 *605:33 *705:43 0
90 *605:53 *656:20 0
91 *605:59 *705:39 0
92 *605:65 *5158:B 0
93 *605:65 *5158:D 0
94 *605:65 *1095:30 0
95 *605:69 *5148:D 0
96 *605:76 *705:39 0
97 *605:76 *705:117 0
98 *605:76 *1094:62 0
99 *605:76 *1095:30 0
100 *605:114 *5400:A_N 0
101 *605:114 *5825:RESET_B 0
102 *605:114 *700:16 0
103 *605:114 *700:28 0
104 *605:114 *715:25 0
105 *605:114 *715:74 0
106 *605:114 *718:22 0
107 *605:114 *1048:36 0
108 *605:114 *1049:10 0
109 *605:114 *1054:14 0
110 *605:118 *5108:A 0
111 *605:118 *5811:RESET_B 0
112 *605:118 *642:68 0
113 *605:118 *645:10 0
114 *605:118 *667:42 0
115 *605:122 *642:68 0
116 *605:122 *667:42 0
117 *605:129 *667:42 0
118 *605:134 *4963:A 0
119 *605:134 *6059:A 0
120 *605:134 *642:68 0
121 *605:134 *667:42 0
122 *605:146 *1048:23 0
123 *605:146 *1048:36 0
124 *605:154 *609:6 0
125 *605:193 *698:35 0
126 *605:193 *1004:56 0
127 *605:197 *1004:56 0
128 *605:199 *614:10 0
129 *605:199 *680:24 0
130 *605:199 *680:32 0
131 *605:199 *1011:46 0
132 *605:199 *1011:68 0
133 *605:199 *1011:81 0
134 *605:199 *1027:18 0
135 *605:219 *678:20 0
136 *605:219 *680:106 0
137 *605:219 *1011:81 0
138 *605:219 *1027:18 0
139 *605:229 *5447:B 0
140 *605:229 *5480:B 0
141 *605:229 *5481:A 0
142 *605:229 *678:20 0
143 *605:229 *681:20 0
144 *605:229 *1012:32 0
145 *605:229 *1132:10 0
146 *605:237 *5805:RESET_B 0
147 *605:237 *606:10 0
148 *605:243 *5681:CLK 0
149 *605:243 *606:10 0
150 *605:269 *5693:CLK 0
151 *605:269 *625:19 0
152 *605:269 *625:25 0
153 *605:269 *673:93 0
154 *605:269 *719:54 0
155 *605:269 *757:8 0
156 *605:269 *1026:31 0
157 *605:269 *1026:44 0
158 *605:269 *1026:55 0
159 *605:273 *5320:B1 0
160 *605:277 *5320:B1 0
161 *605:279 *5320:A1 0
162 *605:296 *5295:B 0
163 *605:296 *5296:A1 0
164 *605:296 *5296:A2 0
165 *605:296 *5320:A1 0
166 *605:296 *5659:RESET_B 0
167 *605:296 *5659:CLK 0
168 *605:296 *5661:CLK 0
169 *605:296 *5677:RESET_B 0
170 *605:296 *1026:80 0
171 *605:302 *5661:CLK 0
172 *605:302 *616:8 0
173 *605:306 *5661:CLK 0
174 *605:313 *712:71 0
175 *605:313 *764:16 0
176 *605:335 *5693:CLK 0
177 *605:335 *627:17 0
178 *605:335 *757:8 0
179 *4987:A2 *605:19 0
180 *5018:A2 *605:114 0
181 *5160:D *605:65 0
182 *5216:A *605:53 0
183 *5221:A *605:53 0
184 *5321:A *605:279 0
185 *5321:A *605:296 0
186 *5321:C *605:296 0
187 *5324:C *605:306 0
188 *5401:A *605:114 0
189 *5482:C *605:229 0
190 *5485:B *605:229 0
191 *5485:C *605:237 0
192 *5613:D *605:65 0
193 *5677:D *605:296 0
194 *5677:D *605:302 0
195 *5805:D *605:237 0
196 *5825:D *605:114 0
197 *5956:A *605:189 0
198 *5956:A *605:269 0
199 *5988:A *605:273 0
200 *5988:A *605:277 0
201 *5988:A *605:279 0
202 *79:8 *605:154 0
203 *135:12 *605:29 0
204 *183:10 *605:189 0
205 *247:8 *605:129 0
206 *247:8 *605:134 0
207 *260:14 *605:29 0
208 *266:66 *605:114 0
209 *295:10 *605:29 0
210 *298:10 *605:189 0
211 *298:10 *605:269 0
212 *348:22 *605:76 0
213 *348:55 *605:53 0
214 *385:18 *605:29 0
215 *385:29 *605:29 0
216 *385:29 *605:31 0
217 *385:29 *605:33 0
218 *388:8 *605:65 0
219 *410:12 *605:53 0
220 *410:20 *605:33 0
221 *410:20 *605:53 0
222 *421:47 *5849:A 0
223 *430:12 *605:53 0
224 *486:10 *605:296 0
225 *555:10 *605:189 0
226 *586:103 *605:229 0
227 *599:10 *605:229 0
*RES
1 *5833:X *605:6 20.9682 
2 *605:6 *605:19 48.7494 
3 *605:19 *605:25 42.9149 
4 *605:25 *605:27 20 
5 *605:27 *605:29 37.4302 
6 *605:29 *605:31 2.8222 
7 *605:31 *605:33 4.3054 
8 *605:33 *5848:A 40.5356 
9 *605:31 *605:53 43.7595 
10 *605:53 *605:59 41.6171 
11 *605:59 *605:65 30.3401 
12 *605:65 *605:69 0.857475 
13 *605:69 *605:71 20 
14 *605:71 *605:76 6.283 
15 *605:76 *5835:A 40 
16 *605:69 *5836:A 20 
17 *605:29 *5849:A 40.5356 
18 *605:25 *605:114 42.6806 
19 *605:114 *605:118 25.3614 
20 *605:118 *605:122 0.9682 
21 *605:122 *5839:A 20 
22 *605:122 *605:129 1.1845 
23 *605:129 *605:134 2.0497 
24 *605:134 *5840:A 20.9682 
25 *605:114 *605:146 8.755 
26 *605:146 *605:150 20 
27 *605:150 *605:154 20.5356 
28 *605:154 *605:159 8.2606 
29 *605:159 *5838:A 40.5356 
30 *605:150 *5837:A 20 
31 *5833:X *605:184 40.5356 
32 *605:184 *605:189 6.5302 
33 *605:189 *605:191 20 
34 *605:191 *605:193 32.548 
35 *605:193 *605:197 22.266 
36 *605:197 *605:199 6.5302 
37 *605:199 *5842:A 40 
38 *605:197 *605:219 45.5311 
39 *605:219 *605:229 37.1289 
40 *605:229 *605:237 43.4505 
41 *605:237 *605:243 1.5347 
42 *605:243 *5841:A 21.9364 
43 *605:243 *5834:A 20 
44 *605:193 *605:261 40 
45 *605:261 *5843:A 20 
46 *605:189 *605:269 40.1494 
47 *605:269 *605:273 22.4823 
48 *605:273 *605:277 1.1845 
49 *605:277 *605:279 0.3258 
50 *605:279 *605:296 15.5892 
51 *605:296 *605:302 1.5038 
52 *605:302 *605:306 20.7519 
53 *605:306 *605:313 25.7886 
54 *605:313 *5845:A 21.1845 
55 *605:302 *5844:A 20 
56 *605:277 *5846:A 20 
57 *605:269 *605:335 4.3054 
58 *605:335 *5847:A 40.5356 
*END

*D_NET *606 0.00445588
*CONN
*I *5850:A I *D sg13g2_buf_16
*I *5861:A I *D sg13g2_buf_16
*I *5834:X O *D sg13g2_buf_8
*CAP
1 *5850:A 0.000326558
2 *5861:A 0
3 *5834:X 0.000665986
4 *606:14 0.00109189
5 *606:10 0.00208443
6 *5850:A *5631:RESET_B 0
7 *5850:A *622:12 0
8 *5850:A *695:18 0
9 *5850:A *919:8 0
10 *606:10 *5484:A 7.90521e-05
11 *606:10 *5805:RESET_B 0
12 *606:10 *893:12 0.000207965
13 *606:10 *1022:18 0
14 *606:14 *5253:A 0
15 *606:14 *5253:B 0
16 *606:14 *1022:18 0
17 *606:14 *1041:17 0
18 *605:237 *606:10 0
19 *605:243 *606:10 0
*RES
1 *5834:X *606:10 46.4478 
2 *606:10 *606:14 30.918 
3 *606:14 *5861:A 20 
4 *606:10 *5850:A 43.296 
*END

*D_NET *607 0.00424559
*CONN
*I *5862:A I *D sg13g2_buf_16
*I *5863:A I *D sg13g2_buf_16
*I *5835:X O *D sg13g2_buf_8
*CAP
1 *5862:A 0.000702261
2 *5863:A 0
3 *5835:X 0.00180829
4 *607:8 0.00110603
5 *5862:A *5583:RESET_B 0
6 *5862:A *1007:81 0
7 *607:8 *5145:A1 0.000144678
8 *607:8 *1093:8 0
9 *5143:A *607:8 0
10 *5145:A2 *607:8 0
11 *5145:B1 *607:8 0.00027465
12 *5575:D *607:8 0
13 *5583:D *5862:A 0
14 *348:32 *5862:A 0
15 *348:32 *607:8 0.000209681
16 *374:31 *607:8 0
*RES
1 *5835:X *607:8 31.9789 
2 *607:8 *5863:A 20 
3 *5835:X *5862:A 47.4984 
*END

*D_NET *608 0.00417822
*CONN
*I *5864:A I *D sg13g2_buf_16
*I *5865:A I *D sg13g2_buf_16
*I *5836:X O *D sg13g2_buf_8
*CAP
1 *5864:A 0
2 *5865:A 0.000439856
3 *5836:X 0.00101857
4 *608:23 0.00018769
5 *608:6 0.00164612
6 *5865:A *705:117 0
7 *5865:A *1007:46 0
8 *5865:A *1091:34 0.000436615
9 *608:6 *4992:D 4.78028e-05
10 *608:6 *5158:D 0
11 *608:6 *705:117 0
12 *608:6 *1091:34 0
13 *608:6 *1091:42 0.000144872
14 *608:6 *1093:101 0
15 *608:23 *5054:A 0
16 *608:23 *705:117 8.0216e-05
17 *608:23 *1007:52 0.000128663
18 *608:23 *1119:14 4.78192e-05
19 *5573:D *5865:A 0
20 *126:8 *608:23 0
21 *348:14 *608:23 0
22 *369:10 *608:23 0
*RES
1 *5836:X *608:6 29.3071 
2 *608:6 *5865:A 24.7792 
3 *608:6 *608:23 42.1218 
4 *608:23 *5864:A 20 
*END

*D_NET *609 0.00313557
*CONN
*I *5867:A I *D sg13g2_buf_16
*I *5866:A I *D sg13g2_buf_16
*I *5837:X O *D sg13g2_buf_8
*CAP
1 *5867:A 0
2 *5866:A 0.000460416
3 *5837:X 0.000502777
4 *609:19 0.000312393
5 *609:6 0.00127558
6 *5866:A *5617:CLK 0
7 *5866:A *1046:8 0
8 *609:6 *5617:CLK 0
9 *609:6 *1046:8 0
10 *5963:A *609:19 0.00050816
11 *351:14 *609:19 7.62389e-05
12 *605:154 *609:6 0
*RES
1 *5837:X *609:6 25.2942 
2 *609:6 *5866:A 23.9964 
3 *609:6 *609:19 44.0582 
4 *609:19 *5867:A 20 
*END

*D_NET *610 0.00392247
*CONN
*I *5868:A I *D sg13g2_buf_16
*I *5869:A I *D sg13g2_buf_16
*I *5838:X O *D sg13g2_buf_8
*CAP
1 *5868:A 0.000604243
2 *5869:A 4.75179e-05
3 *5838:X 0.000172622
4 *610:12 0.00157879
5 *610:8 0.00109965
6 *5868:A *5671:RESET_B 0
7 *5868:A *5723:RESET_B 0
8 *5868:A *718:54 0
9 *610:8 *5655:RESET_B 0
10 *610:12 *5370:A0 0
11 *610:12 *641:50 0
12 *610:12 *667:10 0
13 *610:12 *667:25 0
14 *610:12 *667:36 0
15 *610:12 *703:48 0
16 *5371:A *5868:A 0
17 *5671:D *5868:A 0.000339552
18 *5723:D *5868:A 0
19 *5723:D *5869:A 8.00842e-05
*RES
1 *5838:X *610:8 41.8334 
2 *610:8 *610:12 30.2382 
3 *610:12 *5869:A 20.5356 
4 *610:12 *5868:A 26.077 
*END

*D_NET *611 0.00602884
*CONN
*I *5871:A I *D sg13g2_buf_16
*I *5870:A I *D sg13g2_buf_16
*I *5839:X O *D sg13g2_buf_8
*CAP
1 *5871:A 0.000606256
2 *5870:A 0
3 *5839:X 0.000627909
4 *611:12 0.000584264
5 *611:6 0.00181843
6 *5871:A *5505:CLK 0.000436558
7 *5871:A *642:35 0.000176902
8 *5871:A *665:30 3.23417e-05
9 *5871:A *716:28 0
10 *5871:A *1000:28 0
11 *611:6 *5823:CLK 0.00030715
12 *611:6 *665:30 1.54008e-05
13 *611:6 *665:40 4.77425e-05
14 *611:6 *1000:28 0
15 *611:6 *1116:97 0
16 *611:12 *642:8 0.00034245
17 *611:12 *665:30 0.00103344
18 *611:12 *716:75 0
19 *79:27 *611:12 0
*RES
1 *5839:X *611:6 25.9431 
2 *611:6 *611:12 48.755 
3 *611:12 *5870:A 20 
4 *611:6 *5871:A 25.7268 
*END

*D_NET *612 0.00639609
*CONN
*I *5873:A I *D sg13g2_buf_16
*I *5874:A I *D sg13g2_buf_16
*I *5840:X O *D sg13g2_buf_8
*CAP
1 *5873:A 0
2 *5874:A 0.000638239
3 *5840:X 0.000260923
4 *612:25 0.00114376
5 *612:8 0.00204292
6 *5874:A *665:40 4.7803e-05
7 *5874:A *665:51 0.000144465
8 *5874:A *665:66 0
9 *5874:A *716:44 0
10 *5874:A *718:14 0.000921166
11 *5874:A *718:20 0
12 *612:8 *665:40 0
13 *612:25 *5014:B1 8.00842e-05
14 *612:25 *5823:RESET_B 0
15 *612:25 *700:16 0.00111672
16 *612:25 *716:44 0
17 *612:25 *718:14 0
18 *612:25 *1116:97 0
19 *5823:D *612:25 0
*RES
1 *5840:X *612:8 42.8222 
2 *612:8 *5874:A 47.004 
3 *612:8 *612:25 32.1334 
4 *612:25 *5873:A 20 
*END

*D_NET *613 0.00362627
*CONN
*I *5875:A I *D sg13g2_buf_16
*I *5872:A I *D sg13g2_buf_16
*I *5841:X O *D sg13g2_buf_8
*CAP
1 *5875:A 0
2 *5872:A 0.000595839
3 *5841:X 0.000330127
4 *613:21 0.000385499
5 *613:8 0.00131146
6 *5872:A *5329:B1 0
7 *5872:A *5396:A1 0
8 *5872:A *1071:17 0
9 *613:8 *1080:27 0
10 *613:21 *685:27 0
11 *613:21 *914:8 0.000501046
12 *613:21 *1080:27 0.000502289
*RES
1 *5841:X *613:8 23.6977 
2 *613:8 *5872:A 26.1594 
3 *613:8 *613:21 46.0358 
4 *613:21 *5875:A 20 
*END

*D_NET *614 0.00435126
*CONN
*I *5876:A I *D sg13g2_buf_16
*I *5877:A I *D sg13g2_buf_16
*I *5842:X O *D sg13g2_buf_8
*CAP
1 *5876:A 0.000812049
2 *5877:A 0.000485712
3 *5842:X 0.000998488
4 *614:10 0.000672151
5 *5876:A *5449:B 0
6 *5876:A *5451:A 0
7 *5876:A *5453:A 0
8 *5876:A *5783:RESET_B 0
9 *5876:A *648:66 0
10 *5876:A *714:27 0
11 *5876:A *714:39 0
12 *5877:A *680:79 0
13 *5877:A *693:47 0.000533991
14 *5877:A *693:55 0.00017747
15 *5877:A *1004:14 4.73096e-05
16 *5877:A *1004:99 0.000209867
17 *5877:A *1027:64 0
18 *614:10 *680:32 0
19 *614:10 *1027:64 0.000288173
20 *614:10 *1135:22 0.000126047
21 *5451:C *5876:A 0
22 *5457:D *5877:A 0
23 *69:39 *5876:A 0
24 *232:10 *5876:A 0
25 *605:199 *614:10 0
*RES
1 *5842:X *614:10 42.3999 
2 *614:10 *5877:A 45.5476 
3 *5842:X *5876:A 47.6735 
*END

*D_NET *615 0.00632713
*CONN
*I *5878:A I *D sg13g2_buf_16
*I *5879:A I *D sg13g2_buf_16
*I *5843:X O *D sg13g2_buf_8
*CAP
1 *5878:A 0
2 *5879:A 0.000739398
3 *5843:X 0.00049634
4 *615:14 0.00156686
5 *615:8 0.0013238
6 *5879:A *5807:RESET_B 0
7 *5879:A *5959:A 0
8 *5879:A *714:95 0.000274452
9 *5879:A *714:104 0.000583339
10 *5879:A *1014:8 0
11 *615:8 *5443:A 0
12 *615:14 *5777:CLK 0
13 *615:14 *5807:RESET_B 0
14 *615:14 *5959:A 0
15 *615:14 *650:40 0
16 *615:14 *650:51 0
17 *615:14 *698:41 0
18 *615:14 *1012:12 0
19 *615:14 *1012:68 0
20 *615:14 *1012:72 0
21 *5438:A *5879:A 4.77425e-05
22 *5442:A2 *615:8 0.000599727
23 *5807:D *5879:A 0
24 *5807:D *615:14 0
25 *572:8 *615:14 0
26 *573:8 *615:8 0.000695475
*RES
1 *5843:X *615:8 45.9431 
2 *615:8 *615:14 27.3385 
3 *615:14 *5879:A 27.4984 
4 *615:14 *5878:A 20 
*END

*D_NET *616 0.00414757
*CONN
*I *5881:A I *D sg13g2_buf_16
*I *5880:A I *D sg13g2_buf_16
*I *5844:X O *D sg13g2_buf_8
*CAP
1 *5881:A 0.000553574
2 *5880:A 0.000726767
3 *5844:X 4.9243e-05
4 *616:8 0.00132958
5 *5880:A *5342:A0 0
6 *5880:A *5695:CLK 0
7 *5880:A *764:16 0.000820983
8 *5880:A *990:25 0
9 *5881:A *5661:CLK 0
10 *5881:A *653:19 0
11 *5881:A *764:16 0.000587173
12 *5881:A *990:25 0
13 *5881:A *1032:66 0
14 *616:8 *5661:CLK 8.02434e-05
15 *605:302 *616:8 0
*RES
1 *5844:X *616:8 40.5356 
2 *616:8 *5880:A 47.7662 
3 *616:8 *5881:A 46.8186 
*END

*D_NET *617 0.00429887
*CONN
*I *5851:A I *D sg13g2_buf_16
*I *5852:A I *D sg13g2_buf_16
*I *5845:X O *D sg13g2_buf_8
*CAP
1 *5851:A 0.000477518
2 *5852:A 0
3 *5845:X 0.00121627
4 *617:26 0.00169379
5 *5851:A *5394:A0 0.000176732
6 *5851:A *5399:B 0
7 *5851:A *5747:RESET_B 0.000274709
8 *5851:A *624:10 0
9 *5851:A *624:29 0
10 *617:26 *5361:B 0.000218905
11 *617:26 *5399:B 0
12 *617:26 *5713:RESET_B 0
13 *617:26 *5729:RESET_B 0
14 *617:26 *624:29 0
15 *617:26 *712:51 0
16 *5361:A *617:26 0
17 *5377:A *617:26 0
18 *5713:D *617:26 0
19 *5729:D *617:26 0.000240944
*RES
1 *5845:X *617:26 33.4157 
2 *617:26 *5852:A 20 
3 *617:26 *5851:A 25.6856 
*END

*D_NET *618 0.0061717
*CONN
*I *5854:A I *D sg13g2_buf_16
*I *5853:A I *D sg13g2_buf_16
*I *5846:X O *D sg13g2_buf_8
*CAP
1 *5854:A 0.000584304
2 *5853:A 0
3 *5846:X 0.000560183
4 *618:14 0.00073173
5 *618:10 0.000707609
6 *5854:A *5641:RESET_B 0
7 *5854:A *668:60 0.00090643
8 *5854:A *690:39 0
9 *618:10 *5292:B 5.30319e-05
10 *618:10 *5693:CLK 0.000767811
11 *618:10 *719:54 0
12 *618:10 *722:8 0
13 *618:10 *1026:55 0.00124759
14 *618:10 *1026:61 0.000370795
15 *618:10 *1033:72 0
16 *618:14 *668:60 0.000242221
17 *618:14 *690:39 0
18 *5988:A *618:10 0
*RES
1 *5846:X *618:10 48.5181 
2 *618:10 *618:14 21.6171 
3 *618:14 *5853:A 20 
4 *618:14 *5854:A 26.1594 
*END

*D_NET *619 0.00449948
*CONN
*I *5855:A I *D sg13g2_buf_16
*I *5856:A I *D sg13g2_buf_16
*I *5847:X O *D sg13g2_buf_8
*CAP
1 *5855:A 0.000438564
2 *5856:A 0
3 *5847:X 0
4 *619:14 0.00138379
5 *619:4 0.00182235
6 *5855:A *5390:A1 0
7 *5855:A *5391:B 0
8 *5855:A *5743:RESET_B 0
9 *5855:A *5987:A 0.000177311
10 *619:14 *5357:B 0.000290094
11 *619:14 *5725:RESET_B 0
12 *619:14 *5743:RESET_B 0
13 *619:14 *628:36 0
14 *619:14 *717:55 0
15 *619:14 *996:32 0
16 *5391:A *5855:A 0
17 *5709:D *5855:A 0
18 *5709:D *619:14 0.000209845
19 *5743:D *5855:A 0.000177526
20 *5847:A *5855:A 0
*RES
1 *5847:X *619:4 20 
2 *619:4 *619:14 33.1767 
3 *619:14 *5856:A 40 
4 *619:4 *5855:A 24.5629 
*END

*D_NET *620 0.00601891
*CONN
*I *5857:A I *D sg13g2_buf_16
*I *5858:A I *D sg13g2_buf_16
*I *5848:X O *D sg13g2_buf_8
*CAP
1 *5857:A 0
2 *5858:A 0.000667581
3 *5848:X 9.42777e-05
4 *620:25 0.00128489
5 *620:8 0.00204675
6 *5858:A *1015:46 0
7 *5858:A *1015:60 0
8 *5858:A *1034:12 0.000181192
9 *5858:A *1108:37 0
10 *620:25 *5205:D 0
11 *620:25 *5609:CLK 0
12 *620:25 *856:10 0.00033953
13 *620:25 *1008:109 0
14 *620:25 *1015:46 0
15 *620:25 *1109:29 0.000760679
16 *5209:B1 *5858:A 0
17 *260:14 *5858:A 0
18 *260:14 *620:25 0
19 *388:38 *5858:A 0
20 *421:10 *5858:A 0.000287672
21 *421:10 *620:8 4.69735e-05
22 *421:10 *620:25 7.51285e-05
23 *422:8 *5858:A 0.000234224
*RES
1 *5848:X *620:8 40.7519 
2 *620:8 *5858:A 47.2203 
3 *620:8 *620:25 33.5239 
4 *620:25 *5857:A 20 
*END

*D_NET *621 0.00543041
*CONN
*I *5860:A I *D sg13g2_buf_16
*I *5859:A I *D sg13g2_buf_16
*I *5849:X O *D sg13g2_buf_8
*CAP
1 *5860:A 0.000939021
2 *5859:A 0.000718735
3 *5849:X 0.000414578
4 *621:8 0.00207233
5 *5859:A *5189:A 0
6 *5185:C *5860:A 0
7 *5190:A2 *5859:A 0
8 *260:14 *5860:A 0
9 *260:14 *621:8 0
10 *268:20 *5860:A 0.000597336
11 *384:22 *5860:A 0
12 *385:18 *5860:A 0.000122871
13 *387:14 *5859:A 0.000565536
14 *406:10 *5860:A 0
15 *410:8 *5860:A 0
16 *605:29 *5860:A 0
17 *605:29 *621:8 0
*RES
1 *5849:X *621:8 43.5638 
2 *621:8 *5859:A 47.8898 
3 *621:8 *5860:A 48.7962 
*END

*D_NET *622 0.0135911
*CONN
*I *5699:CLK I *D sg13g2_dfrbpq_1
*I *5647:CLK I *D sg13g2_dfrbpq_1
*I *5631:CLK I *D sg13g2_dfrbpq_1
*I *5805:CLK I *D sg13g2_dfrbpq_1
*I *5681:CLK I *D sg13g2_dfrbpq_1
*I *5803:CLK I *D sg13g2_dfrbpq_1
*I *5850:X O *D sg13g2_buf_16
*CAP
1 *5699:CLK 0.000530368
2 *5647:CLK 0.00024883
3 *5631:CLK 0.00038395
4 *5805:CLK 0
5 *5681:CLK 0.000818875
6 *5803:CLK 0.000373805
7 *5850:X 0.000161136
8 *622:56 0.00128719
9 *622:14 0.00165936
10 *622:12 0.00118433
11 *622:10 0.00118146
12 *622:8 0.000748985
13 *5631:CLK *5254:B1 8.01447e-05
14 *5631:CLK *683:8 0.000598772
15 *5631:CLK *683:14 1.54008e-05
16 *5631:CLK *685:27 0
17 *5647:CLK *5278:A2 0
18 *5681:CLK *5485:A 4.77425e-05
19 *5681:CLK *694:39 0.00107573
20 *5699:CLK *5699:RESET_B 0
21 *5699:CLK *1031:57 0.000587588
22 *5699:CLK *1061:34 0
23 *5803:CLK *5256:A 0
24 *5803:CLK *694:33 0.000505178
25 *622:8 *669:99 4.77425e-05
26 *622:8 *671:22 0.000274414
27 *622:8 *956:10 0
28 *622:10 *669:99 0.000234224
29 *622:12 *5484:A 0
30 *622:12 *669:99 0.00012816
31 *622:12 *919:8 0
32 *622:12 *1020:64 0
33 *622:12 *1020:77 0
34 *622:12 *1020:81 0
35 *622:12 *1022:18 0
36 *622:12 *1043:8 0.000448428
37 *622:14 *5484:A 0
38 *622:14 *893:12 0
39 *622:14 *1022:18 0
40 *622:56 *669:60 0
41 *622:56 *669:99 7.51285e-05
42 *622:56 *711:65 0
43 *622:56 *956:10 0
44 *622:56 *1031:57 0.000608353
45 *5481:B *5803:CLK 0.000271906
46 *5485:B *5681:CLK 1.38607e-05
47 *5805:D *5681:CLK 0
48 *5841:A *5681:CLK 0
49 *5850:A *622:12 0
50 *458:8 *622:10 0
51 *458:8 *622:12 0
52 *605:243 *5681:CLK 0
*RES
1 *5850:X *622:8 41.8334 
2 *622:8 *622:10 1.0918 
3 *622:10 *622:12 7.7662 
4 *622:12 *622:14 4.3054 
5 *622:14 *5803:CLK 44.4084 
6 *622:14 *5681:CLK 49.579 
7 *622:12 *5805:CLK 40 
8 *622:10 *5631:CLK 43.9964 
9 *622:8 *622:56 5.7886 
10 *622:56 *5647:CLK 42.266 
11 *622:56 *5699:CLK 46.8186 
*END

*D_NET *623 0.00694901
*CONN
*I *5679:CLK I *D sg13g2_dfrbpq_1
*I *5663:CLK I *D sg13g2_dfrbpq_1
*I *5683:CLK I *D sg13g2_dfrbpq_1
*I *5735:CLK I *D sg13g2_dfrbpq_1
*I *5715:CLK I *D sg13g2_dfrbpq_1
*I *5851:X O *D sg13g2_buf_16
*CAP
1 *5679:CLK 0
2 *5663:CLK 0
3 *5683:CLK 0
4 *5735:CLK 0.0007451
5 *5715:CLK 0.000438936
6 *5851:X 6.31134e-05
7 *623:44 0.000203973
8 *623:31 0.00152474
9 *623:27 0.00137235
10 *623:23 0.0010511
11 *623:8 0.000756464
12 *5715:CLK *711:20 0.000395896
13 *5715:CLK *1022:66 0
14 *5735:CLK *5332:A2 0
15 *5735:CLK *5683:RESET_B 0
16 *5735:CLK *5735:RESET_B 0
17 *623:8 *711:20 0.00021346
18 *623:23 *5399:B 0
19 *623:27 *5325:A 0
20 *623:27 *5663:RESET_B 0
21 *623:27 *5679:RESET_B 0
22 *623:27 *5986:A 0
23 *623:27 *6031:A 0
24 *623:27 *1021:20 0
25 *623:27 *1030:74 0
26 *623:27 *1030:84 0
27 *623:27 *1070:23 0
28 *623:31 *5333:B 0
29 *623:31 *5663:RESET_B 0
30 *623:31 *924:10 0
31 *623:44 *924:10 0.00018387
32 *5333:A *5735:CLK 0
33 *5333:C *5735:CLK 0
34 *5993:A *623:31 0
35 *505:10 *623:27 0
*RES
1 *5851:X *623:8 41.0918 
2 *623:8 *5715:CLK 45.3972 
3 *623:8 *623:23 22.6986 
4 *623:23 *623:27 8.7344 
5 *623:27 *623:31 6.5714 
6 *623:31 *5735:CLK 27.8898 
7 *623:31 *623:44 42.8222 
8 *623:44 *5683:CLK 20 
9 *623:27 *5663:CLK 20 
10 *623:23 *5679:CLK 20 
*END

*D_NET *624 0.00570598
*CONN
*I *5729:CLK I *D sg13g2_dfrbpq_1
*I *5713:CLK I *D sg13g2_dfrbpq_1
*I *5747:CLK I *D sg13g2_dfrbpq_1
*I *5731:CLK I *D sg13g2_dfrbpq_1
*I *5751:CLK I *D sg13g2_dfrbpq_1
*I *5852:X O *D sg13g2_buf_16
*CAP
1 *5729:CLK 0.000517296
2 *5713:CLK 0
3 *5747:CLK 0
4 *5731:CLK 0
5 *5751:CLK 0.000714891
6 *5852:X 0.00021694
7 *624:29 0.00105276
8 *624:10 0.00142994
9 *624:8 0.00146746
10 *5729:CLK *5729:RESET_B 0
11 *5751:CLK *5751:RESET_B 0
12 *5751:CLK *1030:84 0
13 *624:10 *5394:A0 0
14 *624:10 *5731:RESET_B 0
15 *624:29 *5713:RESET_B 0
16 boot_wdata[13] *624:29 0
17 *5395:A *624:10 0.00030669
18 *5851:A *624:10 0
19 *5851:A *624:29 0
20 *214:12 *624:10 0
21 *617:26 *624:29 0
*RES
1 *5852:X *624:8 23.3887 
2 *624:8 *624:10 7.8898 
3 *624:10 *5751:CLK 27.8898 
4 *624:10 *5731:CLK 20 
5 *624:8 *5747:CLK 20 
6 *624:8 *624:29 6.1594 
7 *624:29 *5713:CLK 20 
8 *624:29 *5729:CLK 25.7268 
*END

*D_NET *625 0.0120147
*CONN
*I *5637:CLK I *D sg13g2_dfrbpq_1
*I *5621:CLK I *D sg13g2_dfrbpq_1
*I *5791:CLK I *D sg13g2_dfrbpq_1
*I *5795:CLK I *D sg13g2_dfrbpq_1
*I *5793:CLK I *D sg13g2_dfrbpq_1
*I *5625:CLK I *D sg13g2_dfrbpq_1
*I *5853:X O *D sg13g2_buf_16
*CAP
1 *5637:CLK 0
2 *5621:CLK 0.000534209
3 *5791:CLK 0
4 *5795:CLK 0
5 *5793:CLK 0.000681501
6 *5625:CLK 0.000340581
7 *5853:X 0.00130305
8 *625:72 0.00117937
9 *625:42 0.00081359
10 *625:27 0.00149509
11 *625:25 0.000408229
12 *625:19 0.00168853
13 *625:8 0.00121036
14 *5621:CLK *5238:A 0
15 *5621:CLK *5239:A1 0
16 *5621:CLK *673:93 4.77425e-05
17 *5621:CLK *687:86 0
18 *5621:CLK *701:33 0
19 *5625:CLK *5245:B1 0.000241631
20 *5625:CLK *687:73 0
21 *5793:CLK *5246:B 0
22 *5793:CLK *1036:8 0.000342234
23 *625:8 *687:73 0
24 *625:19 *719:54 0
25 *625:19 *1026:31 0
26 *625:19 *1026:44 0
27 *625:25 *5238:A 0
28 *625:25 *719:54 0
29 *625:42 *5246:B 0
30 *625:42 *5795:RESET_B 0
31 *625:42 *1036:8 0.000555736
32 *625:72 *5689:RESET_B 0
33 *625:72 *5689:CLK 0
34 *625:72 *673:14 0
35 *625:72 *673:18 0
36 *625:72 *687:73 0
37 *625:72 *947:10 0
38 *5968:A *5621:CLK 0
39 *5968:A *625:42 0.00117281
40 *605:269 *625:19 0
41 *605:269 *625:25 0
*RES
1 *5853:X *625:8 21.3802 
2 *625:8 *5625:CLK 23.1312 
3 *625:8 *625:19 26.0358 
4 *625:19 *625:25 23.9758 
5 *625:25 *625:27 20 
6 *625:27 *5793:CLK 46.7774 
7 *625:27 *625:42 30.4648 
8 *625:42 *5795:CLK 20 
9 *625:25 *5791:CLK 20 
10 *625:19 *5621:CLK 45.2118 
11 *5853:X *625:72 32.2261 
12 *625:72 *5637:CLK 20 
*END

*D_NET *626 0.0113034
*CONN
*I *5653:CLK I *D sg13g2_dfrbpq_1
*I *5707:CLK I *D sg13g2_dfrbpq_1
*I *5623:CLK I *D sg13g2_dfrbpq_1
*I *5705:CLK I *D sg13g2_dfrbpq_1
*I *5886:A I *D sg13g2_inv_1
*I *5689:CLK I *D sg13g2_dfrbpq_1
*I *5854:X O *D sg13g2_buf_16
*CAP
1 *5653:CLK 0.000673658
2 *5707:CLK 0.000316467
3 *5623:CLK 0
4 *5705:CLK 0
5 *5886:A 0
6 *5689:CLK 0.000462167
7 *5854:X 0.000133714
8 *626:55 0.00123584
9 *626:47 0.00192627
10 *626:45 0.00133263
11 *626:34 0.000833257
12 *626:12 0.000841113
13 *626:8 0.00106091
14 *5653:CLK *5287:A2 0
15 *5653:CLK *5287:B1 0.000207986
16 *5653:CLK *5312:B 0
17 *5653:CLK *673:112 0.000159511
18 *5653:CLK *689:61 0
19 *5653:CLK *702:74 0
20 *5689:CLK *1023:127 0
21 *5707:CLK *5353:B 0
22 *5707:CLK *717:14 0
23 *626:8 *5641:CLK 0.000289003
24 *626:8 *920:36 0
25 *626:12 *920:36 0
26 *626:34 *5641:CLK 4.78359e-05
27 *626:34 *5705:RESET_B 0
28 *626:34 *690:39 0
29 *626:45 *702:74 0
30 *626:47 *668:60 0
31 *626:47 *673:112 0.00127974
32 *626:47 *717:22 0
33 *626:55 *673:112 0.000503291
34 *626:55 *717:22 0
35 *625:72 *5689:CLK 0
*RES
1 *5854:X *626:8 41.5862 
2 *626:8 *626:12 3.6359 
3 *626:12 *5689:CLK 45.5826 
4 *626:12 *5886:A 40 
5 *626:8 *626:34 25.9431 
6 *626:34 *5705:CLK 20 
7 *626:34 *626:45 23.2651 
8 *626:45 *626:47 6.0358 
9 *626:47 *626:55 35.2337 
10 *626:55 *5623:CLK 20 
11 *626:47 *5707:CLK 43.3475 
12 *626:45 *5653:CLK 46.6297 
*END

*D_NET *627 0.00609591
*CONN
*I *5709:CLK I *D sg13g2_dfrbpq_1
*I *5743:CLK I *D sg13g2_dfrbpq_1
*I *5675:CLK I *D sg13g2_dfrbpq_1
*I *5693:CLK I *D sg13g2_dfrbpq_1
*I *5727:CLK I *D sg13g2_dfrbpq_1
*I *5855:X O *D sg13g2_buf_16
*CAP
1 *5709:CLK 0.000506583
2 *5743:CLK 0
3 *5675:CLK 0
4 *5693:CLK 0.000814365
5 *5727:CLK 0.000382766
6 *5855:X 0
7 *627:17 0.00157864
8 *627:13 0.00146692
9 *627:4 0.000578827
10 *5693:CLK *5269:A2 0
11 *5693:CLK *5292:B 0
12 *5693:CLK *713:10 0
13 *5693:CLK *1033:72 0
14 *5709:CLK *5709:RESET_B 0
15 *5709:CLK *5743:RESET_B 0
16 *5709:CLK *6061:A 0
17 *5727:CLK *5727:RESET_B 0
18 *627:17 *712:27 0
19 *627:17 *917:8 0
20 *627:17 *987:23 0
21 *212:8 *627:17 0
22 *539:8 *627:17 0
23 *605:269 *5693:CLK 0
24 *605:335 *5693:CLK 0
25 *605:335 *627:17 0
26 *618:10 *5693:CLK 0.000767811
*RES
1 *5855:X *627:4 20 
2 *627:4 *5727:CLK 24.2127 
3 *627:4 *627:13 2.0497 
4 *627:13 *627:17 29.0022 
5 *627:17 *5693:CLK 49.5378 
6 *627:17 *5675:CLK 40 
7 *627:13 *5743:CLK 20 
8 *627:13 *5709:CLK 25.7268 
*END

*D_NET *628 0.0074981
*CONN
*I *5673:CLK I *D sg13g2_dfrbpq_1
*I *5741:CLK I *D sg13g2_dfrbpq_1
*I *5725:CLK I *D sg13g2_dfrbpq_1
*I *5657:CLK I *D sg13g2_dfrbpq_1
*I *5641:CLK I *D sg13g2_dfrbpq_1
*I *5856:X O *D sg13g2_buf_16
*CAP
1 *5673:CLK 0
2 *5741:CLK 0.000451754
3 *5725:CLK 9.42018e-05
4 *5657:CLK 0
5 *5641:CLK 0.000846807
6 *5856:X 0.000361389
7 *628:61 0.000314477
8 *628:36 0.00111816
9 *628:12 0.0015758
10 *628:6 0.00134811
11 *5641:CLK *689:8 0
12 *5641:CLK *689:27 0
13 *5641:CLK *690:39 0
14 *5641:CLK *920:36 0
15 *5641:CLK *1066:10 0
16 *5725:CLK *5725:RESET_B 0
17 *5741:CLK *5741:RESET_B 0
18 *5741:CLK *996:32 0
19 *628:6 *663:95 6.47365e-05
20 *628:6 *717:55 0
21 *628:12 *5356:S 0.000274583
22 *628:12 *5372:A1 0
23 *628:12 *663:95 0.000469254
24 *628:12 *717:55 0
25 *628:12 *973:23 0
26 *628:12 *1066:10 0
27 *628:36 *913:10 0
28 *628:36 *996:32 0
29 *628:61 *663:95 0.000241979
30 *628:61 *717:55 0
31 *628:61 *913:10 0
32 *628:61 *996:32 0
33 *5373:A *628:12 0
34 *203:8 *628:36 0
35 *484:12 *5641:CLK 0
36 *619:14 *628:36 0
37 *626:8 *5641:CLK 0.000289003
38 *626:34 *5641:CLK 4.78359e-05
*RES
1 *5856:X *628:6 20.5356 
2 *628:6 *628:12 27.931 
3 *628:12 *5641:CLK 49.0434 
4 *628:12 *5657:CLK 40 
5 *628:6 *628:36 46.5302 
6 *628:36 *5725:CLK 20.9682 
7 *628:36 *5741:CLK 24.8616 
8 *5856:X *628:61 43.6977 
9 *628:61 *5673:CLK 40 
*END

*D_NET *629 0.0152836
*CONN
*I *5609:CLK I *D sg13g2_dfrbpq_1
*I *5605:CLK I *D sg13g2_dfrbpq_1
*I *5545:CLK I *D sg13g2_dfrbpq_1
*I *5603:CLK I *D sg13g2_dfrbpq_1
*I *5599:CLK I *D sg13g2_dfrbpq_1
*I *5543:CLK I *D sg13g2_dfrbpq_1
*I *5857:X O *D sg13g2_buf_16
*CAP
1 *5609:CLK 0.000801881
2 *5605:CLK 0
3 *5545:CLK 0.000706333
4 *5603:CLK 0
5 *5599:CLK 0
6 *5543:CLK 0.000700643
7 *5857:X 0
8 *629:47 0.00120315
9 *629:45 0.00150007
10 *629:31 0.00109027
11 *629:12 0.00179091
12 *629:10 0.0004102
13 *629:4 0.000611569
14 *5543:CLK *5543:RESET_B 0
15 *5543:CLK *5603:RESET_B 1.54556e-05
16 *5545:CLK *5095:A1 0
17 *5545:CLK *704:25 0
18 *5609:CLK *5199:A 0
19 *5609:CLK *1008:109 0
20 *5609:CLK *1109:29 0
21 *629:10 *5196:A 0
22 *629:10 *5199:A 0
23 *629:10 *5199:B 0
24 *629:10 *5603:RESET_B 0
25 *629:10 *1105:18 0
26 *629:31 *1018:81 0.000341119
27 *629:31 *1104:10 0.000181192
28 *629:31 *1105:12 0
29 *629:31 *1105:18 0.000288173
30 *629:45 *1105:22 0
31 *629:47 *704:25 0
32 *629:47 *1008:124 0.000395396
33 *629:47 *1105:26 0
34 *5096:A2 *5545:CLK 0.000273118
35 *5096:B1 *5545:CLK 0
36 *5186:A *629:31 0.000339163
37 *5188:A *629:31 0.000339163
38 *5201:B1 *5609:CLK 0.000241341
39 *5201:A1 *629:10 0
40 *5203:A1 *629:47 0.000447183
41 *141:8 *629:31 0.000607196
42 *143:10 *5545:CLK 0
43 *252:12 *5545:CLK 0
44 *253:20 *5545:CLK 0.00116501
45 *253:20 *629:47 0.000427074
46 *407:8 *629:31 0
47 *415:12 *5543:CLK 0
48 *415:12 *629:31 0
49 *418:10 *629:45 0.000607938
50 *418:10 *629:47 0.000800038
51 *620:25 *5609:CLK 0
*RES
1 *5857:X *629:4 20 
2 *629:4 *629:10 4.4496 
3 *629:10 *629:12 20 
4 *629:12 *5543:CLK 48.1576 
5 *629:12 *629:31 33.2458 
6 *629:31 *5599:CLK 20 
7 *629:10 *5603:CLK 20 
8 *629:4 *629:45 22.8222 
9 *629:45 *629:47 7.2718 
10 *629:47 *5545:CLK 48.4666 
11 *629:47 *5605:CLK 40 
12 *629:45 *5609:CLK 47.8898 
*END

*D_NET *630 0.00533176
*CONN
*I *5607:CLK I *D sg13g2_dfrbpq_1
*I *5551:CLK I *D sg13g2_dfrbpq_1
*I *5887:A I *D sg13g2_inv_1
*I *5549:CLK I *D sg13g2_dfrbpq_1
*I *5547:CLK I *D sg13g2_dfrbpq_1
*I *5529:CLK I *D sg13g2_dfrbpq_1
*I *5858:X O *D sg13g2_buf_16
*CAP
1 *5607:CLK 0.000255607
2 *5551:CLK 0.000419124
3 *5887:A 0
4 *5549:CLK 0
5 *5547:CLK 0.00064561
6 *5529:CLK 0.000619627
7 *5858:X 0.000255607
8 *630:23 0.000802424
9 *630:12 0.00115676
10 *630:8 0.000465033
11 *630:4 0.00050384
12 *5529:CLK *5080:A1 0
13 *5529:CLK *5549:RESET_B 0
14 *5547:CLK *5098:A1 0
15 *5547:CLK *5549:RESET_B 0
16 *5547:CLK *1034:65 0
17 *5551:CLK *709:41 0
18 *5551:CLK *743:10 0
19 *5607:CLK *1108:37 0
20 *630:12 *1034:65 0
21 *630:23 *5549:RESET_B 0
22 *5080:A2 *5529:CLK 0
23 *5103:B1 *5551:CLK 0.000208126
*RES
1 *5858:X *630:4 20 
2 *630:4 *630:8 21.0918 
3 *630:8 *630:12 24.5526 
4 *630:12 *5529:CLK 26.7568 
5 *630:12 *630:23 1.8334 
6 *630:23 *5547:CLK 26.7568 
7 *630:23 *5549:CLK 20 
8 *630:8 *5887:A 40 
9 *630:4 *5551:CLK 24.7998 
10 *5858:X *5607:CLK 42.9252 
*END

*D_NET *631 0.0153076
*CONN
*I *5533:CLK I *D sg13g2_dfrbpq_1
*I *5531:CLK I *D sg13g2_dfrbpq_1
*I *5593:CLK I *D sg13g2_dfrbpq_1
*I *5597:CLK I *D sg13g2_dfrbpq_1
*I *5537:CLK I *D sg13g2_dfrbpq_1
*I *5601:CLK I *D sg13g2_dfrbpq_1
*I *5859:X O *D sg13g2_buf_16
*CAP
1 *5533:CLK 0.000732879
2 *5531:CLK 0
3 *5593:CLK 0
4 *5597:CLK 8.64409e-05
5 *5537:CLK 0.000573035
6 *5601:CLK 0.000303634
7 *5859:X 0.00123056
8 *631:62 0.000835627
9 *631:49 0.00183408
10 *631:36 0.0010849
11 *631:34 0.00103046
12 *631:12 0.00101962
13 *631:10 0.000440532
14 *631:8 0.00123056
15 *5533:CLK *5083:B1 0
16 *5533:CLK *1028:16 0
17 *5533:CLK *1029:30 0
18 *5533:CLK *1103:8 0.000448514
19 *5537:CLK *5087:B1 0.000589472
20 *5601:CLK *1028:16 0
21 *631:8 *5188:B 4.77425e-05
22 *631:8 *1103:19 0
23 *631:8 *1105:102 0.00040406
24 *631:12 *1028:16 0
25 *631:34 *1028:16 0
26 *631:34 *1103:8 0.000769109
27 *631:49 *4974:A 0
28 *631:49 *700:92 0
29 *631:49 *1018:56 0
30 *631:49 *1101:8 0.000875383
31 *631:49 *1104:10 0
32 *631:62 *5531:RESET_B 0
33 *631:62 *5973:A 0
34 *631:62 *5974:A 0
35 *631:62 *700:92 0
36 *631:62 *1028:10 0.000241631
37 *631:62 *1029:8 0
38 *631:62 *1101:8 0.000643568
39 *5084:A2 *5533:CLK 0
40 *5084:A2 *631:49 0
41 *5088:B1 *5537:CLK 0
42 *5187:A2 *631:8 0
43 *5187:B1 *631:8 0
44 *5188:A *631:8 0.000404076
45 *5190:A1 *631:8 0.00011236
46 *5535:D *5533:CLK 0
47 *5597:D *631:8 8.0216e-05
48 *255:8 *5537:CLK 0
49 *258:25 *631:49 0
50 *335:12 *631:62 1.54008e-05
51 *398:22 *631:8 0.000273688
52 *401:10 *631:49 0
53 *403:10 *631:49 0
54 *406:26 *631:8 0
*RES
1 *5859:X *631:8 32.099 
2 *631:8 *631:10 20 
3 *631:10 *631:12 1.5862 
4 *631:12 *5601:CLK 43.811 
5 *631:12 *5537:CLK 46.077 
6 *631:10 *631:34 4.5526 
7 *631:34 *631:36 20 
8 *631:36 *5597:CLK 21.0918 
9 *631:36 *631:49 31.2064 
10 *631:49 *5593:CLK 40 
11 *631:49 *631:62 30.2794 
12 *631:62 *5531:CLK 20 
13 *631:34 *5533:CLK 48.3018 
*END

*D_NET *632 0.0138978
*CONN
*I *5589:CLK I *D sg13g2_dfrbpq_1
*I *5591:CLK I *D sg13g2_dfrbpq_1
*I *5595:CLK I *D sg13g2_dfrbpq_1
*I *5535:CLK I *D sg13g2_dfrbpq_1
*I *5888:A I *D sg13g2_inv_1
*I *5615:CLK I *D sg13g2_dfrbpq_1
*I *5860:X O *D sg13g2_buf_16
*CAP
1 *5589:CLK 0.000397528
2 *5591:CLK 0.000219204
3 *5595:CLK 0
4 *5535:CLK 0
5 *5888:A 6.79418e-05
6 *5615:CLK 0.000750686
7 *5860:X 0
8 *632:50 0.00149112
9 *632:42 0.00208607
10 *632:38 0.00121798
11 *632:34 0.00144714
12 *632:8 0.0012563
13 *632:6 0.00108345
14 *5589:CLK *5170:D 0.000272767
15 *5589:CLK *708:66 0
16 *5591:CLK *1099:10 0
17 *5615:CLK *5189:A 0
18 *632:34 *5170:D 0.000240222
19 *632:34 *708:66 0
20 *632:34 *1099:23 0
21 *632:38 *1098:10 0
22 *632:38 *1099:10 0
23 *632:38 *1099:12 0
24 *632:42 *5173:B 0
25 *632:42 *5173:C 0
26 *632:42 *5591:RESET_B 0
27 *632:50 *5531:RESET_B 0
28 *632:50 *5974:A 0
29 *632:50 *1028:16 0.000556648
30 *632:50 *1029:12 0
31 *632:50 *1029:14 0
32 *632:50 *1029:16 0
33 *5170:C *5589:CLK 0
34 *5176:A2 *632:42 0
35 *5185:C *5888:A 9.71568e-05
36 *5191:C *5888:A 1.54008e-05
37 *5531:D *632:50 0
38 *259:10 *632:42 0
39 *259:10 *632:50 0
40 *259:24 *632:38 0
41 *288:35 *5615:CLK 0.000287758
42 *288:35 *632:8 0.00132829
43 *288:35 *632:34 0.000210208
44 *335:12 *632:50 0
45 *384:22 *5615:CLK 0
46 *389:43 *5615:CLK 0
47 *390:28 *632:34 0
48 *398:12 *5615:CLK 0
49 *398:12 *5888:A 0
50 *398:12 *632:8 0
51 *405:10 *5888:A 1.54008e-05
52 *410:8 *5615:CLK 0.000856556
53 *605:29 *5591:CLK 0
54 *605:29 *632:38 0
*RES
1 *5860:X *632:6 40 
2 *632:6 *632:8 6.283 
3 *632:8 *5615:CLK 48.3951 
4 *632:8 *5888:A 40.7519 
5 *632:6 *632:34 26.1697 
6 *632:34 *632:38 24.0582 
7 *632:38 *632:42 26.1594 
8 *632:42 *632:50 36.4388 
9 *632:50 *5535:CLK 40 
10 *632:42 *5595:CLK 20 
11 *632:38 *5591:CLK 42.8222 
12 *632:34 *5589:CLK 23.9964 
*END

*D_NET *633 0.00738294
*CONN
*I *5801:CLK I *D sg13g2_dfrbpq_1
*I *5629:CLK I *D sg13g2_dfrbpq_1
*I *5799:CLK I *D sg13g2_dfrbpq_1
*I *5765:CLK I *D sg13g2_dfrbpq_1
*I *5807:CLK I *D sg13g2_dfrbpq_1
*I *5882:A I *D sg13g2_inv_1
*I *5861:X O *D sg13g2_buf_16
*CAP
1 *5801:CLK 0.000551617
2 *5629:CLK 0.000643732
3 *5799:CLK 0
4 *5765:CLK 0
5 *5807:CLK 0.000227189
6 *5882:A 0
7 *5861:X 0.00099257
8 *633:45 0.000968911
9 *633:28 0.00161104
10 *633:26 0.000575924
11 *633:24 0.00114841
12 *633:8 9.72639e-05
13 *5629:CLK *5251:A1 0
14 *5629:CLK *5476:A 0
15 *5629:CLK *696:35 0
16 *5629:CLK *935:25 0
17 *5801:CLK *5250:B 0
18 *5801:CLK *5801:RESET_B 0
19 *5801:CLK *1022:18 0.000566289
20 *5807:CLK *650:12 0
21 *5807:CLK *1012:12 0
22 *633:8 *5477:D 0
23 *633:24 *5477:B 0
24 *633:24 *1040:8 0
25 *633:26 *5476:A 0
26 *633:28 *5476:A 0
27 *633:28 *1012:12 0
28 *633:45 *5765:RESET_B 0
29 *633:45 *5799:RESET_B 0
30 *633:45 *5913:A 0
31 *633:45 *650:12 0
32 *456:8 *5629:CLK 0
33 *586:27 *633:24 0
*RES
1 *5861:X *633:8 41.0918 
2 *633:8 *5882:A 40 
3 *5861:X *633:24 43.5638 
4 *633:24 *633:26 1.8334 
5 *633:26 *633:28 4.3054 
6 *633:28 *5807:CLK 42.575 
7 *633:28 *633:45 30.2562 
8 *633:45 *5765:CLK 20 
9 *633:26 *5799:CLK 40 
10 *633:24 *5629:CLK 47.2718 
11 *5861:X *5801:CLK 46.6023 
*END

*D_NET *634 0.00687858
*CONN
*I *5581:CLK I *D sg13g2_dfrbpq_1
*I *5577:CLK I *D sg13g2_dfrbpq_1
*I *5583:CLK I *D sg13g2_dfrbpq_1
*I *5523:CLK I *D sg13g2_dfrbpq_1
*I *5521:CLK I *D sg13g2_dfrbpq_1
*I *5611:CLK I *D sg13g2_dfrbpq_1
*I *5862:X O *D sg13g2_buf_16
*CAP
1 *5581:CLK 0
2 *5577:CLK 0.000783132
3 *5583:CLK 0
4 *5523:CLK 0.000258995
5 *5521:CLK 0.00064475
6 *5611:CLK 0.000316532
7 *5862:X 0.000344259
8 *634:50 0.00144688
9 *634:44 0.000802616
10 *634:22 0.00150929
11 *634:18 0.000772131
12 *5521:CLK *5069:A 0
13 *5521:CLK *5521:RESET_B 0
14 *5521:CLK *656:55 0
15 *5523:CLK *656:46 0
16 *5523:CLK *656:55 0
17 *5577:CLK *5577:RESET_B 0
18 *5577:CLK *5583:RESET_B 0
19 *5611:CLK *1108:37 0
20 *262:16 *5521:CLK 0
21 *262:16 *5523:CLK 0
22 *262:16 *634:22 0
23 *348:22 *5577:CLK 0
24 *382:8 *5611:CLK 0
25 *382:8 *634:44 0
*RES
1 *5862:X *5611:CLK 43.3475 
2 *5862:X *634:18 20.3502 
3 *634:18 *634:22 27.2718 
4 *634:22 *5521:CLK 46.386 
5 *634:22 *5523:CLK 42.6986 
6 *634:18 *634:44 1.4008 
7 *634:44 *634:50 48.0134 
8 *634:50 *5583:CLK 20 
9 *634:50 *5577:CLK 28.4872 
10 *634:44 *5581:CLK 20 
*END

*D_NET *635 0.0075675
*CONN
*I *5579:CLK I *D sg13g2_dfrbpq_1
*I *5889:A I *D sg13g2_inv_1
*I *5575:CLK I *D sg13g2_dfrbpq_1
*I *5515:CLK I *D sg13g2_dfrbpq_1
*I *5519:CLK I *D sg13g2_dfrbpq_1
*I *5517:CLK I *D sg13g2_dfrbpq_1
*I *5863:X O *D sg13g2_buf_16
*CAP
1 *5579:CLK 0.000232021
2 *5889:A 0.000114727
3 *5575:CLK 0.000548993
4 *5515:CLK 0.000549445
5 *5519:CLK 0.000114867
6 *5517:CLK 0.000622076
7 *5863:X 0.000422462
8 *635:36 0.00168252
9 *635:12 0.00134451
10 *635:6 0.00126736
11 *5515:CLK *5060:A 0
12 *5515:CLK *5060:B_N 0
13 *5515:CLK *5895:A 0
14 *5515:CLK *659:37 0
15 *5517:CLK *658:16 0
16 *5517:CLK *658:24 0.000668518
17 *5517:CLK *706:10 0
18 *5517:CLK *709:24 0
19 *5519:CLK *658:16 0
20 *5519:CLK *706:10 0
21 *5575:CLK *5057:A 0
22 *5575:CLK *5060:A 0
23 *5575:CLK *5140:B1 0
24 *5575:CLK *5575:RESET_B 0
25 *5575:CLK *709:99 0
26 *5575:CLK *1090:25 0
27 *635:36 *709:99 0
28 *5062:A *5515:CLK 0
*RES
1 *5863:X *635:6 20.9682 
2 *635:6 *635:12 46.5302 
3 *635:12 *5517:CLK 26.6023 
4 *635:12 *5519:CLK 21.1021 
5 *635:6 *635:36 27.4366 
6 *635:36 *5515:CLK 45.4281 
7 *635:36 *5575:CLK 46.2315 
8 *5863:X *5889:A 41.6171 
9 *5863:X *5579:CLK 42.678 
*END

*D_NET *636 0.0177859
*CONN
*I *5569:CLK I *D sg13g2_dfrbpq_1
*I *5559:CLK I *D sg13g2_dfrbpq_1
*I *5557:CLK I *D sg13g2_dfrbpq_1
*I *5613:CLK I *D sg13g2_dfrbpq_1
*I *5509:CLK I *D sg13g2_dfrbpq_1
*I *5864:X O *D sg13g2_buf_16
*CAP
1 *5569:CLK 0.000183879
2 *5559:CLK 0
3 *5557:CLK 0.000676358
4 *5613:CLK 0
5 *5509:CLK 0
6 *5864:X 3.17569e-05
7 *636:48 0.000956274
8 *636:42 0.00107045
9 *636:38 0.0011934
10 *636:31 0.00151602
11 *636:20 0.00150465
12 *636:10 0.00309579
13 *636:8 0.00032586
14 *5557:CLK *5117:A 4.77425e-05
15 *5557:CLK *5557:RESET_B 0
16 *5557:CLK *1111:23 0.000907769
17 *5557:CLK *1111:27 0.000273287
18 *5569:CLK *723:10 0
19 *5569:CLK *1119:90 0.000181192
20 *5569:CLK *1119:105 0
21 *636:10 *1119:8 0.000288502
22 *636:20 *5054:A 0
23 *636:20 *5571:RESET_B 0.000427422
24 *636:20 *637:25 0
25 *636:20 *662:44 0
26 *636:20 *706:94 0
27 *636:20 *1018:114 0
28 *636:20 *1090:12 0.000274557
29 *636:20 *1119:8 0.000159511
30 *636:20 *1119:14 7.51285e-05
31 *636:20 *1119:23 4.77425e-05
32 *636:31 *4998:D 0.000792229
33 *636:31 *1017:97 0.000177279
34 *636:31 *1019:30 0.000630295
35 *636:31 *1019:40 8.0216e-05
36 *636:31 *1119:23 0
37 *636:31 *1119:33 0.000226315
38 *636:31 *1119:35 6.46834e-05
39 *636:38 *1119:8 0.000502791
40 *636:38 *1119:90 0.00031935
41 *636:42 *723:10 8.01776e-05
42 *636:42 *1007:36 0.000403575
43 *636:42 *1007:42 0
44 *636:42 *1008:19 0
45 *636:42 *1120:8 0
46 *636:48 *1008:19 0.000823472
47 *636:48 *1114:10 0.000234726
48 *636:48 *1114:23 5.30319e-05
49 *4998:B *636:31 0
50 *4998:A *636:31 0
51 *5142:D *636:31 0
52 *5159:B *636:31 0
53 *5557:D *5557:CLK 0
54 *287:29 *636:31 0
55 *287:39 *636:31 0
56 *348:14 *636:20 0
57 *349:10 *636:48 0
58 *349:25 *636:48 0
59 *355:8 *636:48 0
60 *356:8 *5557:CLK 8.0342e-05
61 *357:8 *636:48 0
62 *367:96 *5569:CLK 0
63 *367:96 *636:10 0
64 *367:96 *636:20 0
65 *367:96 *636:38 0
66 *369:10 *636:20 8.01445e-05
67 *373:18 *636:31 0
68 *389:18 *636:31 0
*RES
1 *5864:X *636:8 40.3193 
2 *636:8 *636:10 1.339 
3 *636:10 *636:20 35.4912 
4 *636:20 *5509:CLK 20 
5 *636:10 *636:31 36.3014 
6 *636:31 *5613:CLK 20 
7 *636:8 *636:38 3.811 
8 *636:38 *636:42 28.3224 
9 *636:42 *636:48 44.3054 
10 *636:48 *5557:CLK 27.8898 
11 *636:42 *5559:CLK 20 
12 *636:38 *5569:CLK 42.1218 
*END

*D_NET *637 0.00985577
*CONN
*I *5571:CLK I *D sg13g2_dfrbpq_1
*I *5511:CLK I *D sg13g2_dfrbpq_1
*I *5513:CLK I *D sg13g2_dfrbpq_1
*I *5497:CLK I *D sg13g2_dfrbpq_1
*I *5573:CLK I *D sg13g2_dfrbpq_1
*I *5865:X O *D sg13g2_buf_16
*CAP
1 *5571:CLK 0.000239872
2 *5511:CLK 0
3 *5513:CLK 0
4 *5497:CLK 0
5 *5573:CLK 0.000370003
6 *5865:X 0.000416316
7 *637:48 0.00108827
8 *637:42 0.00154767
9 *637:31 0.000196592
10 *637:25 0.00199392
11 *637:8 0.00188438
12 *5571:CLK *5571:RESET_B 0
13 *5573:CLK *5573:RESET_B 0
14 *5573:CLK *709:99 0.000979579
15 *5573:CLK *719:25 0
16 *637:8 *5571:RESET_B 0
17 *637:25 *5034:B1 0
18 *637:25 *5559:RESET_B 0
19 *637:25 *706:94 0
20 *637:25 *709:99 0.00021346
21 *637:25 *719:25 0
22 *637:25 *1018:114 0.000242045
23 *637:31 *5034:A1 0
24 *637:31 *803:8 0
25 *637:31 *842:8 0
26 *637:42 *6052:A 0
27 *637:42 *842:8 0
28 *637:42 *842:26 0
29 *637:42 *969:8 0.000555409
30 *637:48 *5513:RESET_B 0
31 *637:48 *6077:A 0
32 *637:48 *706:75 0
33 *5035:A *637:25 0
34 *5035:A *637:42 0
35 *5559:D *637:25 0
36 *89:10 *637:31 0.000128247
37 *319:8 *637:48 0
38 *636:20 *637:25 0
*RES
1 *5865:X *637:8 41.8334 
2 *637:8 *5573:CLK 45.0882 
3 *637:8 *637:25 33.963 
4 *637:25 *637:31 42.3278 
5 *637:31 *5497:CLK 20 
6 *637:25 *637:42 25.8916 
7 *637:42 *637:48 32.7514 
8 *637:48 *5513:CLK 20 
9 *637:42 *5511:CLK 40 
10 *5865:X *5571:CLK 42.3175 
*END

*D_NET *638 0.0122137
*CONN
*I *5619:CLK I *D sg13g2_dfrbpq_1
*I *5617:CLK I *D sg13g2_dfrbpq_1
*I *5829:CLK I *D sg13g2_dfrbpq_1
*I *5817:CLK I *D sg13g2_dfrbpq_1
*I *5827:CLK I *D sg13g2_dfrbpq_1
*I *5815:CLK I *D sg13g2_dfrbpq_1
*I *5866:X O *D sg13g2_buf_16
*CAP
1 *5619:CLK 0.000201867
2 *5617:CLK 0.000618486
3 *5829:CLK 0
4 *5817:CLK 9.21267e-05
5 *5827:CLK 0.00071833
6 *5815:CLK 9.42018e-05
7 *5866:X 0.000306406
8 *638:59 0.000606181
9 *638:51 0.00158065
10 *638:47 0.000857923
11 *638:29 0.00174188
12 *638:16 0.00167722
13 *638:10 0.00125807
14 *5617:CLK *5231:B 0
15 *5617:CLK *5617:RESET_B 0
16 *5619:CLK *5619:RESET_B 0
17 *5619:CLK *1023:16 0
18 *5619:CLK *1023:20 0
19 *5815:CLK *5815:RESET_B 0
20 *5815:CLK *1052:16 0
21 *5817:CLK *5019:A1 0
22 *5817:CLK *5685:CLK 0
23 *5827:CLK *5019:A1 0
24 *5827:CLK *5685:CLK 0
25 *638:10 *5234:A2 4.77537e-05
26 *638:10 *715:78 0
27 *638:10 *1017:26 0
28 *638:10 *1046:38 0.0001944
29 *638:16 *5016:A 0
30 *638:16 *5815:RESET_B 0
31 *638:16 *686:73 0.000555321
32 *638:16 *715:74 0
33 *638:16 *1052:16 0
34 *638:29 *4986:A 0
35 *638:29 *686:38 0
36 *638:29 *715:57 0
37 *638:29 *1051:14 0
38 *638:47 *5234:B1 0
39 *638:47 *1023:20 0
40 *638:51 *5619:RESET_B 0.000265245
41 *638:51 *1023:39 0
42 *638:59 *715:108 0
43 *638:59 *718:41 0
44 *638:59 *957:8 0.000288588
45 *638:59 *1023:84 0
46 *638:59 *1046:16 0.000501044
47 *4987:B1 *5827:CLK 0
48 *5235:B2 *638:10 0
49 *5237:A *638:10 0
50 *5866:A *5617:CLK 0
51 *150:8 *638:16 7.56308e-05
52 *150:8 *638:47 0.000532395
53 *266:10 *638:29 0
54 *266:18 *5827:CLK 0
55 *295:10 *5827:CLK 0
56 *446:8 *638:16 0
57 *446:8 *638:47 0
58 *605:29 *638:29 0
59 *609:6 *5617:CLK 0
*RES
1 *5866:X *638:10 43.0179 
2 *638:10 *638:16 28.1164 
3 *638:16 *5815:CLK 20.9682 
4 *638:16 *638:29 49.7438 
5 *638:29 *5827:CLK 27.622 
6 *638:29 *5817:CLK 20.9682 
7 *638:10 *638:47 4.0582 
8 *638:47 *638:51 23.7801 
9 *638:51 *638:59 47.6529 
10 *638:59 *5829:CLK 20 
11 *638:51 *5617:CLK 25.5105 
12 *638:47 *5619:CLK 42.369 
*END

*D_NET *639 0.009934
*CONN
*I *5890:A I *D sg13g2_inv_1
*I *5813:CLK I *D sg13g2_dfrbpq_1
*I *5587:CLK I *D sg13g2_dfrbpq_1
*I *5585:CLK I *D sg13g2_dfrbpq_1
*I *5821:CLK I *D sg13g2_dfrbpq_1
*I *5685:CLK I *D sg13g2_dfrbpq_1
*I *5867:X O *D sg13g2_buf_16
*CAP
1 *5890:A 0
2 *5813:CLK 0.000175988
3 *5587:CLK 0
4 *5585:CLK 0.000711621
5 *5821:CLK 0
6 *5685:CLK 0.00174602
7 *5867:X 8.74018e-05
8 *639:38 0.00128033
9 *639:18 0.00191127
10 *639:16 0.00108824
11 *639:10 0.00119761
12 *639:8 0.000754737
13 *5585:CLK *5110:A1 0.000727651
14 *5585:CLK *5585:RESET_B 0
15 *5585:CLK *5587:RESET_B 1.54556e-05
16 *5585:CLK *1015:107 0
17 *5585:CLK *1097:16 0
18 *5685:CLK *5019:A1 0
19 *5685:CLK *5817:RESET_B 0
20 *5685:CLK *5821:RESET_B 0
21 *5685:CLK *5827:RESET_B 0
22 *5685:CLK *1099:10 0
23 *5813:CLK *5813:RESET_B 0
24 *5813:CLK *718:22 0
25 *639:10 *668:31 0
26 *639:10 *700:24 0.000237686
27 *639:16 *4983:B 0
28 *639:16 *5813:RESET_B 0
29 *639:16 *5898:A 0
30 *639:38 *657:16 0
31 *639:38 *668:31 0
32 *639:38 *1097:8 0
33 *639:38 *1097:16 0
34 *5817:D *5685:CLK 0
35 *5817:CLK *5685:CLK 0
36 *5827:CLK *5685:CLK 0
37 *85:10 *5685:CLK 0
38 *261:12 *5585:CLK 0
39 *261:12 *639:38 0
40 *261:25 *639:38 0
41 *295:10 *5685:CLK 0
42 *390:12 *5585:CLK 0
*RES
1 *5867:X *639:8 41.0918 
2 *639:8 *639:10 7.519 
3 *639:10 *639:16 23.8522 
4 *639:16 *639:18 1.8334 
5 *639:18 *5685:CLK 38.7872 
6 *639:18 *5821:CLK 20 
7 *639:16 *639:38 26.7774 
8 *639:38 *5585:CLK 47.9928 
9 *639:38 *5587:CLK 40 
10 *639:10 *5813:CLK 41.8334 
11 *639:8 *5890:A 40 
*END

*D_NET *640 0.00750878
*CONN
*I *5721:CLK I *D sg13g2_dfrbpq_1
*I *5669:CLK I *D sg13g2_dfrbpq_1
*I *5671:CLK I *D sg13g2_dfrbpq_1
*I *5655:CLK I *D sg13g2_dfrbpq_1
*I *5639:CLK I *D sg13g2_dfrbpq_1
*I *5868:X O *D sg13g2_buf_16
*CAP
1 *5721:CLK 0.000781906
2 *5669:CLK 0
3 *5671:CLK 2.89906e-05
4 *5655:CLK 0.000176092
5 *5639:CLK 0
6 *5868:X 0.000923301
7 *640:48 0.00149628
8 *640:18 0.000903485
9 *640:12 0.00186667
10 *640:8 0.00102501
11 *5655:CLK *5902:A 0
12 *5655:CLK *703:48 0.000307057
13 *5671:CLK *5671:RESET_B 0
14 *5721:CLK *5721:RESET_B 0
15 *640:8 *663:63 0
16 *640:18 *5289:A 0
17 *640:18 *675:18 0
18 *5291:A *640:18 0
19 *5291:C *640:18 0
20 *6012:A *640:18 0
*RES
1 *5868:X *640:8 22.4308 
2 *640:8 *640:12 29.2494 
3 *640:12 *640:18 28.9893 
4 *640:18 *5639:CLK 20 
5 *640:12 *5655:CLK 42.0497 
6 *640:8 *5671:CLK 20.3193 
7 *5868:X *640:48 47.7662 
8 *640:48 *5669:CLK 40 
9 *640:48 *5721:CLK 49.5996 
*END

*D_NET *641 0.0090878
*CONN
*I *5691:CLK I *D sg13g2_dfrbpq_1
*I *5723:CLK I *D sg13g2_dfrbpq_1
*I *5687:CLK I *D sg13g2_dfrbpq_1
*I *5737:CLK I *D sg13g2_dfrbpq_1
*I *5739:CLK I *D sg13g2_dfrbpq_1
*I *5869:X O *D sg13g2_buf_16
*CAP
1 *5691:CLK 0
2 *5723:CLK 0
3 *5687:CLK 0.000205369
4 *5737:CLK 0.00037984
5 *5739:CLK 0
6 *5869:X 4.72978e-05
7 *641:50 0.00189019
8 *641:25 0.00121082
9 *641:14 0.00138807
10 *641:10 0.000984266
11 *641:6 0.00215931
12 *5687:CLK *5687:RESET_B 0
13 *5737:CLK *5737:RESET_B 0
14 *5737:CLK *6079:A 0
15 *641:10 *5723:RESET_B 0
16 *641:14 *667:25 0
17 *641:25 *667:25 0
18 *641:25 *972:23 0
19 *641:50 *5370:A0 0
20 *641:50 *5723:RESET_B 0
21 *641:50 *718:60 0.000822643
22 *610:12 *641:50 0
*RES
1 *5869:X *641:6 20.5974 
2 *641:6 *641:10 2.3999 
3 *641:10 *641:14 29.7438 
4 *641:14 *5739:CLK 40 
5 *641:14 *641:25 28.0134 
6 *641:25 *5737:CLK 23.9964 
7 *641:25 *5687:CLK 22.266 
8 *641:10 *5723:CLK 20 
9 *641:6 *641:50 42.1759 
10 *641:50 *5691:CLK 40 
*END

*D_NET *642 0.0130946
*CONN
*I *5503:CLK I *D sg13g2_dfrbpq_1
*I *5811:CLK I *D sg13g2_dfrbpq_1
*I *5505:CLK I *D sg13g2_dfrbpq_1
*I *5501:CLK I *D sg13g2_dfrbpq_1
*I *5561:CLK I *D sg13g2_dfrbpq_1
*I *5755:CLK I *D sg13g2_dfrbpq_1
*I *5870:X O *D sg13g2_buf_16
*CAP
1 *5503:CLK 0.000101511
2 *5811:CLK 0
3 *5505:CLK 0.000687691
4 *5501:CLK 0
5 *5561:CLK 0.000818114
6 *5755:CLK 0.000343104
7 *5870:X 0.000383497
8 *642:68 0.00145603
9 *642:35 0.0013451
10 *642:29 0.00158187
11 *642:25 0.00187431
12 *642:23 0.000776466
13 *642:10 0.000966972
14 *642:8 0.000383497
15 *5503:CLK *5043:A2 7.9703e-05
16 *5503:CLK *6059:A 0
17 *5505:CLK *5046:A2 0
18 *5505:CLK *716:28 0
19 *5505:CLK *1000:28 0
20 *5561:CLK *5039:A 0
21 *5561:CLK *5045:A 0
22 *5561:CLK *5048:A 0
23 *5561:CLK *662:38 0.000274709
24 *5561:CLK *665:51 0
25 *5561:CLK *719:25 0
26 *5561:CLK *1115:16 0
27 *5755:CLK *5755:RESET_B 0
28 *5755:CLK *665:22 0
29 *642:8 *716:75 0
30 *642:23 *5043:A1 0
31 *642:23 *665:22 0
32 *642:23 *716:75 0
33 *642:23 *876:8 0
34 *642:29 *716:60 0
35 *642:35 *716:28 0
36 *642:35 *716:60 0
37 *642:35 *719:25 0
38 *642:35 *864:8 0
39 *642:68 *4963:A 8.03692e-05
40 *642:68 *5043:B1 0
41 *642:68 *5043:A1 0
42 *642:68 *5043:A2 0
43 *642:68 *5108:A 0
44 *642:68 *6059:A 0
45 *642:68 *665:22 0
46 *642:68 *703:14 0
47 *642:68 *703:27 3.23417e-05
48 *642:68 *703:31 0.000630922
49 *5755:D *642:68 8.03692e-05
50 *5871:A *5505:CLK 0.000436558
51 *5871:A *642:35 0.000176902
52 *79:27 *642:8 0
53 *247:8 *642:68 0.000242121
54 *311:8 *642:29 0
55 *605:118 *642:68 0
56 *605:122 *642:68 0
57 *605:134 *642:68 0
58 *611:12 *642:8 0.00034245
*RES
1 *5870:X *642:8 45.2942 
2 *642:8 *642:10 20 
3 *642:10 *5755:CLK 23.7801 
4 *642:10 *642:23 26.2006 
5 *642:23 *642:25 0.5974 
6 *642:25 *642:29 24.0582 
7 *642:29 *642:35 24.9955 
8 *642:35 *5561:CLK 48.858 
9 *642:35 *5501:CLK 40 
10 *642:29 *5505:CLK 26.8083 
11 *642:25 *642:68 35.0483 
12 *642:68 *5811:CLK 20 
13 *642:23 *5503:CLK 41.1845 
*END

*D_NET *643 0.0116014
*CONN
*I *5507:CLK I *D sg13g2_dfrbpq_1
*I *5553:CLK I *D sg13g2_dfrbpq_1
*I *5565:CLK I *D sg13g2_dfrbpq_1
*I *5499:CLK I *D sg13g2_dfrbpq_1
*I *5493:CLK I *D sg13g2_dfrbpq_1
*I *5891:A I *D sg13g2_inv_1
*I *5871:X O *D sg13g2_buf_16
*CAP
1 *5507:CLK 0
2 *5553:CLK 0
3 *5565:CLK 0.000759038
4 *5499:CLK 0
5 *5493:CLK 0.000862394
6 *5891:A 0
7 *5871:X 0.000216509
8 *643:49 0.000759038
9 *643:42 0.0013266
10 *643:34 0.00192359
11 *643:32 0.0010525
12 *643:19 0.00108731
13 *643:8 0.000896938
14 *5493:CLK *5505:RESET_B 0
15 *5493:CLK *5949:A 0
16 *5493:CLK *718:14 0
17 *5493:CLK *719:73 0
18 *5493:CLK *798:18 0.000274583
19 *5493:CLK *864:36 0.00144147
20 *5565:CLK *5048:A 0
21 *5565:CLK *5110:A2 0
22 *5565:CLK *5553:RESET_B 0
23 *5565:CLK *5561:RESET_B 0
24 *5565:CLK *5565:RESET_B 0
25 *5565:CLK *660:18 0
26 *5565:CLK *660:29 0
27 *643:8 *665:77 0
28 *643:8 *718:14 0
29 *643:19 *667:54 0.000820429
30 *643:19 *898:8 0
31 *643:32 *665:77 0
32 *643:32 *667:54 0
33 *643:32 *718:14 0
34 *643:32 *898:8 0
35 *643:34 *1089:10 0
36 *643:34 *1089:28 0
37 *643:42 *5037:A2 0
38 *643:42 *707:27 0
39 *643:42 *707:74 0
40 *643:42 *1089:10 0
41 *643:42 *1100:8 0
42 *5047:A *5493:CLK 0
43 *5505:D *5493:CLK 0
44 *313:8 *643:19 0.000180955
45 *315:8 *643:34 0
*RES
1 *5871:X *643:8 21.9673 
2 *643:8 *5891:A 20 
3 *643:8 *643:19 43.811 
4 *643:19 *5493:CLK 29.6202 
5 *643:8 *643:32 24.6556 
6 *643:32 *643:34 6.7774 
7 *643:34 *643:42 34.2758 
8 *643:42 *5499:CLK 20 
9 *643:34 *643:49 20 
10 *643:49 *5565:CLK 27.8898 
11 *643:49 *5553:CLK 20 
12 *643:32 *5507:CLK 40 
*END

*D_NET *644 0.009245
*CONN
*I *5665:CLK I *D sg13g2_dfrbpq_1
*I *5749:CLK I *D sg13g2_dfrbpq_1
*I *5733:CLK I *D sg13g2_dfrbpq_1
*I *5633:CLK I *D sg13g2_dfrbpq_1
*I *5649:CLK I *D sg13g2_dfrbpq_1
*I *5717:CLK I *D sg13g2_dfrbpq_1
*I *5872:X O *D sg13g2_buf_16
*CAP
1 *5665:CLK 0
2 *5749:CLK 0.00069586
3 *5733:CLK 0.000365148
4 *5633:CLK 0.000620375
5 *5649:CLK 0
6 *5717:CLK 0
7 *5872:X 0.000165508
8 *644:47 0.00170092
9 *644:31 0.00100526
10 *644:24 0.000553136
11 *644:14 0.00154958
12 *644:10 0.00125146
13 *644:8 0.000165508
14 *5633:CLK *5649:RESET_B 0
15 *5633:CLK *1085:10 0
16 *5633:CLK *1085:36 0
17 *5733:CLK *5397:B 0.000371102
18 *5733:CLK *5733:RESET_B 0
19 *5749:CLK *5749:RESET_B 0
20 *5749:CLK *1086:25 0
21 *644:14 *1062:18 0.000508868
22 *644:24 *5717:RESET_B 0
23 *644:24 *714:49 0
24 *644:24 *714:55 0
25 *644:24 *1031:31 0.000292275
26 *644:31 *5281:A1 0
27 *644:31 *5281:A2 0
28 *644:31 *714:49 0
29 *644:31 *1062:18 0
30 *69:10 *644:14 0
31 *69:10 *644:47 0
32 *199:8 *644:24 0
*RES
1 *5872:X *644:8 21.751 
2 *644:8 *644:10 20 
3 *644:10 *644:14 27.519 
4 *644:14 *644:24 45.4384 
5 *644:24 *5717:CLK 20 
6 *644:14 *644:31 3.9964 
7 *644:31 *5649:CLK 20 
8 *644:31 *5633:CLK 27.0658 
9 *644:10 *644:47 7.0246 
10 *644:47 *5733:CLK 43.9964 
11 *644:47 *5749:CLK 47.5602 
12 *644:8 *5665:CLK 20 
*END

*D_NET *645 0.00806833
*CONN
*I *5823:CLK I *D sg13g2_dfrbpq_1
*I *5819:CLK I *D sg13g2_dfrbpq_1
*I *5825:CLK I *D sg13g2_dfrbpq_1
*I *5753:CLK I *D sg13g2_dfrbpq_1
*I *5525:CLK I *D sg13g2_dfrbpq_1
*I *5873:X O *D sg13g2_buf_16
*CAP
1 *5823:CLK 0.000577266
2 *5819:CLK 0
3 *5825:CLK 0.000650132
4 *5753:CLK 0
5 *5525:CLK 0
6 *5873:X 0.000375461
7 *645:38 0.00138914
8 *645:32 0.00131628
9 *645:18 0.000941424
10 *645:12 0.00118183
11 *645:10 0.000615862
12 *5823:CLK *5811:RESET_B 0
13 *5823:CLK *667:42 0
14 *5823:CLK *1000:28 0
15 *5823:CLK *1116:97 0
16 *5825:CLK *5017:B1 0
17 *5825:CLK *5017:A1 0
18 *5825:CLK *5819:RESET_B 0
19 *645:10 *5811:RESET_B 0.000274518
20 *645:10 *5811:D 0.000181608
21 *645:12 *1000:8 0
22 *645:18 *5075:A1 0.000209895
23 *645:18 *662:25 0
24 *645:18 *707:54 4.77699e-05
25 *645:18 *1000:8 0
26 *645:18 *1017:52 0
27 *645:38 *5811:D 0
28 *5018:A2 *5825:CLK 0
29 *261:31 *645:18 0
30 *605:118 *645:10 0
31 *611:6 *5823:CLK 0.00030715
*RES
1 *5873:X *645:10 45.1191 
2 *645:10 *645:12 2.3278 
3 *645:12 *645:18 30.3412 
4 *645:18 *5525:CLK 20 
5 *645:12 *5753:CLK 40 
6 *645:10 *645:32 20 
7 *645:32 *645:38 8.343 
8 *645:38 *5825:CLK 26.9216 
9 *645:38 *5819:CLK 20 
10 *645:32 *5823:CLK 26.1594 
*END

*D_NET *646 0.0133281
*CONN
*I *5527:CLK I *D sg13g2_dfrbpq_1
*I *5495:CLK I *D sg13g2_dfrbpq_1
*I *5555:CLK I *D sg13g2_dfrbpq_1
*I *5563:CLK I *D sg13g2_dfrbpq_1
*I *5567:CLK I *D sg13g2_dfrbpq_1
*I *5874:X O *D sg13g2_buf_16
*CAP
1 *5527:CLK 4.72978e-05
2 *5495:CLK 0
3 *5555:CLK 0
4 *5563:CLK 0
5 *5567:CLK 0
6 *5874:X 0.00113032
7 *646:64 0.000648845
8 *646:58 0.00118064
9 *646:52 0.00125656
10 *646:39 0.00122547
11 *646:33 0.00221937
12 *646:14 0.000613952
13 *646:8 0.00152244
14 *646:8 *666:30 0
15 *646:8 *1115:8 0
16 *646:14 *1116:8 0
17 *646:33 *666:30 0
18 *646:39 *5107:A1 0.00034055
19 *646:39 *5896:A 0.00136295
20 *646:39 *660:18 0
21 *646:39 *662:40 0
22 *646:39 *707:27 0
23 *646:39 *708:14 0
24 *646:39 *1089:10 0
25 *646:39 *1100:8 0
26 *646:52 *5077:A1 0
27 *646:52 *5507:RESET_B 0
28 *646:52 *666:30 0.0011488
29 *646:52 *667:54 0
30 *646:52 *898:29 0.000630958
31 *646:58 *5049:B1 0
32 *646:58 *5077:A2 0
33 *646:58 *5527:RESET_B 0
34 *646:58 *898:29 0
35 *646:64 *5031:A2 0
36 *646:64 *6051:A 0
37 *646:64 *707:95 0
38 *261:31 *646:8 0
39 *261:31 *646:33 0
40 *261:31 *646:52 0
41 *315:8 *646:39 0
42 *333:8 *646:64 0
*RES
1 *5874:X *646:8 29.7541 
2 *646:8 *646:14 46.7774 
3 *646:14 *5567:CLK 20 
4 *646:8 *5563:CLK 20 
5 *5874:X *646:33 42.4823 
6 *646:33 *646:39 33.8947 
7 *646:39 *5555:CLK 20 
8 *646:33 *646:52 48.7653 
9 *646:52 *646:58 24.7174 
10 *646:58 *646:64 46.283 
11 *646:64 *5495:CLK 20 
12 *646:58 *5527:CLK 20.5974 
*END

*D_NET *647 0.00934071
*CONN
*I *5667:CLK I *D sg13g2_dfrbpq_1
*I *5651:CLK I *D sg13g2_dfrbpq_1
*I *5635:CLK I *D sg13g2_dfrbpq_1
*I *5883:A I *D sg13g2_inv_1
*I *5719:CLK I *D sg13g2_dfrbpq_1
*I *5703:CLK I *D sg13g2_dfrbpq_1
*I *5875:X O *D sg13g2_buf_16
*CAP
1 *5667:CLK 0.000933037
2 *5651:CLK 0
3 *5635:CLK 0.000646118
4 *5883:A 7.5959e-05
5 *5719:CLK 0.000433892
6 *5703:CLK 0.000212185
7 *5875:X 0.00024549
8 *647:54 0.00104041
9 *647:34 0.00103622
10 *647:32 0.000421515
11 *647:12 0.00156406
12 *647:8 0.00116347
13 *5635:CLK *5260:A2 4.77425e-05
14 *5635:CLK *5635:RESET_B 0
15 *5635:CLK *683:24 0
16 *5635:CLK *1086:25 0
17 *5667:CLK *683:52 0
18 *5667:CLK *1021:26 0
19 *5703:CLK *711:81 0
20 *5703:CLK *978:12 0
21 *5719:CLK *5383:B 0
22 *5719:CLK *711:81 0
23 *5719:CLK *841:10 0
24 *5883:A *671:28 0.000292789
25 *647:8 *669:25 0
26 *647:8 *671:28 0
27 *647:12 *5651:RESET_B 0
28 *647:12 *6085:A 0
29 *647:12 *669:25 0.000258364
30 *647:12 *669:31 0.000339552
31 *647:12 *711:71 0
32 *647:12 *995:23 0
33 *647:34 *671:28 0.000614504
34 *462:12 *5635:CLK 0
35 *494:12 *5667:CLK 1.54008e-05
*RES
1 *5875:X *647:8 22.3999 
2 *647:8 *647:12 29.6202 
3 *647:12 *5703:CLK 42.575 
4 *647:12 *5719:CLK 45.2942 
5 *647:8 *647:32 20 
6 *647:32 *647:34 4.3054 
7 *647:34 *5883:A 41.339 
8 *647:34 *5635:CLK 44.9626 
9 *647:32 *647:54 1.0918 
10 *647:54 *5651:CLK 40 
11 *647:54 *5667:CLK 48.858 
*END

*D_NET *648 0.00980594
*CONN
*I *5783:CLK I *D sg13g2_dfrbpq_1
*I *5701:CLK I *D sg13g2_dfrbpq_1
*I *5785:CLK I *D sg13g2_dfrbpq_1
*I *5769:CLK I *D sg13g2_dfrbpq_1
*I *5787:CLK I *D sg13g2_dfrbpq_1
*I *5789:CLK I *D sg13g2_dfrbpq_1
*I *5876:X O *D sg13g2_buf_16
*CAP
1 *5783:CLK 0.000466873
2 *5701:CLK 0
3 *5785:CLK 3.04133e-05
4 *5769:CLK 0.000591892
5 *5787:CLK 0.000140051
6 *5789:CLK 0.000862781
7 *5876:X 0.00017714
8 *648:66 0.00101652
9 *648:62 0.00178475
10 *648:31 0.0014897
11 *648:14 0.0017897
12 *648:12 0.000418964
13 *648:10 0.000697888
14 *5769:CLK *5455:A 0
15 *5769:CLK *5769:RESET_B 0
16 *5769:CLK *1004:116 0
17 *5783:CLK *5783:RESET_B 0
18 *5783:CLK *1004:29 0
19 *5783:CLK *1004:44 0
20 *5789:CLK *5458:B 0
21 *5789:CLK *6041:A 0
22 *5789:CLK *1001:25 0
23 *648:10 *714:39 0
24 *648:12 *5458:B 0
25 *648:14 *5458:B 0
26 *648:31 *5459:B 0
27 *648:31 *5785:RESET_B 0.000339267
28 *648:31 *6039:A 0
29 *648:31 *1011:46 0
30 *648:31 *1011:61 0
31 *648:62 *5458:B 0
32 *648:62 *1004:29 0
33 *648:66 *5348:A1 0
34 *648:66 *714:39 0
35 *5457:C *5769:CLK 0
36 *5457:D *648:31 0
37 *5460:D *648:31 0
38 *5876:A *648:66 0
39 *69:20 *5783:CLK 0
40 *234:8 *5769:CLK 0
41 *234:8 *5787:CLK 0
42 *584:10 *5789:CLK 0
*RES
1 *5876:X *648:10 41.9673 
2 *648:10 *648:12 2.0806 
3 *648:12 *648:14 1.5862 
4 *648:14 *5789:CLK 48.3018 
5 *648:14 *648:31 48.3224 
6 *648:31 *5787:CLK 41.339 
7 *648:31 *5769:CLK 46.5714 
8 *648:12 *5785:CLK 40.5356 
9 *648:10 *648:62 2.8222 
10 *648:62 *648:66 31.3506 
11 *648:66 *5701:CLK 20 
12 *648:62 *5783:CLK 44.3466 
*END

*D_NET *649 0.0130402
*CONN
*I *5809:CLK I *D sg13g2_dfrbpq_1
*I *5767:CLK I *D sg13g2_dfrbpq_1
*I *5539:CLK I *D sg13g2_dfrbpq_1
*I *5541:CLK I *D sg13g2_dfrbpq_1
*I *5773:CLK I *D sg13g2_dfrbpq_1
*I *5884:A I *D sg13g2_inv_1
*I *5877:X O *D sg13g2_buf_16
*CAP
1 *5809:CLK 0
2 *5767:CLK 0
3 *5539:CLK 0
4 *5541:CLK 0
5 *5773:CLK 0
6 *5884:A 0
7 *5877:X 0.000257038
8 *649:67 0.00104482
9 *649:42 0.00108005
10 *649:38 0.0033113
11 *649:36 0.00227897
12 *649:34 0.0018135
13 *649:25 0.00137046
14 *649:12 0.000649513
15 *649:10 0.000257038
16 *649:10 *699:26 0
17 *649:25 *699:16 0
18 *649:25 *699:26 0.000307117
19 *649:25 *1123:47 0
20 *649:34 *699:16 0
21 *649:34 *720:12 0
22 *649:38 *693:24 0
23 *649:38 *710:8 0
24 *649:42 *765:16 0.00067038
25 *649:67 *1010:52 0
26 *649:67 *1044:22 0
27 *5436:A1 *649:25 0
28 *5488:B1 *649:67 0
29 *5769:D *649:25 0
30 *227:8 *649:25 0
31 *554:6 *649:67 0
32 *557:18 *649:10 0
33 *604:10 *649:67 0
*RES
1 *5877:X *649:10 42.7398 
2 *649:10 *649:12 20 
3 *649:12 *5884:A 20 
4 *649:12 *649:25 47.313 
5 *649:25 *5773:CLK 20 
6 *649:25 *649:34 27.8898 
7 *649:34 *649:36 0.5974 
8 *649:36 *649:38 24.5758 
9 *649:38 *649:42 32.9574 
10 *649:42 *5541:CLK 20 
11 *649:38 *5539:CLK 40 
12 *649:36 *5767:CLK 40 
13 *649:34 *649:67 31.2064 
14 *649:67 *5809:CLK 20 
*END

*D_NET *650 0.0108044
*CONN
*I *5781:CLK I *D sg13g2_dfrbpq_1
*I *5777:CLK I *D sg13g2_dfrbpq_1
*I *5779:CLK I *D sg13g2_dfrbpq_1
*I *5763:CLK I *D sg13g2_dfrbpq_1
*I *5775:CLK I *D sg13g2_dfrbpq_1
*I *5878:X O *D sg13g2_buf_16
*CAP
1 *5781:CLK 0
2 *5777:CLK 0.000648571
3 *5779:CLK 0.000219486
4 *5763:CLK 0.00117945
5 *5775:CLK 0
6 *5878:X 0.000151201
7 *650:64 0.000995551
8 *650:51 0.00188303
9 *650:40 0.00104297
10 *650:18 0.00181171
11 *650:12 0.00136804
12 *5763:CLK *5423:A 0
13 *5763:CLK *5763:RESET_B 0
14 *5763:CLK *682:24 0
15 *5763:CLK *1009:24 0
16 *5763:CLK *1014:8 0.000533512
17 *5763:CLK *1052:16 0
18 *5777:CLK *5486:A1 0
19 *5777:CLK *1131:12 0
20 *650:12 *1014:29 0
21 *650:18 *5959:A 0.000241979
22 *650:18 *714:95 0.000234224
23 *650:18 *1009:24 0
24 *650:18 *1014:8 0.000259111
25 *650:18 *1014:29 0
26 *650:40 *5807:RESET_B 0
27 *650:51 *681:64 0
28 *650:64 *5447:A 0
29 *650:64 *5447:B 0
30 *650:64 *5779:RESET_B 0
31 *650:64 *5781:RESET_B 0
32 *650:64 *5914:A 0
33 *650:64 *1009:48 0
34 *650:64 *1011:81 0
35 *5442:B1 *5777:CLK 0
36 *5445:D *650:64 0
37 *5487:A *650:18 0
38 *5807:CLK *650:12 0
39 *5960:A *5763:CLK 0
40 *229:10 *5777:CLK 0.000235556
41 *572:8 *5777:CLK 0
42 *577:10 *650:64 0
43 *615:14 *5777:CLK 0
44 *615:14 *650:40 0
45 *615:14 *650:51 0
46 *633:45 *650:12 0
*RES
1 *5878:X *650:12 42.2248 
2 *650:12 *650:18 27.6529 
3 *650:18 *5775:CLK 20 
4 *650:18 *5763:CLK 32.7052 
5 *650:12 *650:40 26.4787 
6 *650:40 *5779:CLK 22.266 
7 *650:40 *650:51 23.0694 
8 *650:51 *5777:CLK 46.7774 
9 *650:51 *650:64 30.0528 
10 *650:64 *5781:CLK 20 
*END

*D_NET *651 0.00748529
*CONN
*I *5771:CLK I *D sg13g2_dfrbpq_1
*I *5761:CLK I *D sg13g2_dfrbpq_1
*I *5759:CLK I *D sg13g2_dfrbpq_1
*I *5491:CLK I *D sg13g2_dfrbpq_1
*I *5757:CLK I *D sg13g2_dfrbpq_1
*I *5879:X O *D sg13g2_buf_16
*CAP
1 *5771:CLK 0.000152521
2 *5761:CLK 0
3 *5759:CLK 0.000146188
4 *5491:CLK 0.00079063
5 *5757:CLK 0
6 *5879:X 0.000322714
7 *651:25 0.00174841
8 *651:21 0.00156262
9 *651:14 0.001519
10 *651:8 0.00124321
11 *5491:CLK *5759:RESET_B 0
12 *5491:CLK *899:10 0
13 *5491:CLK *1052:16 0
14 *5759:CLK *1033:12 0
15 *651:14 *5771:RESET_B 0
16 *651:14 *719:43 0
17 *651:21 *700:60 0
18 *651:21 *719:43 0
19 *651:21 *1010:6 0
20 *651:21 *1010:12 0
21 *651:21 *1035:22 0
22 *651:25 *5418:A 0
23 *651:25 *5420:B 0
24 *651:25 *1033:12 0
25 *651:25 *1126:46 0
26 *69:39 *5771:CLK 0
27 *69:39 *651:21 0
28 *551:28 *5771:CLK 0
29 *551:28 *651:14 0
*RES
1 *5879:X *651:8 43.3166 
2 *651:8 *651:14 28.2091 
3 *651:14 *5757:CLK 20 
4 *651:14 *651:21 4.4754 
5 *651:21 *651:25 29.0022 
6 *651:25 *5491:CLK 47.8898 
7 *651:25 *5759:CLK 41.8334 
8 *651:21 *5761:CLK 20 
9 *651:8 *5771:CLK 41.6171 
*END

*D_NET *652 0.0104517
*CONN
*I *5695:CLK I *D sg13g2_dfrbpq_1
*I *5697:CLK I *D sg13g2_dfrbpq_1
*I *5645:CLK I *D sg13g2_dfrbpq_1
*I *5643:CLK I *D sg13g2_dfrbpq_1
*I *5627:CLK I *D sg13g2_dfrbpq_1
*I *5797:CLK I *D sg13g2_dfrbpq_1
*I *5880:X O *D sg13g2_buf_16
*CAP
1 *5695:CLK 0.000529878
2 *5697:CLK 0
3 *5645:CLK 0.000763534
4 *5643:CLK 0.000901215
5 *5627:CLK 0.000185063
6 *5797:CLK 0.000815307
7 *5880:X 0
8 *652:51 0.00127273
9 *652:45 0.00123163
10 *652:30 0.00126313
11 *652:8 0.00123831
12 *652:6 0.000407303
13 *5627:CLK *5248:B1 0.000274611
14 *5627:CLK *685:8 0
15 *5643:CLK *5271:A 0
16 *5643:CLK *5272:A1 0
17 *5643:CLK *5342:A0 0.000112799
18 *5643:CLK *713:18 0
19 *5643:CLK *1032:23 0
20 *5643:CLK *1032:31 0
21 *5645:CLK *5942:A 0.000728089
22 *5645:CLK *5976:A 0
23 *5645:CLK *713:22 0.000453661
24 *5695:CLK *5695:RESET_B 0
25 *5797:CLK *5797:RESET_B 0
26 *5797:CLK *696:25 0
27 *5797:CLK *696:74 0
28 *5797:CLK *764:16 0
29 *5797:CLK *1022:93 0
30 *5797:CLK *1039:10 0
31 *652:8 *764:16 0
32 *652:30 *764:16 0
33 *652:45 *764:16 0
34 *652:51 *5976:A 0
35 *652:51 *713:22 0
36 *652:51 *1033:57 0
37 *5343:A *5643:CLK 0
38 *5695:D *652:51 0.000274479
39 *5880:A *5695:CLK 0
40 *454:8 *5797:CLK 0
41 *470:10 *5643:CLK 0
*RES
1 *5880:X *652:6 40 
2 *652:6 *652:8 2.575 
3 *652:8 *5797:CLK 47.8074 
4 *652:8 *5627:CLK 41.8334 
5 *652:6 *652:30 2.0806 
6 *652:30 *5643:CLK 48.4048 
7 *652:30 *652:45 2.0806 
8 *652:45 *652:51 24.7792 
9 *652:51 *5645:CLK 28.9816 
10 *652:51 *5697:CLK 20 
11 *652:45 *5695:CLK 45.15 
*END

*D_NET *653 0.00719051
*CONN
*I *5711:CLK I *D sg13g2_dfrbpq_1
*I *5745:CLK I *D sg13g2_dfrbpq_1
*I *5677:CLK I *D sg13g2_dfrbpq_1
*I *5661:CLK I *D sg13g2_dfrbpq_1
*I *5659:CLK I *D sg13g2_dfrbpq_1
*I *5885:A I *D sg13g2_inv_1
*I *5881:X O *D sg13g2_buf_16
*CAP
1 *5711:CLK 0.000232053
2 *5745:CLK 0.000157163
3 *5677:CLK 0
4 *5661:CLK 0.000755378
5 *5659:CLK 0.000799044
6 *5885:A 2.77263e-05
7 *5881:X 0
8 *653:58 0.000675064
9 *653:25 0.0017213
10 *653:19 0.000270703
11 *653:10 0.000528299
12 *653:6 0.000682601
13 *5659:CLK *5677:RESET_B 0.000339853
14 *5661:CLK *5323:A1 0.000598674
15 *5661:CLK *5323:B1 0
16 *5711:CLK *6062:A 0
17 *5711:CLK *6082:A 4.77537e-05
18 *5711:CLK *942:25 0
19 *5745:CLK *5745:RESET_B 0
20 *5745:CLK *6082:A 0.00027465
21 *5324:C *5661:CLK 0
22 *5881:A *5661:CLK 0
23 *5881:A *653:19 0
24 *5980:A *5711:CLK 0
25 *605:296 *5659:CLK 0
26 *605:296 *5661:CLK 0
27 *605:302 *5661:CLK 0
28 *605:306 *5661:CLK 0
29 *616:8 *5661:CLK 8.02434e-05
*RES
1 *5881:X *653:6 40 
2 *653:6 *653:10 24.5526 
3 *653:10 *5885:A 20.3502 
4 *653:10 *653:19 1.8334 
5 *653:19 *653:25 41.8334 
6 *653:25 *5659:CLK 28.6932 
7 *653:25 *5661:CLK 26.583 
8 *653:19 *5677:CLK 20 
9 *653:6 *653:58 23.5638 
10 *653:58 *5745:CLK 21.8334 
11 *653:58 *5711:CLK 22.266 
*END

*D_NET *654 0.00207188
*CONN
*I *5950:A I *D sg13g2_buf_1
*I *6033:X O *D sg13g2_buf_1
*CAP
1 *5950:A 0.000419592
2 *6033:X 0.000616347
3 *654:10 0.00103594
4 *5950:A *658:16 0
5 *5950:A *706:43 0
6 *6033:A *654:10 0
*RES
1 *6033:X *654:10 47.1894 
2 *654:10 *5950:A 44.8204 
*END

*D_NET *655 0.00191597
*CONN
*I *5072:A2 I *D sg13g2_o21ai_1
*I *6035:A I *D sg13g2_buf_1
*I *5523:Q O *D sg13g2_dfrbpq_1
*CAP
1 *5072:A2 3.32621e-05
2 *6035:A 0.000318779
3 *5523:Q 0.00059049
4 *655:8 0.00094253
5 *5072:A2 *5072:B1 1.54556e-05
6 *5072:A2 *5072:A1 1.54556e-05
7 *5072:A2 *5523:RESET_B 0
8 boot_addr[17] *6035:A 0
9 *5073:B1 *5072:A2 0
10 *5073:B1 *6035:A 0
11 *262:16 *655:8 0
*RES
1 *5523:Q *655:8 47.0246 
2 *655:8 *6035:A 42.9252 
3 *655:8 *5072:A2 40.3193 
*END

*D_NET *656 0.0117073
*CONN
*I *5215:A I *D sg13g2_nand3_1
*I *5214:A I *D sg13g2_and3_1
*I *5069:B_N I *D sg13g2_nor2b_1
*I *5070:A1 I *D sg13g2_o21ai_1
*I *5073:A1 I *D sg13g2_a21oi_1
*I *5072:A1 I *D sg13g2_o21ai_1
*I *5080:A1 I *D sg13g2_a21oi_1
*I *5892:X O *D sg13g2_buf_1
*CAP
1 *5215:A 0
2 *5214:A 2.60565e-05
3 *5069:B_N 9.1943e-05
4 *5070:A1 0.000150256
5 *5073:A1 0
6 *5072:A1 0.000220161
7 *5080:A1 0.000261661
8 *5892:X 0.000100831
9 *656:55 0.000660376
10 *656:46 0.0008075
11 *656:33 0.00103722
12 *656:24 0.002473
13 *656:20 0.00221573
14 *656:8 0.000506895
15 *5072:A1 *5072:B1 0
16 *5072:A1 *5523:RESET_B 0
17 *5080:A1 *705:75 0.000112689
18 *5214:A *5214:B 4.77425e-05
19 *5214:A *1109:38 4.77425e-05
20 *656:20 *5215:C 0
21 *656:20 *1109:40 0
22 *656:24 *688:8 0.000933349
23 *656:24 *705:43 0
24 *656:24 *705:45 0
25 *656:24 *1034:32 0
26 *656:24 *1034:34 0
27 *656:24 *1109:40 0
28 *656:24 *1109:42 0
29 *656:33 *5072:B1 0
30 *656:33 *705:75 0.000226776
31 *656:46 *5523:RESET_B 0
32 *656:55 *5521:RESET_B 0
33 *5072:A2 *5072:A1 1.54556e-05
34 *5080:A2 *5080:A1 1.54556e-05
35 *5080:B1 *5080:A1 0
36 *5216:D *656:8 0
37 *5521:CLK *656:55 0
38 *5523:D *5072:A1 0.00023398
39 *5523:D *656:46 7.50503e-05
40 *5523:CLK *656:46 0
41 *5523:CLK *656:55 0
42 *5529:CLK *5080:A1 0
43 *262:16 *656:46 5.1086e-05
44 *344:8 *656:24 0.000181608
45 *348:55 *656:20 0
46 *421:32 *656:20 0
47 *421:32 *656:24 0.000821415
48 *427:10 *656:24 0.00039332
49 *430:12 *656:20 0
50 *605:53 *656:20 0
*RES
1 *5892:X *656:8 21.133 
2 *656:8 *656:20 23.7595 
3 *656:20 *656:24 39.1374 
4 *656:24 *5080:A1 22.4823 
5 *656:24 *656:33 4.8616 
6 *656:33 *5072:A1 22.3381 
7 *656:33 *656:46 3.7595 
8 *656:46 *5073:A1 20 
9 *656:46 *656:55 23.9964 
10 *656:55 *5070:A1 41.339 
11 *656:55 *5069:B_N 40.8446 
12 *656:20 *5214:A 40.3193 
13 *656:8 *5215:A 20 
*END

*D_NET *657 0.0170291
*CONN
*I *4984:A I *D sg13g2_and2_1
*I *5074:B_N I *D sg13g2_nor2b_1
*I *5892:A I *D sg13g2_buf_1
*I *5979:A I *D sg13g2_buf_1
*I *5189:A I *D sg13g2_nand4_1
*I *5893:X O *D sg13g2_buf_1
*CAP
1 *4984:A 4.72978e-05
2 *5074:B_N 0.000350427
3 *5892:A 0
4 *5979:A 0
5 *5189:A 0.000809781
6 *5893:X 0
7 *657:49 0.000241128
8 *657:43 0.000477641
9 *657:35 0.000289339
10 *657:33 0.00089105
11 *657:20 0.00181502
12 *657:16 0.00254372
13 *657:10 0.00291902
14 *657:4 0.000239179
15 *4984:A *662:25 0
16 *5074:B_N *5074:A 0
17 *5074:B_N *662:12 0.000236895
18 *5074:B_N *662:25 0.000287389
19 *5189:A *5615:RESET_B 0
20 *657:10 *4983:A 0
21 *657:10 *662:12 0.000144691
22 *657:10 *662:25 0
23 *657:16 *4977:A 0
24 *657:16 *4983:A 0
25 *657:16 *5171:D 0
26 *657:16 *1006:31 0
27 *657:16 *1097:16 0
28 *657:16 *1097:22 0
29 *657:33 *1113:8 0
30 *657:43 *705:39 0
31 *657:49 *5226:B 0.000552273
32 *657:49 *705:43 0.000714685
33 *5190:A2 *5189:A 1.54556e-05
34 *5224:C *657:33 0.000287361
35 *5227:A1 *657:33 0
36 *5615:CLK *5189:A 0
37 *5821:D *657:16 0
38 *5859:A *5189:A 0
39 *249:10 *657:33 0
40 *255:34 *5189:A 0
41 *261:25 *657:16 0
42 *279:12 *657:33 0
43 *280:16 *657:33 0
44 *387:14 *5189:A 0
45 *387:14 *657:20 0
46 *389:43 *5189:A 0.00101866
47 *389:43 *657:33 0
48 *393:12 *657:16 0.000337718
49 *393:30 *657:16 0.000960394
50 *421:32 *657:49 0.00108515
51 *421:41 *657:49 0.00015729
52 *429:8 *657:33 0.000607524
53 *639:38 *657:16 0
*RES
1 *5893:X *657:4 20 
2 *657:4 *657:10 2.3484 
3 *657:10 *657:16 43.4482 
4 *657:16 *657:20 21.6171 
5 *657:20 *5189:A 27.9153 
6 *657:20 *657:33 49.991 
7 *657:33 *657:35 0.5356 
8 *657:35 *657:43 42.369 
9 *657:43 *657:49 45.7886 
10 *657:49 *5979:A 20 
11 *657:35 *5892:A 20 
12 *657:10 *5074:B_N 23.9964 
13 *657:4 *4984:A 20.5974 
*END

*D_NET *658 0.0146753
*CONN
*I *5055:A1 I *D sg13g2_o21ai_1
*I *5054:B_N I *D sg13g2_nor2b_1
*I *5052:A1 I *D sg13g2_o21ai_1
*I *5051:B_N I *D sg13g2_nor2b_1
*I *5066:B_N I *D sg13g2_nor2b_1
*I *5067:A1 I *D sg13g2_o21ai_1
*I *5064:A1 I *D sg13g2_o21ai_1
*I *5063:B_N I *D sg13g2_nor2b_1
*I *5894:X O *D sg13g2_buf_1
*CAP
1 *5055:A1 0
2 *5054:B_N 0
3 *5052:A1 0
4 *5051:B_N 0
5 *5066:B_N 4.95132e-05
6 *5067:A1 0
7 *5064:A1 0
8 *5063:B_N 3.47831e-05
9 *5894:X 0
10 *658:101 0.000287552
11 *658:86 0.000907326
12 *658:75 0.000825191
13 *658:52 0.00022308
14 *658:41 0.000158034
15 *658:24 0.000730933
16 *658:18 0.000790222
17 *658:16 0.00243284
18 *658:10 0.00249613
19 *658:4 0.000347243
20 *658:10 *5054:A 8.00842e-05
21 *658:10 *662:50 0.000287342
22 *658:16 *659:37 0
23 *658:16 *662:50 0.00151529
24 *658:16 *706:10 0
25 *658:16 *706:43 0
26 *658:16 *706:45 0
27 *658:16 *706:64 0
28 *658:16 *709:24 0
29 *658:16 *783:8 0
30 *658:16 *991:10 0
31 *658:24 *5063:A 4.75265e-05
32 *658:24 *709:24 0
33 *658:24 *1093:74 0
34 *658:41 *5064:B1 0
35 *658:41 *1002:10 0.00050104
36 *658:52 *6101:A 0
37 *658:52 *706:10 0.000341206
38 *658:75 *5054:A 0.000274709
39 *658:75 *705:117 0
40 *658:86 *5052:A2 0.000209697
41 *658:86 *5054:A 0
42 *658:86 *5055:B1 0.00017663
43 *658:86 *5509:RESET_B 0
44 *658:86 *6055:A 0.000273879
45 *658:101 *5055:B1 0.000273311
46 *658:101 *5055:A2 1.54556e-05
47 *658:101 *6055:A 0.000257949
48 *5065:A *658:41 2.21754e-05
49 *5517:CLK *658:16 0
50 *5517:CLK *658:24 0.000668518
51 *5519:CLK *658:16 0
52 *5950:A *658:16 0
53 *98:8 *658:16 0
54 *316:10 *658:75 0
55 *324:8 *658:41 0.000447678
56 *326:8 *658:52 0
*RES
1 *5894:X *658:4 20 
2 *658:4 *658:10 21.8746 
3 *658:10 *658:16 48.5104 
4 *658:16 *658:18 0.3502 
5 *658:18 *658:24 6.2109 
6 *658:24 *5063:B_N 20.3193 
7 *658:24 *658:41 42.9973 
8 *658:41 *5064:A1 20 
9 *658:18 *658:52 42.8222 
10 *658:52 *5067:A1 20 
11 *658:16 *5066:B_N 20.5974 
12 *658:10 *5051:B_N 40 
13 *658:4 *658:75 2.4308 
14 *658:75 *5052:A1 20 
15 *658:75 *658:86 6.6744 
16 *658:86 *5054:B_N 20 
17 *658:86 *658:101 43.2136 
18 *658:101 *5055:A1 20 
*END

*D_NET *659 0.00349978
*CONN
*I *5058:A1 I *D sg13g2_o21ai_1
*I *5057:B_N I *D sg13g2_nor2b_1
*I *5061:A1 I *D sg13g2_o21ai_1
*I *5060:B_N I *D sg13g2_nor2b_1
*I *5895:X O *D sg13g2_buf_1
*CAP
1 *5058:A1 0.000189952
2 *5057:B_N 0
3 *5061:A1 0
4 *5060:B_N 0.000190185
5 *5895:X 0.000370419
6 *659:41 0.000494379
7 *659:37 0.000674846
8 *659:21 0.000303187
9 *659:4 0.000493372
10 *5058:A1 *5057:A 0
11 *5058:A1 *5058:A2 1.54556e-05
12 *5058:A1 *706:64 0
13 *659:21 *706:64 0
14 *659:21 *719:25 0.000559108
15 *659:37 *5895:A 0
16 *659:41 *5057:A 0
17 *659:41 *706:64 0
18 *5062:A *659:21 0
19 *5515:CLK *5060:B_N 0
20 *5515:CLK *659:37 0
21 *98:8 *659:37 0
22 *322:10 *5060:B_N 0.000208878
23 *658:16 *659:37 0
*RES
1 *5895:X *659:4 20 
2 *659:4 *5060:B_N 21.9673 
3 *659:4 *659:21 43.3269 
4 *659:21 *5061:A1 20 
5 *5895:X *659:37 43.296 
6 *659:37 *659:41 22.6986 
7 *659:41 *5057:B_N 20 
8 *659:41 *5058:A1 21.8334 
*END

*D_NET *660 0.0112457
*CONN
*I *5078:A1 I *D sg13g2_a21oi_1
*I *5031:A1 I *D sg13g2_o21ai_1
*I *5030:B_N I *D sg13g2_nor2b_1
*I *5037:A1 I *D sg13g2_o21ai_1
*I *5036:B_N I *D sg13g2_nor2b_1
*I *5033:B_N I *D sg13g2_nor2b_1
*I *5034:A1 I *D sg13g2_o21ai_1
*I *5048:B_N I *D sg13g2_nor2b_1
*I *5896:X O *D sg13g2_buf_1
*CAP
1 *5078:A1 0.000156868
2 *5031:A1 0.000199828
3 *5030:B_N 0
4 *5037:A1 0
5 *5036:B_N 0
6 *5033:B_N 0
7 *5034:A1 0.000247024
8 *5048:B_N 0
9 *5896:X 2.95259e-05
10 *660:47 0.000802191
11 *660:45 0.000987592
12 *660:43 0.000678916
13 *660:41 0.000710339
14 *660:35 0.000913452
15 *660:29 0.000979521
16 *660:18 0.000414418
17 *660:6 0.00101682
18 *5031:A1 *5031:B1 0
19 *5031:A1 *5031:A2 1.54556e-05
20 *5031:A1 *707:89 0
21 *5034:A1 *5034:B1 0
22 *5034:A1 *707:21 0
23 *5034:A1 *708:10 0.000342122
24 *5078:A1 *5527:RESET_B 0
25 *660:18 *5048:A 0
26 *660:18 *5896:A 0
27 *660:18 *662:40 0
28 *660:18 *1089:10 0
29 *660:29 *1089:10 0
30 *660:35 *707:95 0
31 *660:41 *707:89 0
32 *660:41 *707:95 0
33 *660:43 *708:10 0.000771926
34 *660:45 *707:21 0
35 *660:45 *708:10 0.00114344
36 *660:47 *707:21 0
37 *660:47 *708:10 0.00146451
38 *5050:B *660:18 0
39 *5507:D *660:29 0
40 *5565:CLK *660:18 0
41 *5565:CLK *660:29 0
42 *261:31 *660:18 0
43 *261:31 *660:29 0
44 *261:39 *5078:A1 0.000259112
45 *261:39 *660:29 0.000112689
46 *304:10 *5034:A1 0
47 *637:31 *5034:A1 0
48 *646:39 *660:18 0
*RES
1 *5896:X *660:6 20.3502 
2 *660:6 *660:18 43.9964 
3 *660:18 *5048:B_N 20 
4 *660:6 *660:29 6.18 
5 *660:29 *660:35 43.0694 
6 *660:35 *660:41 24.5938 
7 *660:41 *660:43 3.811 
8 *660:43 *660:45 5.2942 
9 *660:45 *660:47 6.7774 
10 *660:47 *5034:A1 42.575 
11 *660:47 *5033:B_N 40 
12 *660:45 *5036:B_N 40 
13 *660:43 *5037:A1 40 
14 *660:41 *5030:B_N 40 
15 *660:35 *5031:A1 21.8334 
16 *660:29 *5078:A1 21.8334 
*END

*D_NET *661 0.014526
*CONN
*I *5896:A I *D sg13g2_buf_1
*I *5107:A1 I *D sg13g2_o21ai_1
*I *5109:A I *D sg13g2_or2_1
*I *5104:A_N I *D sg13g2_nand2b_1
*I *5121:A1 I *D sg13g2_o21ai_1
*I *5075:A1 I *D sg13g2_o21ai_1
*I *5897:X O *D sg13g2_buf_1
*CAP
1 *5896:A 0.000556406
2 *5107:A1 0.000168721
3 *5109:A 0
4 *5104:A_N 0
5 *5121:A1 0.000478895
6 *5075:A1 0.000328487
7 *5897:X 0.000947218
8 *661:61 0.000725127
9 *661:59 0.00152119
10 *661:45 0.000117982
11 *661:39 0.000423018
12 *661:22 0.000926993
13 *661:20 0.00228298
14 *5075:A1 *707:54 0
15 *5107:A1 *5107:A2 0.000112057
16 *5107:A1 *5110:A2 7.52149e-05
17 *5107:A1 *692:8 0.000234195
18 *5107:A1 *692:10 7.48842e-05
19 *5121:A1 *5121:A2 0.000497086
20 *5121:A1 *1017:52 0
21 *5896:A *5048:A 0
22 *5896:A *5110:A2 0.000212127
23 *5896:A *662:40 0
24 *5896:A *1089:10 4.77537e-05
25 *661:20 *725:8 0
26 *661:20 *1017:52 0
27 *661:22 *1017:52 0
28 *661:39 *5110:A1 0
29 *661:39 *1048:65 0
30 *661:45 *707:54 0.00029099
31 *661:59 *5110:A1 0
32 *661:59 *5126:B1 8.00842e-05
33 *661:59 *5567:RESET_B 0.000339683
34 *661:59 *5925:A 0.000112013
35 *661:59 *1116:71 0
36 *661:59 *1116:79 0
37 *661:59 *1117:12 0.000306925
38 *5050:B *5896:A 7.53965e-05
39 *5110:B1 *661:59 0
40 *5125:A2 *661:59 0
41 *5565:D *661:59 0.000501238
42 *5962:A *5121:A1 0.00049726
43 *5962:A *661:39 0
44 *261:31 *5075:A1 0.000533865
45 *363:10 *661:59 0.0001448
46 *364:8 *661:59 0
47 *645:18 *5075:A1 0.000209895
48 *646:39 *5107:A1 0.00034055
49 *646:39 *5896:A 0.00136295
50 *660:18 *5896:A 0
*RES
1 *5897:X *5075:A1 43.5638 
2 *5897:X *661:20 47.7662 
3 *661:20 *661:22 1.5862 
4 *661:22 *5121:A1 45.6753 
5 *661:22 *661:39 23.3269 
6 *661:39 *661:45 41.339 
7 *661:45 *5104:A_N 20 
8 *661:39 *5109:A 20 
9 *661:20 *661:59 35.8929 
10 *661:59 *661:61 20 
11 *661:61 *5107:A1 42.5544 
12 *661:61 *5896:A 48.0649 
*END

*D_NET *662 0.0215835
*CONN
*I *5894:A I *D sg13g2_buf_1
*I *5895:A I *D sg13g2_buf_1
*I *5897:A I *D sg13g2_buf_1
*I *5893:A I *D sg13g2_buf_1
*I *5898:X O *D sg13g2_buf_1
*CAP
1 *5894:A 0
2 *5895:A 0.00023247
3 *5897:A 0
4 *5893:A 0
5 *5898:X 0.000215897
6 *662:50 0.000793701
7 *662:44 0.000658496
8 *662:40 0.00276696
9 *662:38 0.00399362
10 *662:25 0.00222709
11 *662:12 0.00103769
12 *662:8 0.000350417
13 *5895:A *5515:RESET_B 4.77425e-05
14 *5895:A *706:64 0
15 *662:12 *4983:B 0
16 *662:25 *4983:B 0.000316368
17 *662:25 *5525:RESET_B 0
18 *662:25 *707:54 0
19 *662:25 *1048:59 0.000226797
20 *662:38 *5048:A 0
21 *662:38 *5563:RESET_B 0.000339557
22 *662:38 *1118:6 0
23 *662:40 *5110:A2 0
24 *662:40 *692:8 0
25 *662:40 *692:10 0
26 *662:40 *719:25 0
27 *662:40 *1007:10 0.000770114
28 *662:40 *1007:25 0.00221582
29 *662:40 *1018:108 0
30 *662:40 *1018:114 0
31 *662:44 *5054:A 0.00014514
32 *4984:A *662:25 0
33 *5074:B_N *662:12 0.000236895
34 *5074:B_N *662:25 0.000287389
35 *5076:B *662:25 0
36 *5515:CLK *5895:A 0
37 *5561:CLK *662:38 0.000274709
38 *5563:D *662:38 0
39 *5896:A *662:40 0
40 *261:31 *662:25 0
41 *261:31 *662:38 0.00205647
42 *316:10 *662:50 0
43 *320:8 *662:50 0
44 *322:10 *5895:A 4.77425e-05
45 *349:10 *662:40 0
46 *349:25 *662:40 0
47 *354:25 *662:40 0.000395068
48 *636:20 *662:44 0
49 *645:18 *662:25 0
50 *646:39 *662:40 0
51 *657:10 *662:12 0.000144691
52 *657:10 *662:25 0
53 *658:10 *662:50 0.000287342
54 *658:16 *662:50 0.00151529
55 *659:37 *5895:A 0
56 *660:18 *662:40 0
*RES
1 *5898:X *662:8 41.8334 
2 *662:8 *662:12 21.5836 
3 *662:12 *5893:A 20 
4 *662:12 *662:25 10.4571 
5 *662:25 *5897:A 20 
6 *662:25 *662:38 35.5118 
7 *662:38 *662:40 30.7558 
8 *662:40 *662:44 20.9682 
9 *662:44 *662:50 48.755 
10 *662:50 *5895:A 22.266 
11 *662:44 *5894:A 20 
*END

*D_NET *663 0.0221353
*CONN
*I *5368:S I *D sg13g2_mux2_1
*I *5372:S I *D sg13g2_mux2_1
*I *5356:S I *D sg13g2_mux2_1
*I *5384:S I *D sg13g2_mux2_1
*I *5386:S I *D sg13g2_mux2_1
*I *5352:S I *D sg13g2_mux2_1
*I *5336:S I *D sg13g2_mux2_1
*I *5354:S I *D sg13g2_mux2_1
*I *5899:X O *D sg13g2_buf_1
*CAP
1 *5368:S 0
2 *5372:S 4.5987e-05
3 *5356:S 0.000362303
4 *5384:S 0
5 *5386:S 0.000141902
6 *5352:S 0
7 *5336:S 0.00101194
8 *5354:S 2.77263e-05
9 *5899:X 0
10 *663:95 0.00155244
11 *663:89 0.00201211
12 *663:78 0.00103588
13 *663:63 0.00178146
14 *663:55 0.00214613
15 *663:46 0.000572043
16 *663:21 0.00236531
17 *663:12 0.0012581
18 *663:6 0.00112353
19 *5336:S *5262:A 8.0276e-05
20 *5336:S *5336:A0 0
21 *5336:S *5336:A1 0
22 *5336:S *5337:B 0
23 *5336:S *5637:RESET_B 0
24 *5336:S *1057:8 8.02063e-05
25 *5336:S *1057:10 0
26 *5356:S *5357:B 0
27 *5356:S *5372:A1 0
28 *5372:S *5372:A1 0
29 *5386:S *5386:A0 0
30 *5386:S *5386:A1 0
31 *5386:S *718:62 0
32 *663:12 *5289:A 0
33 *663:12 *5354:A1 0
34 *663:12 *664:14 0
35 *663:12 *664:27 0.000130055
36 *663:12 *1026:122 0
37 *663:21 *5337:B 0
38 *663:21 *5637:RESET_B 0
39 *663:21 *5637:D 0
40 *663:21 *1026:122 0
41 *663:46 *668:60 4.77425e-05
42 *663:46 *687:96 0.000446439
43 *663:46 *690:31 0
44 *663:46 *947:10 0.000395568
45 *663:46 *996:10 0.000181694
46 *663:46 *1023:127 4.77425e-05
47 *663:46 *1087:8 0
48 *663:46 *1087:21 0
49 *663:55 *664:59 0
50 *663:55 *668:23 0.00045422
51 *663:55 *668:48 0.000998689
52 *663:55 *689:61 0.000488699
53 *663:55 *689:67 0.00186642
54 *663:55 *702:54 1.57249e-05
55 *663:63 *5312:B 0
56 *663:63 *5386:A1 0
57 *663:63 *927:10 0
58 *663:63 *1074:12 4.79124e-05
59 *663:78 *5384:A1 0
60 *663:78 *5385:B 0
61 *663:78 *5386:A0 0
62 *663:78 *6079:A 0
63 *663:78 *718:60 0
64 *663:89 *5311:A1 0
65 *663:89 *5368:A1 0
66 *663:89 *5385:B 0
67 *663:89 *943:8 0
68 *663:89 *1064:10 0
69 *663:95 *5311:A1 0
70 *663:95 *5388:A1 0
71 *663:95 *664:59 0
72 *663:95 *717:53 0
73 *663:95 *717:55 0
74 *663:95 *913:10 0
75 *663:95 *1075:12 0
76 *5264:C *5336:S 7.92946e-05
77 *5355:A *663:21 0
78 *5357:A *5356:S 0
79 *5369:A *663:89 0
80 *5968:A *5336:S 0
81 *159:8 *663:46 0.000287256
82 *464:8 *663:46 0
83 *628:6 *663:95 6.47365e-05
84 *628:12 *5356:S 0.000274583
85 *628:12 *663:95 0.000469254
86 *628:61 *663:95 0.000241979
87 *640:8 *663:63 0
*RES
1 *5899:X *663:6 40 
2 *663:6 *663:12 24.1921 
3 *663:12 *5354:S 20.3502 
4 *663:12 *663:21 8.1061 
5 *663:21 *5336:S 29.4245 
6 *663:21 *663:46 48.3327 
7 *663:46 *5352:S 20 
8 *663:6 *663:55 12.5042 
9 *663:55 *663:63 46.1079 
10 *663:63 *5386:S 41.4008 
11 *663:63 *663:78 31.9218 
12 *663:78 *5384:S 20 
13 *663:55 *663:89 29.1979 
14 *663:89 *663:95 32.3806 
15 *663:95 *5356:S 43.9964 
16 *663:95 *5372:S 40.5974 
17 *663:89 *5368:S 20 
*END

*D_NET *664 0.0141724
*CONN
*I *5388:S I *D sg13g2_mux2_1
*I *5338:S I *D sg13g2_mux2_1
*I *5231:A I *D sg13g2_nor3_1
*I *5899:A I *D sg13g2_buf_1
*I *5900:X O *D sg13g2_buf_1
*CAP
1 *5388:S 0
2 *5338:S 0.000444172
3 *5231:A 0
4 *5899:A 5.27912e-05
5 *5900:X 3.32557e-05
6 *664:59 0.00242303
7 *664:37 0.000992144
8 *664:27 0.00219212
9 *664:14 0.00133604
10 *664:8 0.00298373
11 *5338:S *5265:B 0
12 *5338:S *5338:A1 0
13 *5338:S *668:23 0
14 *5338:S *1056:8 0
15 *664:8 *717:10 0
16 *664:8 *1026:122 0
17 *664:14 *5354:A0 0
18 *664:14 *5354:A1 0.00020971
19 *664:14 *702:24 0
20 *664:14 *718:41 0
21 *664:27 *5903:A 0.00163237
22 *664:27 *668:23 0
23 *664:37 *668:23 0
24 *664:37 *668:31 0.000916905
25 *664:37 *718:41 0
26 *664:59 *5354:A0 0
27 *664:59 *5368:A1 0
28 *664:59 *668:48 0
29 *664:59 *717:10 0
30 *664:59 *717:51 0
31 *664:59 *717:53 0
32 *664:59 *718:41 0
33 *664:59 *718:54 0
34 *664:59 *943:8 0.000826127
35 *664:59 *1064:10 0
36 *442:10 *664:37 0
37 *663:12 *664:14 0
38 *663:12 *664:27 0.000130055
39 *663:55 *664:59 0
40 *663:95 *664:59 0
*RES
1 *5900:X *664:8 40.3193 
2 *664:8 *664:14 25.0573 
3 *664:14 *5899:A 20.6129 
4 *664:14 *664:27 29.7438 
5 *664:27 *664:37 30.5128 
6 *664:37 *5231:A 20 
7 *664:27 *5338:S 44.7792 
8 *664:8 *664:59 42.2377 
9 *664:59 *5388:S 20 
*END

*D_NET *665 0.011518
*CONN
*I *5043:A1 I *D sg13g2_o21ai_1
*I *5042:B_N I *D sg13g2_nor2b_1
*I *5028:B_N I *D sg13g2_nor2b_1
*I *5027:A1 I *D sg13g2_o21ai_1
*I *5045:B_N I *D sg13g2_nor2b_1
*I *5039:B_N I *D sg13g2_nor2b_1
*I *5040:A1 I *D sg13g2_o21ai_1
*I *5108:A I *D sg13g2_nor2_1
*I *5901:X O *D sg13g2_buf_1
*CAP
1 *5043:A1 0.000161281
2 *5042:B_N 0
3 *5028:B_N 0
4 *5027:A1 0
5 *5045:B_N 0
6 *5039:B_N 0.000172061
7 *5040:A1 0
8 *5108:A 0.000406612
9 *5901:X 0.00137582
10 *665:85 0.000673794
11 *665:77 0.0013265
12 *665:66 0.00111125
13 *665:51 0.000878291
14 *665:40 0.000657061
15 *665:30 0.000748817
16 *665:22 0.00146994
17 *5039:B_N *666:30 0
18 *5039:B_N *716:34 0
19 *5043:A1 *5043:B1 0
20 *5043:A1 *5043:A2 1.54556e-05
21 *5108:A *1017:50 0
22 *665:22 *5403:A_N 0
23 *665:22 *5755:RESET_B 0.000339552
24 *665:22 *703:14 0
25 *665:22 *703:31 0
26 *665:30 *716:60 0
27 *665:30 *716:75 0
28 *665:40 *5040:A2 1.54556e-05
29 *665:40 *716:34 0
30 *665:40 *716:44 0
31 *665:40 *718:20 0
32 *665:40 *1116:97 0
33 *665:51 *5040:A2 0.000129009
34 *665:51 *716:34 0.00012816
35 *665:66 *5040:A2 0
36 *665:66 *5045:A 0
37 *665:66 *5501:RESET_B 0.000273902
38 *665:66 *666:30 0
39 *665:66 *716:34 0
40 *665:66 *718:14 0
41 *665:77 *666:30 0
42 *665:77 *718:14 0
43 *665:85 *5949:A 0
44 *665:85 *716:10 0
45 *665:85 *716:18 0
46 *665:85 *718:14 0
47 *665:85 *898:8 0
48 *5041:B *5039:B_N 0
49 *5501:D *5039:B_N 7.95512e-05
50 *5501:D *665:66 0
51 *5561:CLK *665:51 0
52 *5755:CLK *665:22 0
53 *5871:A *665:30 3.23417e-05
54 *5874:A *665:40 4.7803e-05
55 *5874:A *665:51 0.000144465
56 *5874:A *665:66 0
57 *310:8 *665:30 0.000234311
58 *310:8 *665:40 0
59 *312:10 *665:77 0
60 *546:10 *665:22 0
61 *605:118 *5108:A 0
62 *611:6 *665:30 1.54008e-05
63 *611:6 *665:40 4.77425e-05
64 *611:12 *665:30 0.00103344
65 *612:8 *665:40 0
66 *642:23 *5043:A1 0
67 *642:23 *665:22 0
68 *642:68 *5043:A1 0
69 *642:68 *5108:A 0
70 *642:68 *665:22 0
71 *643:8 *665:77 0
72 *643:32 *665:77 0
*RES
1 *5901:X *5108:A 43.914 
2 *5901:X *665:22 30.2176 
3 *665:22 *665:30 45.3663 
4 *665:30 *665:40 44.4496 
5 *665:40 *5040:A1 20 
6 *665:40 *665:51 23.0488 
7 *665:51 *5039:B_N 41.8128 
8 *665:51 *665:66 24.8616 
9 *665:66 *5045:B_N 20 
10 *665:66 *665:77 6.6126 
11 *665:77 *665:85 47.0658 
12 *665:85 *5027:A1 20 
13 *665:77 *5028:B_N 20 
14 *665:30 *5042:B_N 20 
15 *665:22 *5043:A1 20.5083 
*END

*D_NET *666 0.00893688
*CONN
*I *6036:A I *D sg13g2_buf_1
*I *5075:A2 I *D sg13g2_o21ai_1
*I *5525:Q O *D sg13g2_dfrbpq_1
*CAP
1 *6036:A 0
2 *5075:A2 0
3 *5525:Q 0.00303061
4 *666:38 0.00026305
5 *666:30 0.00295312
6 *666:10 0.000340544
7 *666:10 *718:22 0
8 *666:10 *1048:40 0.0006618
9 *666:30 *5045:A 0
10 *666:30 *5501:RESET_B 0
11 *666:30 *6037:A 0
12 *666:30 *718:22 0
13 *666:30 *898:29 0.000491216
14 *666:30 *1115:8 4.77425e-05
15 *666:38 *5077:A2 0
16 *666:38 *6051:A 0
17 *666:38 *898:29 0
18 *5039:B_N *666:30 0
19 *5041:B *666:30 0
20 *5493:D *666:30 0
21 *5501:D *666:30 0
22 *261:31 *666:10 0
23 *301:10 *666:30 0
24 *312:10 *666:30 0
25 *646:8 *666:30 0
26 *646:33 *666:30 0
27 *646:52 *666:30 0.0011488
28 *665:66 *666:30 0
29 *665:77 *666:30 0
*RES
1 *5525:Q *666:10 44.6865 
2 *666:10 *5075:A2 40 
3 *5525:Q *666:30 49.8026 
4 *666:30 *666:38 42.7089 
5 *666:38 *6036:A 20 
*END

*D_NET *667 0.0223352
*CONN
*I *5901:A I *D sg13g2_buf_1
*I *5046:A1 I *D sg13g2_o21ai_1
*I *5077:A1 I *D sg13g2_o21ai_1
*I *5049:A1 I *D sg13g2_o21ai_1
*I *5490:A I *D sg13g2_and2_1
*I *5370:S I *D sg13g2_mux2_1
*I *5902:X O *D sg13g2_buf_1
*CAP
1 *5901:A 0
2 *5046:A1 0
3 *5077:A1 0.000803585
4 *5049:A1 0
5 *5490:A 0
6 *5370:S 0
7 *5902:X 0
8 *667:54 0.0015054
9 *667:46 0.000898947
10 *667:42 0.00227848
11 *667:36 0.00452859
12 *667:25 0.00165235
13 *667:10 0.00183553
14 *667:4 0.00263042
15 *5077:A1 *5049:B1 0
16 *5077:A1 *5049:A2 0.000356476
17 *5077:A1 *5077:B1 0
18 *5077:A1 *5077:A2 1.54556e-05
19 *5077:A1 *898:29 0.000695034
20 *667:10 *703:48 0
21 *667:25 *5370:A0 0.00178178
22 *667:25 *5490:B 0.000566273
23 *667:25 *718:68 0.00167688
24 *667:25 *972:23 0
25 *667:25 *982:8 0
26 *667:36 *703:48 0
27 *667:42 *5503:RESET_B 0.000274088
28 *667:42 *5811:RESET_B 0
29 *667:42 *5811:D 0
30 *667:42 *6059:A 0
31 *667:42 *703:48 0
32 *667:42 *1000:28 0
33 *667:46 *887:8 0
34 *667:54 *5049:A2 1.54556e-05
35 *667:54 *5507:RESET_B 0
36 *5044:B *667:42 0
37 *5503:D *667:42 0
38 *5823:CLK *667:42 0
39 *5840:A *667:42 0
40 *312:10 *667:54 0
41 *605:118 *667:42 0
42 *605:122 *667:42 0
43 *605:129 *667:42 0
44 *605:134 *667:42 0
45 *610:12 *667:10 0
46 *610:12 *667:25 0
47 *610:12 *667:36 0
48 *641:14 *667:25 0
49 *641:25 *667:25 0
50 *643:19 *667:54 0.000820429
51 *643:32 *667:54 0
52 *646:52 *5077:A1 0
53 *646:52 *667:54 0
*RES
1 *5902:X *667:4 20 
2 *667:4 *667:10 21.8746 
3 *667:10 *5370:S 40 
4 *667:10 *667:25 43.6694 
5 *667:25 *5490:A 20 
6 *667:4 *667:36 44.4625 
7 *667:36 *667:42 39.4959 
8 *667:42 *667:46 22.3278 
9 *667:46 *667:54 28.652 
10 *667:54 *5049:A1 20 
11 *667:54 *5077:A1 27.8898 
12 *667:46 *5046:A1 40 
13 *667:36 *5901:A 40 
*END

*D_NET *668 0.0212524
*CONN
*I *5902:A I *D sg13g2_buf_1
*I *5978:A I *D sg13g2_buf_1
*I *5898:A I *D sg13g2_buf_1
*I *5900:A I *D sg13g2_buf_1
*I *5903:X O *D sg13g2_buf_1
*CAP
1 *5902:A 0.000681424
2 *5978:A 0
3 *5898:A 7.27142e-05
4 *5900:A 0.000104821
5 *5903:X 0.000774555
6 *668:60 0.00183745
7 *668:48 0.00268557
8 *668:31 0.00237491
9 *668:23 0.00368381
10 *668:17 0.00222975
11 *668:6 0.000197952
12 *5898:A *4983:B 0
13 *5898:A *5813:RESET_B 0
14 *5900:A *5707:RESET_B 0
15 *5900:A *5997:A 0
16 *5902:A *5313:B 0.000209856
17 *5902:A *5370:A1 0
18 *5902:A *5909:A 0
19 *5902:A *6028:A 0
20 *5902:A *674:21 0
21 *5902:A *703:48 0
22 *5902:A *944:10 0.00024222
23 *5902:A *1065:8 0
24 *668:23 *5289:A 0.000292607
25 *668:23 *5997:A 0.00029161
26 *668:23 *715:108 0.000208179
27 *668:23 *718:41 0
28 *668:23 *1088:19 0.000237643
29 *668:31 *675:14 0
30 *668:31 *718:39 0
31 *668:31 *718:41 0
32 *668:31 *1017:8 0.000615326
33 *668:48 *5353:B 0
34 *668:48 *702:62 0
35 *668:48 *717:14 0
36 *668:48 *718:41 0
37 *668:48 *718:54 0
38 *668:48 *997:8 0
39 *668:48 *1023:127 8.02269e-05
40 *668:60 *5268:B 8.0216e-05
41 *668:60 *5286:A 0.000177203
42 *668:60 *5354:A0 0
43 *668:60 *5705:RESET_B 0
44 *668:60 *690:39 0
45 *668:60 *920:30 0
46 *668:60 *1023:127 0.000608111
47 *5270:C *668:60 0
48 *5288:C *668:48 0
49 *5338:S *668:23 0
50 *5641:D *668:60 0
51 *5655:CLK *5902:A 0
52 *5854:A *668:60 0.00090643
53 *618:14 *668:60 0.000242221
54 *626:47 *668:60 0
55 *639:10 *668:31 0
56 *639:16 *5898:A 0
57 *639:38 *668:31 0
58 *663:46 *668:60 4.77425e-05
59 *663:55 *668:23 0.00045422
60 *663:55 *668:48 0.000998689
61 *664:27 *668:23 0
62 *664:37 *668:23 0
63 *664:37 *668:31 0.000916905
64 *664:59 *668:48 0
*RES
1 *5903:X *668:6 20.7519 
2 *668:6 *5900:A 21.1021 
3 *668:6 *668:17 20 
4 *668:17 *668:23 35.347 
5 *668:23 *668:31 46.1414 
6 *668:31 *5898:A 40.7519 
7 *668:17 *668:48 48.9881 
8 *668:48 *668:60 39.3022 
9 *668:60 *5978:A 20 
10 *5903:X *5902:A 47.5911 
*END

*D_NET *669 0.0166719
*CONN
*I *5254:A2 I *D sg13g2_a21oi_1
*I *5326:A2 I *D sg13g2_a21oi_1
*I *5302:A2 I *D sg13g2_a21oi_1
*I *5278:A2 I *D sg13g2_a21oi_1
*I *5284:A2 I *D sg13g2_a21oi_1
*I *5332:A2 I *D sg13g2_a21oi_1
*I *5308:A2 I *D sg13g2_a21oi_1
*I *5260:A2 I *D sg13g2_a21oi_1
*I *5904:X O *D sg13g2_buf_1
*CAP
1 *5254:A2 0
2 *5326:A2 0.000182567
3 *5302:A2 0.000203804
4 *5278:A2 0.000372494
5 *5284:A2 0
6 *5332:A2 0.000502588
7 *5308:A2 0
8 *5260:A2 0.000225177
9 *5904:X 0
10 *669:99 0.000202849
11 *669:73 0.000776372
12 *669:60 0.00115733
13 *669:31 0.0012673
14 *669:25 0.00139566
15 *669:8 0.00143291
16 *669:4 0.00117447
17 *5260:A2 *5260:B1 0.000181192
18 *5260:A2 *683:24 0.000443225
19 *5260:A2 *695:35 0
20 *5260:A2 *1086:10 0.000181192
21 *5260:A2 *1086:12 0.000394981
22 *5278:A2 *1030:10 0
23 *5278:A2 *1030:16 0
24 *5302:A2 *5302:A1 0
25 *5302:A2 *5326:A1 0.000274381
26 *5302:A2 *1021:12 0
27 *5326:A2 *5326:A1 0.000339546
28 *5326:A2 *5326:B1 0
29 *5326:A2 *695:103 0
30 *5332:A2 *949:8 0.0004016
31 *5332:A2 *1072:30 0.000130055
32 *669:8 *5279:B 0
33 *669:8 *5284:A1 0
34 *669:8 *671:28 0
35 *669:8 *1086:10 0.000209637
36 *669:25 *5284:A1 0.000889774
37 *669:25 *671:28 0
38 *669:25 *695:35 0
39 *669:31 *5284:A1 1.54556e-05
40 *669:31 *711:71 0
41 *669:60 *5277:B 0.000448427
42 *669:60 *1030:70 0
43 *669:60 *1031:57 0.000501459
44 *669:73 *695:103 0.00023464
45 *669:73 *1030:70 0
46 *669:73 *1031:57 0.00146226
47 *669:73 *1061:8 0
48 *669:99 *5277:B 0
49 *669:99 *671:22 0
50 *669:99 *671:28 0
51 *669:99 *683:8 3.23417e-05
52 *669:99 *683:14 1.54008e-05
53 *669:99 *956:10 0.000234224
54 *5279:A *669:8 0
55 *5279:C *669:8 0
56 *5327:A *5326:A2 0.000209856
57 *5333:C *5332:A2 0
58 *5635:CLK *5260:A2 4.77425e-05
59 *5647:CLK *5278:A2 0
60 *5735:CLK *5332:A2 0
61 *164:8 *669:60 0
62 *458:16 *669:99 4.78195e-05
63 *622:8 *669:99 4.77425e-05
64 *622:10 *669:99 0.000234224
65 *622:12 *669:99 0.00012816
66 *622:56 *669:60 0
67 *622:56 *669:99 7.51285e-05
68 *647:8 *669:25 0
69 *647:12 *669:25 0.000258364
70 *647:12 *669:31 0.000339552
*RES
1 *5904:X *669:4 20 
2 *669:4 *669:8 25.5105 
3 *669:8 *5260:A2 43.8831 
4 *669:8 *669:25 27.2821 
5 *669:25 *669:31 29.2906 
6 *669:31 *5308:A2 40 
7 *669:31 *5332:A2 45.9328 
8 *669:25 *5284:A2 20 
9 *669:4 *669:60 25.047 
10 *669:60 *5278:A2 43.5638 
11 *669:60 *669:73 26.7774 
12 *669:73 *5302:A2 22.1836 
13 *669:73 *5326:A2 22.266 
14 *669:4 *669:99 42.9046 
15 *669:99 *5254:A2 20 
*END

*D_NET *670 0.0116348
*CONN
*I *5248:A2 I *D sg13g2_a21oi_1
*I *5251:A2 I *D sg13g2_a21oi_1
*I *5323:A2 I *D sg13g2_a21oi_1
*I *5299:A2 I *D sg13g2_a21oi_1
*I *5275:A2 I *D sg13g2_a21oi_1
*I *5905:X O *D sg13g2_buf_1
*CAP
1 *5248:A2 0
2 *5251:A2 0
3 *5323:A2 0.000627159
4 *5299:A2 2.99777e-05
5 *5275:A2 0.000255551
6 *5905:X 0.000337582
7 *670:31 0.00138313
8 *670:18 0.00187565
9 *670:10 0.00170969
10 *670:6 0.00115317
11 *5275:A2 *5275:A1 0.000436162
12 *5275:A2 *5645:RESET_B 0
13 *5299:A2 *5299:A1 4.78028e-05
14 *5299:A2 *5324:B 0
15 *5323:A2 *5322:B 0
16 *5323:A2 *5323:A1 0.00122955
17 *5323:A2 *5360:A1 0
18 *5323:A2 *5661:RESET_B 0
19 *5323:A2 *684:40 7.51285e-05
20 *5323:A2 *930:8 0.000288675
21 *670:6 *5248:A1 1.54556e-05
22 *670:6 *5248:B1 0
23 *670:6 *5627:RESET_B 0
24 *670:6 *1022:87 0
25 *670:6 *1022:104 0
26 *670:10 *5248:A1 0
27 *670:10 *5251:A1 6.48152e-05
28 *670:10 *5627:RESET_B 0
29 *670:10 *684:16 0
30 *670:10 *685:10 0
31 *670:10 *1022:8 0
32 *670:10 *1022:87 0
33 *670:18 *5251:A1 1.54008e-05
34 *670:18 *685:10 0
35 *670:18 *697:36 0
36 *670:18 *697:51 0
37 *670:18 *935:12 0
38 *670:18 *1022:8 0
39 *670:18 *1022:38 0
40 *670:18 *1022:42 0
41 *670:31 *5275:A1 0.00046856
42 *670:31 *5645:RESET_B 0
43 *670:31 *684:29 7.51285e-05
44 *670:31 *684:40 0.00154623
45 *670:31 *1022:42 0
46 *670:31 *1060:24 0
47 *5249:A *670:10 0
48 *5300:A *5299:A2 0
49 *5324:C *5323:A2 0
50 *5645:D *5275:A2 0
51 *5968:A *670:10 0
*RES
1 *5905:X *670:6 23.5638 
2 *670:6 *670:10 3.8072 
3 *670:10 *670:18 48.1515 
4 *670:18 *5275:A2 22.9149 
5 *670:18 *670:31 30.6502 
6 *670:31 *5299:A2 40.3193 
7 *670:31 *5323:A2 48.0237 
8 *670:10 *5251:A2 20 
9 *670:6 *5248:A2 20 
*END

*D_NET *671 0.0194874
*CONN
*I *5905:A I *D sg13g2_buf_1
*I *5904:A I *D sg13g2_buf_1
*I *5329:A2 I *D sg13g2_a21oi_1
*I *5305:A2 I *D sg13g2_a21oi_1
*I *5281:A2 I *D sg13g2_a21oi_1
*I *5257:A2 I *D sg13g2_a21oi_1
*I *5906:X O *D sg13g2_buf_1
*CAP
1 *5905:A 0
2 *5904:A 0
3 *5329:A2 3.03288e-05
4 *5305:A2 0
5 *5281:A2 8.40967e-05
6 *5257:A2 0.000415943
7 *5906:X 0.000157125
8 *671:87 0.000113033
9 *671:55 0.000953484
10 *671:47 0.00104455
11 *671:32 0.000995186
12 *671:28 0.00233639
13 *671:22 0.004457
14 *671:8 0.00282518
15 *5257:A2 *5257:A1 0.000468708
16 *5257:A2 *5258:B 0
17 *5257:A2 *685:48 0
18 *5257:A2 *1020:6 0
19 *5281:A2 *5281:A1 0.000145154
20 *5329:A2 *5329:A1 4.77425e-05
21 *671:8 *5248:B1 0
22 *671:8 *5919:A 0
23 *671:22 *5248:B1 0
24 *671:22 *5276:B 0
25 *671:22 *5344:A1 0
26 *671:22 *6003:A 0.000242121
27 *671:22 *6022:A 0
28 *671:22 *684:10 4.72458e-05
29 *671:22 *685:8 0
30 *671:22 *685:10 0
31 *671:22 *685:27 0.000816491
32 *671:22 *956:10 0
33 *671:22 *1032:31 0
34 *671:22 *1082:12 0
35 *671:22 *1082:19 0
36 *671:28 *685:27 0.00134354
37 *671:28 *1030:28 0
38 *671:28 *1086:10 0.000241979
39 *671:32 *685:29 0
40 *671:32 *694:43 0
41 *671:47 *5258:B 0
42 *671:47 *685:48 0.000305981
43 *671:47 *694:56 0
44 *671:55 *5305:B1 0
45 *671:55 *685:48 1.54008e-05
46 *671:87 *1022:104 0.000400195
47 *5276:A *671:22 0.000209999
48 *5285:C *671:28 0
49 *5306:C *671:55 0
50 *5665:D *671:55 0
51 *5883:A *671:28 0.000292789
52 *181:8 *671:32 0.000608842
53 *622:8 *671:22 0.000274414
54 *644:31 *5281:A2 0
55 *647:8 *671:28 0
56 *647:34 *671:28 0.000614504
57 *669:8 *671:28 0
58 *669:25 *671:28 0
59 *669:99 *671:22 0
60 *669:99 *671:28 0
*RES
1 *5906:X *671:8 21.751 
2 *671:8 *671:22 25.93 
3 *671:22 *671:28 41.0944 
4 *671:28 *671:32 24.5526 
5 *671:32 *5257:A2 25.0393 
6 *671:32 *671:47 2.0497 
7 *671:47 *671:55 49.4142 
8 *671:55 *5281:A2 20.9682 
9 *671:47 *5305:A2 20 
10 *671:28 *5329:A2 40.3193 
11 *671:22 *5904:A 20 
12 *671:8 *671:87 41.8334 
13 *671:87 *5905:A 20 
*END

*D_NET *672 0.0144041
*CONN
*I *5230:A1 I *D sg13g2_o21ai_1
*I *5229:A2 I *D sg13g2_a21oi_1
*I *5242:A2 I *D sg13g2_a21oi_1
*I *4980:B I *D sg13g2_nand2_1
*I *5024:A I *D sg13g2_nor2_1
*I *5334:A I *D sg13g2_nor2_1
*I *5228:A I *D sg13g2_nor2_1
*I *5017:B1 I *D sg13g2_a22oi_1
*I *5907:X O *D sg13g2_buf_1
*CAP
1 *5230:A1 0
2 *5229:A2 0
3 *5242:A2 0.000802623
4 *4980:B 3.68402e-05
5 *5024:A 0
6 *5334:A 0
7 *5228:A 0
8 *5017:B1 0.000398505
9 *5907:X 0.000127288
10 *672:109 0.000265922
11 *672:96 0.000122764
12 *672:70 0.00137204
13 *672:58 0.000640865
14 *672:48 0.000763136
15 *672:42 0.00120482
16 *672:33 0.00155188
17 *672:14 0.00162665
18 *672:6 0.000742217
19 *4980:B *4980:A 0
20 *5017:B1 *5017:A1 0.000112812
21 *5017:B1 *718:41 0
22 *5017:B1 *1054:14 0
23 *5242:A2 *5241:A 0
24 *5242:A2 *5242:A1 0.000208048
25 *5242:A2 *690:27 0
26 *5242:A2 *1023:8 7.98406e-05
27 *5242:A2 *1026:14 0
28 *672:6 *1052:16 0
29 *672:6 *1052:37 0
30 *672:14 *5232:A1 0.000112548
31 *672:14 *1052:16 0.00017733
32 *672:33 *5016:C 0
33 *672:33 *5016:A 0.000339294
34 *672:33 *5228:B 0
35 *672:33 *5232:A1 0.000176405
36 *672:33 *686:79 0
37 *672:33 *715:123 0
38 *672:33 *1017:26 0.000135812
39 *672:42 *5228:B 1.54008e-05
40 *672:42 *686:79 0
41 *672:42 *1050:10 0
42 *672:42 *1052:16 0
43 *672:48 *690:27 0
44 *672:48 *1050:10 0
45 *672:48 *1052:16 3.24568e-05
46 *672:58 *5024:B 0
47 *672:58 *5025:A2 0.000290042
48 *672:58 *5026:B 0
49 *672:58 *5334:B 0
50 *672:58 *899:10 0
51 *672:58 *912:10 0
52 *672:58 *1045:27 0
53 *672:58 *1050:44 0.00018211
54 *672:58 *1052:16 0.000404438
55 *672:70 *690:27 0
56 *672:70 *899:10 0
57 *672:96 *4980:A 7.52158e-05
58 *672:96 *686:79 0.000341534
59 *672:109 *675:14 0
60 *672:109 *1017:37 0.000265541
61 *5017:B2 *5017:B1 0
62 *5243:C *5242:A2 0
63 *5825:CLK *5017:B1 0
64 *150:8 *672:96 0
65 *263:8 *5242:A2 0.00128301
66 *263:8 *672:70 7.51285e-05
67 *293:8 *5017:B1 0
68 *351:14 *672:6 0.000209763
69 *351:14 *672:14 4.78192e-05
70 *351:14 *672:109 0.000183978
71 *443:10 *672:14 0
72 *443:10 *672:109 0
73 *445:10 *672:96 0
*RES
1 *5907:X *672:6 21.4008 
2 *672:6 *672:14 23.6153 
3 *672:14 *5017:B1 44.0376 
4 *672:14 *672:33 28.4357 
5 *672:33 *5228:A 20 
6 *672:33 *672:42 25.5105 
7 *672:42 *672:48 21.4111 
8 *672:48 *672:58 47.416 
9 *672:58 *5334:A 20 
10 *672:48 *5024:A 20 
11 *672:42 *672:70 6.283 
12 *672:70 *4980:B 40.3193 
13 *672:70 *5242:A2 49.8159 
14 *672:33 *672:96 41.8334 
15 *672:96 *5229:A2 20 
16 *672:6 *672:109 42.8711 
17 *672:109 *5230:A1 20 
*END

*D_NET *673 0.0240641
*CONN
*I *5287:A2 I *D sg13g2_a21oi_1
*I *5263:A2 I *D sg13g2_a21oi_1
*I *5239:A2 I *D sg13g2_a21oi_1
*I *5320:A2 I *D sg13g2_a21oi_1
*I *5269:A2 I *D sg13g2_a21oi_1
*I *5296:A2 I *D sg13g2_a21oi_1
*I *5272:A2 I *D sg13g2_a21oi_1
*I *5245:A2 I *D sg13g2_a21oi_1
*I *5908:X O *D sg13g2_buf_1
*CAP
1 *5287:A2 0.000340941
2 *5263:A2 0
3 *5239:A2 0
4 *5320:A2 0.000567561
5 *5269:A2 0.000642727
6 *5296:A2 0.0005691
7 *5272:A2 0.000245315
8 *5245:A2 0.000145074
9 *5908:X 0.000967883
10 *673:112 0.000877078
11 *673:93 0.000360799
12 *673:39 0.00163163
13 *673:35 0.00145994
14 *673:33 0.00121028
15 *673:20 0.00132579
16 *673:18 0.00176453
17 *673:14 0.00129749
18 *5245:A2 *5244:B 0
19 *5245:A2 *687:73 0.000241979
20 *5269:A2 *5269:A1 1.54008e-05
21 *5269:A2 *690:39 8.02431e-05
22 *5269:A2 *713:10 0.000241374
23 *5269:A2 *1033:57 0.000193764
24 *5272:A2 *5272:A1 4.78028e-05
25 *5272:A2 *696:111 0
26 *5272:A2 *1032:23 4.79124e-05
27 *5272:A2 *1059:14 0.000453528
28 *5287:A2 *5287:A1 1.54008e-05
29 *5296:A2 *5295:B 0.000112686
30 *5296:A2 *5296:A1 1.54008e-05
31 *5296:A2 *696:111 0
32 *5296:A2 *1059:14 0.000270227
33 *5296:A2 *1059:23 0
34 *5320:A2 *702:84 0
35 *5320:A2 *712:27 0.00082093
36 *5320:A2 *987:14 0
37 *5320:A2 *987:23 0.000820897
38 *5320:A2 *1026:80 0
39 *673:14 *947:10 0
40 *673:14 *1026:122 0.000333084
41 *673:18 *5337:B 0
42 *673:18 *5689:RESET_B 0
43 *673:18 *1057:10 0
44 *673:20 *5244:B 0
45 *673:20 *5689:RESET_B 4.77699e-05
46 *673:20 *687:73 0.000824026
47 *673:33 *5340:A1 0.000159096
48 *673:33 *5341:B 0
49 *673:33 *687:56 0
50 *673:33 *712:27 0
51 *673:33 *987:14 0.000712758
52 *673:33 *1033:10 0
53 *673:33 *1033:12 0
54 *673:33 *1079:10 0.000129077
55 *673:39 *713:10 0.000306794
56 *673:39 *1033:57 0.00117252
57 *673:39 *1059:6 0
58 *673:39 *1059:14 0
59 *673:93 *5239:A1 1.54008e-05
60 *673:93 *701:77 0.00119461
61 *673:93 *1026:31 0
62 *5240:A *673:93 0
63 *5337:A *673:18 0
64 *5337:A *673:20 0
65 *5621:CLK *673:93 4.77425e-05
66 *5653:CLK *5287:A2 0
67 *5653:CLK *673:112 0.000159511
68 *5693:CLK *5269:A2 0
69 *452:8 *673:33 0
70 *469:10 *5272:A2 0
71 *486:10 *5296:A2 0
72 *502:8 *5320:A2 0.000394981
73 *605:269 *673:93 0
74 *605:296 *5296:A2 0
75 *625:72 *673:14 0
76 *625:72 *673:18 0
77 *626:47 *673:112 0.00127974
78 *626:55 *673:112 0.000503291
*RES
1 *5908:X *673:14 24.9955 
2 *673:14 *673:18 8.4563 
3 *673:18 *673:20 6.1594 
4 *673:20 *5245:A2 21.6171 
5 *673:20 *673:33 28.3327 
6 *673:33 *673:35 20 
7 *673:35 *673:39 29.4039 
8 *673:39 *5272:A2 43.1415 
9 *673:39 *5296:A2 47.3027 
10 *673:35 *5269:A2 26.6126 
11 *673:33 *5320:A2 48.0134 
12 *673:18 *673:93 45.8607 
13 *673:93 *5239:A2 20 
14 *673:14 *5263:A2 20 
15 *5908:X *673:112 49.0022 
16 *673:112 *5287:A2 43.1942 
*END

*D_NET *674 0.0144039
*CONN
*I *5311:A2 I *D sg13g2_a21oi_1
*I *5317:A2 I *D sg13g2_a21oi_1
*I *5293:A2 I *D sg13g2_a21oi_1
*I *5314:A2 I *D sg13g2_a21oi_1
*I *5290:A2 I *D sg13g2_a21oi_1
*I *5909:X O *D sg13g2_buf_1
*CAP
1 *5311:A2 0.000196057
2 *5317:A2 0
3 *5293:A2 0
4 *5314:A2 4.32889e-05
5 *5290:A2 2.77263e-05
6 *5909:X 0.000184825
7 *674:48 0.000813328
8 *674:40 0.00175033
9 *674:32 0.00172819
10 *674:21 0.00123465
11 *674:8 0.00080878
12 *5290:A2 *5909:A 0
13 *5311:A2 *5311:A1 8.03091e-05
14 *5314:A2 *5314:A1 8.01776e-05
15 *5314:A2 *702:62 8.00842e-05
16 *674:8 *5909:A 0
17 *674:8 *944:10 0
18 *674:21 *5313:B 0
19 *674:21 *5903:A 7.61961e-05
20 *674:21 *689:67 0
21 *674:21 *702:54 0.000779052
22 *674:21 *1025:34 0.00142679
23 *674:21 *1026:122 4.77425e-05
24 *674:32 *1025:34 0.00126506
25 *674:40 *5310:A 0
26 *674:40 *5311:A1 0
27 *674:40 *5316:B 0
28 *674:40 *5673:RESET_B 0.000265666
29 *674:40 *689:27 1.54556e-05
30 *674:40 *689:40 0.000944935
31 *674:48 *5293:A1 0.000695738
32 *674:48 *5316:A 0
33 *674:48 *5316:B 0
34 *674:48 *5356:A1 0.000341206
35 *674:48 *689:27 0.000501353
36 *674:48 *920:36 0
37 *674:48 *1058:19 2.20966e-05
38 *5318:A *674:48 0
39 *5318:C *674:48 0
40 *5673:D *674:40 0
41 *5902:A *674:21 0
42 *5991:A *5311:A2 0
43 *498:8 *674:21 0.000833093
44 *498:8 *674:32 0.000161737
*RES
1 *5909:X *674:8 21.9673 
2 *674:8 *5290:A2 20.3502 
3 *674:8 *674:21 30.0322 
4 *674:21 *5314:A2 40.5356 
5 *674:21 *674:32 7.519 
6 *674:32 *674:40 30.0734 
7 *674:40 *674:48 49.476 
8 *674:48 *5293:A2 20 
9 *674:40 *5317:A2 20 
10 *674:32 *5311:A2 42.1218 
*END

*D_NET *675 0.0098422
*CONN
*I *5907:A I *D sg13g2_buf_1
*I *5909:A I *D sg13g2_buf_1
*I *5266:A2 I *D sg13g2_a21oi_1
*I *5908:A I *D sg13g2_buf_1
*I *5910:X O *D sg13g2_buf_1
*CAP
1 *5907:A 0
2 *5909:A 0.000806905
3 *5266:A2 0
4 *5908:A 0.000429973
5 *5910:X 0.000165923
6 *675:26 0.000874369
7 *675:18 0.000999578
8 *675:14 0.00281568
9 *675:8 0.00161952
10 *5908:A *1026:122 0
11 *5909:A *689:67 4.77425e-05
12 *5909:A *702:8 0
13 *5909:A *702:14 0
14 *5909:A *944:10 7.62389e-05
15 *675:8 *1017:50 0
16 *675:14 *5903:A 0
17 *675:14 *1017:37 0
18 *675:14 *1017:50 0
19 *675:14 *1023:53 0.000237686
20 *675:18 *5266:A1 1.54008e-05
21 *675:18 *5266:B1 0
22 *675:18 *1068:23 0
23 *675:26 *5266:A1 4.77425e-05
24 *675:26 *5354:A0 0.000448098
25 *675:26 *702:24 0.000982569
26 *675:26 *1068:23 0
27 *5290:A2 *5909:A 0
28 *5707:D *5908:A 0
29 *5902:A *5909:A 0
30 *6012:A *5909:A 0
31 *351:14 *675:8 0.0001944
32 *351:14 *675:14 8.03692e-05
33 *640:18 *675:18 0
34 *668:31 *675:14 0
35 *672:109 *675:14 0
36 *674:8 *5909:A 0
*RES
1 *5910:X *675:8 21.751 
2 *675:8 *675:14 37.201 
3 *675:14 *675:18 25.5105 
4 *675:18 *675:26 47.0967 
5 *675:26 *5908:A 23.9964 
6 *675:18 *5266:A2 20 
7 *675:14 *5909:A 48.4048 
8 *675:8 *5907:A 20 
*END

*D_NET *676 0.00800208
*CONN
*I *5414:A I *D sg13g2_nor2b_1
*I *5406:A I *D sg13g2_and3_1
*I *5407:A I *D sg13g2_and4_1
*I *5405:A I *D sg13g2_and2_1
*I *5417:A I *D sg13g2_nor2_1
*I *5408:A I *D sg13g2_nand4_1
*I *5415:A_N I *D sg13g2_nand2b_1
*I *5488:A1 I *D sg13g2_o21ai_1
*I *5911:X O *D sg13g2_buf_1
*CAP
1 *5414:A 0.000267892
2 *5406:A 0.000370678
3 *5407:A 0.000132739
4 *5405:A 8.17368e-05
5 *5417:A 0
6 *5408:A 8.58496e-05
7 *5415:A_N 0
8 *5488:A1 8.39738e-05
9 *5911:X 0.000177078
10 *676:59 0.000230565
11 *676:51 0.000577767
12 *676:49 0.000450009
13 *676:36 0.000366347
14 *676:32 0.000989274
15 *676:28 0.000996039
16 *676:14 0.000228412
17 *676:8 0.000659761
18 *5405:A *5437:A 0
19 *5405:A *1127:8 0
20 *5406:A *5406:C 4.78521e-05
21 *5406:A *1035:22 0.000112563
22 *5406:A *1127:25 0
23 *5407:A *5407:B 6.39133e-05
24 *5407:A *5437:A 1.54556e-05
25 *5408:A *5408:B 1.54008e-05
26 *5408:A *1127:36 0
27 *5414:A *1044:18 0
28 *5414:A *1044:22 0
29 *5414:A *1125:10 0
30 *5414:A *1125:27 0
31 *5488:A1 *5415:B 0
32 *676:8 *719:43 0
33 *676:14 *5415:B 4.00698e-05
34 *676:28 *5415:B 5.56402e-05
35 *676:28 *5911:A 0
36 *676:28 *719:43 0
37 *676:28 *1044:22 0
38 *676:28 *1125:10 0
39 *676:32 *1010:12 0
40 *676:32 *1010:42 0.000287672
41 *676:32 *1010:52 0.000394981
42 *676:32 *1125:10 0.000341949
43 *676:36 *1010:12 0
44 *676:36 *1127:25 0
45 *676:36 *1127:60 0.00012816
46 *676:49 *5408:B 0
47 *676:49 *1127:60 0.000181608
48 *676:51 *5437:A 0
49 *676:51 *1127:17 0
50 *676:51 *1127:34 0
51 *676:59 *926:8 0
52 *676:59 *1126:46 0.000528474
53 *676:59 *1126:50 7.48178e-05
54 *676:59 *1127:60 0
55 *5418:D *676:59 1.54008e-05
56 *5488:B1 *5488:A1 0
57 *5488:B1 *676:14 0
58 *5757:D *676:14 0
59 *69:39 *5406:A 0
60 *548:8 *676:32 0
61 *556:8 *676:8 0
62 *556:8 *676:14 0
63 *559:8 *676:36 0
*RES
1 *5911:X *676:8 22.6471 
2 *676:8 *676:14 1.7304 
3 *676:14 *5488:A1 20.8446 
4 *676:14 *5415:A_N 20 
5 *676:8 *676:28 3.7183 
6 *676:28 *676:32 25.7886 
7 *676:32 *676:36 2.8943 
8 *676:36 *5408:A 40.9682 
9 *676:36 *676:49 20.8446 
10 *676:49 *676:51 2.4823 
11 *676:51 *676:59 43.1415 
12 *676:59 *5417:A 20 
13 *676:51 *5405:A 20.7519 
14 *676:49 *5407:A 21.6429 
15 *676:32 *5406:A 43.7234 
16 *676:28 *5414:A 23.0797 
*END

*D_NET *677 0.00126806
*CONN
*I *6037:A I *D sg13g2_buf_1
*I *5077:A2 I *D sg13g2_o21ai_1
*I *5527:Q O *D sg13g2_dfrbpq_1
*CAP
1 *6037:A 0.000227053
2 *5077:A2 0.000346881
3 *5527:Q 4.46393e-05
4 *677:8 0.000618573
5 *5077:A2 *5077:B1 1.54556e-05
6 *5077:A2 *898:29 0
7 *6037:A *5493:RESET_B 0
8 *6037:A *898:29 0
9 *5077:A1 *5077:A2 1.54556e-05
10 *5493:D *6037:A 0
11 *301:10 *5077:A2 0
12 *301:10 *677:8 0
13 *646:58 *5077:A2 0
14 *666:30 *6037:A 0
15 *666:38 *5077:A2 0
*RES
1 *5527:Q *677:8 40.5974 
2 *677:8 *5077:A2 43.7286 
3 *677:8 *6037:A 42.0247 
*END

*D_NET *678 0.0185089
*CONN
*I *5477:A I *D sg13g2_nor4_1
*I *5465:A I *D sg13g2_nor4_1
*I *5462:A I *D sg13g2_nor4_1
*I *5410:C I *D sg13g2_nand3b_1
*I *5461:A I *D sg13g2_nor3_1
*I *5483:A I *D sg13g2_nor4_1
*I *5480:A I *D sg13g2_nor4_1
*I *4962:A I *D sg13g2_inv_1
*I *5912:X O *D sg13g2_buf_1
*CAP
1 *5477:A 0.000130082
2 *5465:A 0.000473321
3 *5462:A 0.000211391
4 *5410:C 0
5 *5461:A 0
6 *5483:A 0.000346034
7 *5480:A 3.02958e-05
8 *4962:A 0
9 *5912:X 0
10 *678:99 0.00119913
11 *678:87 0.00141052
12 *678:85 0.000638503
13 *678:81 0.00184136
14 *678:67 0.00180626
15 *678:57 0.00022991
16 *678:20 0.00111876
17 *678:14 0.00127737
18 *678:12 0.000836389
19 *678:4 0.000591943
20 *5462:A *764:24 7.49633e-05
21 *5462:A *1052:20 0.000553833
22 *5465:A *5468:B 0
23 *5465:A *682:97 0
24 *5477:A *5477:B 0.000112426
25 *5480:A *5480:B 4.7687e-05
26 *5483:A *5483:B 1.53311e-05
27 *678:12 *679:43 0.000480369
28 *678:20 *5447:A 0
29 *678:20 *681:12 0.00034293
30 *678:20 *1027:12 0
31 *678:20 *1027:18 0
32 *678:57 *681:40 0.000128742
33 *678:57 *1012:24 8.00842e-05
34 *678:81 *5474:A 0.000112183
35 *678:81 *5474:B 0.000207881
36 *678:81 *5477:B 0
37 *678:81 *5915:A 0.000498134
38 *678:81 *5916:A 7.98619e-05
39 *678:81 *679:18 0.000368591
40 *678:81 *679:26 0.000336437
41 *678:81 *682:10 0.000144434
42 *678:81 *682:12 0
43 *678:81 *682:46 0
44 *678:81 *1014:46 0.000112057
45 *678:85 *5916:A 0.000207978
46 *678:85 *1014:59 0
47 *678:99 *5410:A_N 4.32321e-05
48 *678:99 *5437:C 0
49 *678:99 *682:24 0.000234936
50 *678:99 *693:8 4.77201e-05
51 *678:99 *698:26 0
52 *678:99 *1052:20 0.000719061
53 *5410:B *678:99 0
54 *5479:B *678:12 0
55 *242:8 *678:20 0
56 *550:10 *678:99 0.000610281
57 *586:16 *678:81 0.000432993
58 *586:27 *678:81 0.000375518
59 *586:103 *5477:A 0
60 *586:103 *5483:A 0
61 *586:103 *678:12 0
62 *605:219 *678:20 0
63 *605:229 *678:20 0
*RES
1 *5912:X *678:4 20 
2 *678:4 *678:12 24.0479 
3 *678:12 *678:14 1.339 
4 *678:14 *678:20 32.2879 
5 *678:20 *4962:A 20 
6 *678:14 *5480:A 40.3193 
7 *678:12 *5483:A 43.8419 
8 *678:4 *678:57 42.369 
9 *678:57 *5461:A 20 
10 *5912:X *678:67 20 
11 *678:67 *678:81 37.1804 
12 *678:81 *678:85 21.8334 
13 *678:85 *678:87 20 
14 *678:87 *678:99 34.111 
15 *678:99 *5410:C 20 
16 *678:87 *5462:A 42.8943 
17 *678:85 *5465:A 24.8719 
18 *678:67 *5477:A 21.3493 
*END

*D_NET *679 0.0194221
*CONN
*I *5471:A I *D sg13g2_nor4_1
*I *5468:A I *D sg13g2_nor4_1
*I *5474:A I *D sg13g2_nor4_1
*I *6100:A I *D sg13g2_buf_1
*I *5912:A I *D sg13g2_buf_1
*I *5913:X O *D sg13g2_buf_1
*CAP
1 *5471:A 0.000131313
2 *5468:A 0
3 *5474:A 7.00981e-05
4 *6100:A 0
5 *5912:A 2.9025e-05
6 *5913:X 0.000176434
7 *679:89 0.0005671
8 *679:81 0.00150193
9 *679:53 0.0014865
10 *679:49 0.00173465
11 *679:43 0.00204183
12 *679:26 0.0021027
13 *679:18 0.000836407
14 *679:10 0.000626506
15 *679:8 0.000979951
16 *5471:A *5471:B 1.53311e-05
17 *5474:A *5474:B 1.53311e-05
18 *5474:A *5915:A 3.22235e-05
19 *5474:A *682:46 0
20 *679:18 *5915:A 0.000368591
21 *679:43 *5480:B 0.000144046
22 *679:43 *941:8 0
23 *679:43 *1012:24 0
24 *679:43 *1041:17 0
25 *679:53 *5395:B 0.000661201
26 *679:53 *6027:A 0
27 *679:53 *711:20 0
28 *679:53 *993:8 0.00279603
29 *679:53 *993:27 0.0015668
30 *679:81 *5797:RESET_B 0
31 *679:81 *696:8 0
32 *679:89 *682:12 0
33 boot_wdata[5] *679:53 0
34 *5473:B *679:81 0
35 *5473:C *679:81 0.000240502
36 *472:8 *679:43 0
37 *586:27 *679:81 0
38 *596:8 *679:26 0
39 *678:12 *679:43 0.000480369
40 *678:81 *5474:A 0.000112183
41 *678:81 *679:18 0.000368591
42 *678:81 *679:26 0.000336437
*RES
1 *5913:X *679:8 41.5862 
2 *679:8 *679:10 20 
3 *679:10 *679:18 46.695 
4 *679:18 *679:26 43.0488 
5 *679:26 *5912:A 20.3502 
6 *679:26 *679:43 40.5594 
7 *679:43 *679:49 43.1312 
8 *679:49 *679:53 41.3622 
9 *679:53 *6100:A 20 
10 *679:10 *5474:A 20.7519 
11 *679:8 *679:81 47.9722 
12 *679:81 *679:89 45.9843 
13 *679:89 *5468:A 40 
14 *679:81 *5471:A 41.2675 
*END

*D_NET *680 0.0134297
*CONN
*I *5443:C I *D sg13g2_nor4_1
*I *5447:C I *D sg13g2_nor4_1
*I *5450:C I *D sg13g2_nor4_1
*I *5409:B I *D sg13g2_nor3_1
*I *5424:C I *D sg13g2_or4_1
*I *5456:C I *D sg13g2_nor4_1
*I *5453:C I *D sg13g2_nor4_1
*I *5459:C I *D sg13g2_nor4_1
*I *5914:X O *D sg13g2_buf_1
*CAP
1 *5443:C 0
2 *5447:C 0
3 *5450:C 0.000356284
4 *5409:B 0
5 *5424:C 0
6 *5456:C 2.48096e-05
7 *5453:C 0
8 *5459:C 0.000175691
9 *5914:X 0.000367672
10 *680:106 0.000184181
11 *680:79 0.000600868
12 *680:71 0.00084071
13 *680:55 0.000509205
14 *680:45 0.000534015
15 *680:32 0.000567226
16 *680:24 0.00101505
17 *680:22 0.00101098
18 *680:20 0.000729386
19 *680:16 0.000295331
20 *680:12 0.000388814
21 *5450:C *5450:B 4.79124e-05
22 *5450:C *1004:50 0
23 *5450:C *1027:18 0
24 *5456:C *1135:22 4.77425e-05
25 *5459:C *5459:B 4.77866e-05
26 *5459:C *1011:46 4.79124e-05
27 *5459:C *1027:49 0.000230471
28 *680:12 *5444:B 0
29 *680:12 *5445:A 0
30 *680:12 *5486:A1 0.000287256
31 *680:12 *5914:A 0.000144866
32 *680:12 *1009:38 0
33 *680:12 *1131:12 0
34 *680:16 *5443:B 3.24568e-05
35 *680:16 *5443:D 4.77863e-05
36 *680:20 *5443:A 0
37 *680:20 *5443:B 3.1684e-05
38 *680:20 *5443:D 0.000436216
39 *680:22 *1004:50 0
40 *680:22 *1027:12 0.00012816
41 *680:22 *1027:18 0.000555441
42 *680:32 *693:55 0.000180403
43 *680:32 *1027:64 0
44 *680:55 *5453:A 0
45 *680:55 *5453:D 0.000143277
46 *680:55 *693:61 0.000242118
47 *680:55 *693:87 0.000556371
48 *680:55 *714:27 7.85932e-05
49 *680:55 *714:39 0
50 *680:55 *1004:14 0
51 *680:55 *1011:46 0
52 *680:55 *1027:34 0.000395323
53 *680:55 *1135:22 1.54008e-05
54 *680:71 *1011:29 0.000404005
55 *680:71 *1027:64 0
56 *680:79 *5424:A 0.000906574
57 *680:79 *693:47 0
58 *680:79 *1121:8 0.000225786
59 *680:106 *5447:A 2.14736e-05
60 *680:106 *1009:48 0
61 *680:106 *1027:12 0.00015729
62 *5457:D *680:55 0
63 *5779:D *680:12 1.54008e-05
64 *5877:A *680:79 0
65 *69:39 *5450:C 0
66 *246:10 *680:20 0.000112048
67 *551:10 *680:32 0
68 *551:10 *680:71 0.000242341
69 *551:10 *680:79 0
70 *583:10 *5459:C 0
71 *583:10 *680:55 4.74163e-05
72 *585:8 *5459:C 0
73 *605:199 *680:24 0
74 *605:199 *680:32 0
75 *605:219 *680:106 0
76 *614:10 *680:32 0
*RES
1 *5914:X *680:12 43.8625 
2 *680:12 *680:16 20.3193 
3 *680:16 *680:20 22.9149 
4 *680:20 *680:22 3.5638 
5 *680:22 *680:24 4.5526 
6 *680:24 *680:32 43.7286 
7 *680:32 *5459:C 41.9055 
8 *680:32 *680:45 20 
9 *680:45 *680:55 46.4581 
10 *680:55 *5453:C 20 
11 *680:45 *5456:C 20.3193 
12 *680:24 *680:71 22.6986 
13 *680:71 *680:79 47.1431 
14 *680:79 *5424:C 20 
15 *680:71 *5409:B 20 
16 *680:22 *5450:C 43.3475 
17 *680:20 *680:106 42.0291 
18 *680:106 *5447:C 40 
19 *680:16 *5443:C 20 
*END

*D_NET *681 0.00959443
*CONN
*I *5914:A I *D sg13g2_buf_1
*I *5486:A1 I *D sg13g2_o21ai_1
*I *5477:C I *D sg13g2_nor4_1
*I *5461:B I *D sg13g2_nor3_1
*I *5480:C I *D sg13g2_nor4_1
*I *5483:C I *D sg13g2_nor4_1
*I *5915:X O *D sg13g2_buf_1
*CAP
1 *5914:A 0.000144953
2 *5486:A1 0.000649884
3 *5477:C 0
4 *5461:B 0
5 *5480:C 0
6 *5483:C 0
7 *5915:X 0
8 *681:64 0.00153011
9 *681:53 0.000132191
10 *681:40 0.000261451
11 *681:32 0.000892796
12 *681:20 0.000363273
13 *681:12 0.00086995
14 *681:4 0.000534934
15 *5486:A1 *5445:A 0
16 *5486:A1 *5486:A2 4.78359e-05
17 *5486:A1 *5959:A 0
18 *5486:A1 *1009:38 6.29645e-05
19 *5486:A1 *1012:12 0
20 *5486:A1 *1012:68 0
21 *5486:A1 *1131:12 0
22 *681:12 *694:25 0
23 *681:12 *1012:24 0
24 *681:12 *1132:10 0
25 *681:20 *5480:B 4.77425e-05
26 *681:20 *1012:32 0.000892959
27 *681:32 *694:25 0
28 *681:40 *5461:C 1.54008e-05
29 *681:40 *694:10 0.000339877
30 *681:53 *5461:C 4.77425e-05
31 *681:53 *5477:D 0.000421816
32 *681:53 *694:10 0.000496701
33 *681:53 *1012:44 7.48842e-05
34 *681:64 *5445:A 0
35 *681:64 *5915:A 0
36 *681:64 *694:10 0
37 *681:64 *1012:18 4.76665e-05
38 *5486:B1 *5486:A1 0.000532573
39 *5777:CLK *5486:A1 0
40 *599:10 *681:20 0.00028293
41 *605:229 *681:20 0
42 *650:51 *681:64 0
43 *650:64 *5914:A 0
44 *678:20 *681:12 0.00034293
45 *678:57 *681:40 0.000128742
46 *680:12 *5486:A1 0.000287256
47 *680:12 *5914:A 0.000144866
*RES
1 *5915:X *681:4 20 
2 *681:4 *681:12 44.9337 
3 *681:12 *681:20 45.0882 
4 *681:20 *5483:C 20 
5 *681:12 *5480:C 20 
6 *681:4 *681:32 0.3193 
7 *681:32 *681:40 41.9055 
8 *681:40 *5461:B 20 
9 *681:40 *681:53 42.6471 
10 *681:53 *5477:C 20 
11 *681:32 *681:64 27.9928 
12 *681:64 *5486:A1 47.1997 
13 *681:64 *5914:A 41.4008 
*END

*D_NET *682 0.0131958
*CONN
*I *5465:C I *D sg13g2_nor4_1
*I *5468:C I *D sg13g2_nor4_1
*I *5462:C I *D sg13g2_nor4_1
*I *5471:C I *D sg13g2_nor4_1
*I *5474:C I *D sg13g2_nor4_1
*I *5915:A I *D sg13g2_buf_1
*I *5423:C I *D sg13g2_and4_1
*I *5410:A_N I *D sg13g2_nand3b_1
*I *5916:X O *D sg13g2_buf_1
*CAP
1 *5465:C 0
2 *5468:C 0
3 *5462:C 0
4 *5471:C 0.000169873
5 *5474:C 0
6 *5915:A 0.00109518
7 *5423:C 2.58084e-05
8 *5410:A_N 2.30424e-05
9 *5916:X 0.000141599
10 *682:110 0.000311497
11 *682:97 0.000453096
12 *682:85 0.000152681
13 *682:46 0.00166698
14 *682:24 0.000674886
15 *682:14 0.00131319
16 *682:12 0.00131976
17 *682:10 0.000486079
18 *682:4 0.000356457
19 *5410:A_N *5437:C 4.31222e-05
20 *5423:C *5423:D 4.77702e-05
21 *5471:C *5471:B 4.75616e-05
22 *5915:A *5474:D 3.1527e-05
23 *5915:A *1012:18 0.000432549
24 *5915:A *1012:24 4.77425e-05
25 *682:10 *5916:A 0
26 *682:10 *1014:46 0.000176219
27 *682:24 *698:18 0
28 *682:24 *1009:24 0.000404224
29 *682:46 *5474:B 0.000272195
30 *682:85 *1014:59 4.77083e-05
31 *682:97 *5468:B 4.75265e-05
32 *682:97 *1014:59 0.000240195
33 *682:110 *5468:B 0.000257583
34 *682:110 *1014:59 4.76456e-05
35 *682:110 *1014:72 0.000748907
36 *5423:B *5423:C 4.77702e-05
37 *5465:A *682:97 0
38 *5473:B *5471:C 0
39 *5474:A *5915:A 3.22235e-05
40 *5474:A *682:46 0
41 *5476:B *5915:A 0.000743912
42 *5763:CLK *682:24 0
43 *586:10 *5915:A 0
44 *678:81 *5915:A 0.000498134
45 *678:81 *682:10 0.000144434
46 *678:81 *682:12 0
47 *678:81 *682:46 0
48 *678:99 *5410:A_N 4.32321e-05
49 *678:99 *682:24 0.000234936
50 *679:18 *5915:A 0.000368591
51 *679:89 *682:12 0
52 *681:64 *5915:A 0
*RES
1 *5916:X *682:4 20 
2 *682:4 *682:10 22.1836 
3 *682:10 *682:12 0.8446 
4 *682:12 *682:14 7.7662 
5 *682:14 *682:24 47.107 
6 *682:24 *5410:A_N 40.2884 
7 *682:14 *5423:C 40.3193 
8 *682:12 *682:46 25.7268 
9 *682:46 *5915:A 32.257 
10 *682:46 *5474:C 20 
11 *682:10 *5471:C 41.6274 
12 *682:4 *682:85 41.6274 
13 *682:85 *5462:C 20 
14 *5916:X *682:97 21.6171 
15 *682:97 *5468:C 20 
16 *682:97 *682:110 44.4084 
17 *682:110 *5465:C 20 
*END

*D_NET *683 0.0171778
*CONN
*I *5254:A1 I *D sg13g2_a21oi_1
*I *5278:A1 I *D sg13g2_a21oi_1
*I *5302:A1 I *D sg13g2_a21oi_1
*I *5326:A1 I *D sg13g2_a21oi_1
*I *5308:A1 I *D sg13g2_a21oi_1
*I *5332:A1 I *D sg13g2_a21oi_1
*I *5284:A1 I *D sg13g2_a21oi_1
*I *5260:A1 I *D sg13g2_a21oi_1
*I *5917:X O *D sg13g2_buf_1
*CAP
1 *5254:A1 0
2 *5278:A1 0
3 *5302:A1 2.86876e-05
4 *5326:A1 0.000590633
5 *5308:A1 0
6 *5332:A1 0
7 *5284:A1 0.000653169
8 *5260:A1 0
9 *5917:X 0.000588809
10 *683:82 0.00102393
11 *683:62 0.000485487
12 *683:52 0.00141339
13 *683:48 0.00155821
14 *683:44 0.000642482
15 *683:33 0.00145192
16 *683:24 0.00040293
17 *683:14 0.00123881
18 *683:8 0.00104272
19 *5284:A1 *5279:B 0.000100976
20 *5284:A1 *5284:B1 0
21 *5284:A1 *695:60 0.00100393
22 *5284:A1 *711:71 0
23 *5302:A1 *1021:20 0
24 *5326:A1 *5326:B1 0
25 *5326:A1 *695:103 0
26 *5326:A1 *1022:66 0
27 *5326:A1 *1061:34 0
28 *683:8 *685:27 0
29 *683:8 *695:10 0
30 *683:14 *5283:B 1.54008e-05
31 *683:14 *685:27 0
32 *683:24 *5283:B 0
33 *683:24 *5635:RESET_B 0
34 *683:24 *695:35 0
35 *683:33 *695:35 0
36 *683:48 *1030:70 0
37 *683:48 *1061:18 0.000609684
38 *683:52 *5667:RESET_B 0
39 *683:52 *1021:26 0
40 *683:62 *949:8 0.0004016
41 *683:62 *1072:30 0.000130055
42 *683:82 *695:103 0
43 *683:82 *1021:20 0.000500215
44 *683:82 *1030:70 0
45 *683:82 *1061:18 0.00023547
46 *5260:A2 *683:24 0.000443225
47 *5302:A2 *5302:A1 0
48 *5302:A2 *5326:A1 0.000274381
49 *5303:A *5302:A1 1.54556e-05
50 *5303:A *5326:A1 0
51 *5303:A *683:82 0.000177323
52 *5326:A2 *5326:A1 0.000339546
53 *5327:A *5326:A1 0
54 *5631:CLK *683:8 0.000598772
55 *5631:CLK *683:14 1.54008e-05
56 *5635:CLK *683:24 0
57 *5667:CLK *683:52 0
58 *6006:A *5326:A1 0
59 *6006:A *683:82 0
60 *458:16 *683:8 0
61 *458:16 *683:14 0
62 *474:8 *683:33 0
63 *474:8 *683:44 0
64 *474:8 *683:48 0
65 *494:12 *683:52 0.000242252
66 *669:8 *5284:A1 0
67 *669:25 *5284:A1 0.000889774
68 *669:31 *5284:A1 1.54556e-05
69 *669:99 *683:8 3.23417e-05
70 *669:99 *683:14 1.54008e-05
*RES
1 *5917:X *683:8 26.1388 
2 *683:8 *683:14 4.4496 
3 *683:14 *683:24 44.4496 
4 *683:24 *5260:A1 20 
5 *683:14 *683:33 23.3166 
6 *683:33 *5284:A1 47.8898 
7 *683:33 *683:44 3.811 
8 *683:44 *683:48 3.6359 
9 *683:48 *683:52 29.8365 
10 *683:52 *683:62 45.9328 
11 *683:62 *5332:A1 20 
12 *683:52 *5308:A1 20 
13 *683:48 *683:82 25.6341 
14 *683:82 *5326:A1 26.8392 
15 *683:82 *5302:A1 20.5356 
16 *683:44 *5278:A1 40 
17 *683:8 *5254:A1 20 
*END

*D_NET *684 0.01179
*CONN
*I *5248:A1 I *D sg13g2_a21oi_1
*I *5323:A1 I *D sg13g2_a21oi_1
*I *5299:A1 I *D sg13g2_a21oi_1
*I *5275:A1 I *D sg13g2_a21oi_1
*I *5251:A1 I *D sg13g2_a21oi_1
*I *5918:X O *D sg13g2_buf_1
*CAP
1 *5248:A1 7.55876e-05
2 *5323:A1 0.000661546
3 *5299:A1 5.25296e-05
4 *5275:A1 0.00056848
5 *5251:A1 0.000220215
6 *5918:X 0.000140182
7 *684:40 0.00129939
8 *684:29 0.0016284
9 *684:16 0.00133024
10 *684:12 0.000711002
11 *684:10 0.000140182
12 *5248:A1 *5248:B1 0
13 *5248:A1 *685:10 0
14 *5251:A1 *935:25 0
15 *5251:A1 *1022:8 0
16 *5275:A1 *5976:A 0
17 *5299:A1 *5322:B 0
18 *5323:A1 *713:35 0
19 *5323:A1 *930:8 0
20 *684:10 *764:16 0.000342145
21 *684:16 *685:10 0
22 *684:29 *5276:B 0
23 *684:29 *5344:A0 0
24 *684:29 *1022:42 0
25 *684:40 *5344:A0 0
26 *684:40 *713:35 0
27 *5275:A2 *5275:A1 0.000436162
28 *5299:A2 *5299:A1 4.78028e-05
29 *5323:A2 *5323:A1 0.00122955
30 *5323:A2 *684:40 7.51285e-05
31 *5629:CLK *5251:A1 0
32 *5661:CLK *5323:A1 0.000598674
33 *670:6 *5248:A1 1.54556e-05
34 *670:10 *5248:A1 0
35 *670:10 *5251:A1 6.48152e-05
36 *670:10 *684:16 0
37 *670:18 *5251:A1 1.54008e-05
38 *670:31 *5275:A1 0.00046856
39 *670:31 *684:29 7.51285e-05
40 *670:31 *684:40 0.00154623
41 *671:22 *684:10 4.72458e-05
*RES
1 *5918:X *684:10 41.9055 
2 *684:10 *684:12 20 
3 *684:12 *684:16 26.8083 
4 *684:16 *5251:A1 42.1218 
5 *684:16 *684:29 5.5414 
6 *684:29 *5275:A1 46.1594 
7 *684:29 *684:40 7.519 
8 *684:40 *5299:A1 40.5356 
9 *684:40 *5323:A1 47.8074 
10 *684:12 *5248:A1 20.7519 
*END

*D_NET *685 0.0179345
*CONN
*I *5918:A I *D sg13g2_buf_1
*I *5329:A1 I *D sg13g2_a21oi_1
*I *5305:A1 I *D sg13g2_a21oi_1
*I *5281:A1 I *D sg13g2_a21oi_1
*I *5257:A1 I *D sg13g2_a21oi_1
*I *5917:A I *D sg13g2_buf_1
*I *5919:X O *D sg13g2_buf_1
*CAP
1 *5918:A 0
2 *5329:A1 0.000105998
3 *5305:A1 0
4 *5281:A1 0.000171409
5 *5257:A1 0.000425409
6 *5917:A 0
7 *5919:X 0.00040178
8 *685:58 0.0011153
9 *685:48 0.00118387
10 *685:29 0.0011048
11 *685:27 0.00309941
12 *685:10 0.00412397
13 *685:8 0.00197175
14 *5257:A1 *5258:B 0
15 *5257:A1 *1020:6 0
16 *5329:A1 *5329:B1 0
17 *5329:A1 *694:39 0
18 *685:8 *5248:B1 0.000145113
19 *685:10 *5248:B1 0
20 *685:10 *5928:A 0
21 *685:10 *935:12 0
22 *685:10 *935:25 0
23 *685:27 *5254:B1 8.00842e-05
24 *685:27 *5283:B 0
25 *685:27 *914:8 0
26 *685:27 *1086:25 0
27 *685:48 *5328:B 0
28 *685:48 *1020:6 0.00027403
29 *5248:A1 *685:10 0
30 *5257:A2 *5257:A1 0.000468708
31 *5257:A2 *685:48 0
32 *5281:A2 *5281:A1 0.000145154
33 *5282:A *5281:A1 0
34 *5285:C *685:27 0.000404367
35 *5329:A2 *5329:A1 4.77425e-05
36 *5627:CLK *685:8 0
37 *5631:CLK *685:27 0
38 *492:10 *685:58 0.00018416
39 *613:21 *685:27 0
40 *644:31 *5281:A1 0
41 *670:10 *685:10 0
42 *670:18 *685:10 0
43 *671:22 *685:8 0
44 *671:22 *685:10 0
45 *671:22 *685:27 0.000816491
46 *671:28 *685:27 0.00134354
47 *671:32 *685:29 0
48 *671:47 *685:48 0.000305981
49 *671:55 *685:48 1.54008e-05
50 *683:8 *685:27 0
51 *683:14 *685:27 0
52 *684:16 *685:10 0
*RES
1 *5919:X *685:8 23.6977 
2 *685:8 *685:10 15.6766 
3 *685:10 *5917:A 20 
4 *685:10 *685:27 47.3053 
5 *685:27 *685:29 4.5526 
6 *685:29 *5257:A1 44.9234 
7 *685:29 *685:48 22.6986 
8 *685:48 *685:58 49.1464 
9 *685:58 *5281:A1 21.8334 
10 *685:48 *5305:A1 20 
11 *685:27 *5329:A1 40.9682 
12 *685:8 *5918:A 20 
*END

*D_NET *686 0.0127131
*CONN
*I *5016:C I *D sg13g2_nand3_1
*I *4980:A I *D sg13g2_nand2_1
*I *5229:A1 I *D sg13g2_a21oi_1
*I *5017:A1 I *D sg13g2_a22oi_1
*I *4988:B I *D sg13g2_and3_1
*I *4986:A I *D sg13g2_nor2_1
*I *5021:B I *D sg13g2_and3_1
*I *4985:B I *D sg13g2_and3_1
*I *5920:X O *D sg13g2_buf_1
*CAP
1 *5016:C 0.000374326
2 *4980:A 0.000849691
3 *5229:A1 3.03288e-05
4 *5017:A1 0.000526178
5 *4988:B 0
6 *4986:A 0.000292425
7 *5021:B 0
8 *4985:B 0
9 *5920:X 0
10 *686:79 0.00133134
11 *686:73 0.00104673
12 *686:60 0.00116223
13 *686:38 0.000382527
14 *686:34 0.000980864
15 *686:22 0.000338022
16 *686:12 0.000580839
17 *686:4 0.000718608
18 *4986:A *715:57 0
19 *5016:C *5232:A1 1.54556e-05
20 *5016:C *1052:16 0.000550872
21 *5017:A1 *5017:A2 0
22 *686:12 *5024:B 0
23 *686:12 *690:10 0
24 *686:12 *700:48 0
25 *686:12 *1035:22 8.02763e-05
26 *686:12 *1050:10 0
27 *686:12 *1054:24 8.02763e-05
28 *686:22 *4985:A 3.58069e-05
29 *686:22 *5021:C 0.000305692
30 *686:22 *700:48 0
31 *686:22 *1051:27 3.59167e-05
32 *686:22 *1051:33 3.46518e-06
33 *686:22 *1055:19 0.000340651
34 *686:34 *5815:RESET_B 0
35 *686:34 *1035:22 0.000240662
36 *686:34 *1054:24 0.000775495
37 *686:60 *5815:RESET_B 0
38 *686:60 *715:74 0
39 *686:60 *1054:24 9.72993e-05
40 *686:73 *715:74 0
41 *686:79 *1052:16 0.000404454
42 *4980:B *4980:A 0
43 *4989:A2 *5017:A1 0
44 *4989:A2 *686:60 0
45 *5017:B1 *5017:A1 0.000112812
46 *5017:B2 *5017:A1 0
47 *5235:A2 *5229:A1 4.77425e-05
48 *5825:CLK *5017:A1 0
49 *266:66 *4986:A 0
50 *266:66 *686:38 0
51 *445:10 *4980:A 0
52 *605:29 *4986:A 0
53 *638:16 *686:73 0.000555321
54 *638:29 *4986:A 0
55 *638:29 *686:38 0
56 *672:33 *5016:C 0
57 *672:33 *686:79 0
58 *672:42 *686:79 0
59 *672:96 *4980:A 7.52158e-05
60 *672:96 *686:79 0.000341534
*RES
1 *5920:X *686:4 20 
2 *686:4 *686:12 42.369 
3 *686:12 *686:22 43.8754 
4 *686:22 *4985:B 20 
5 *686:12 *5021:B 20 
6 *686:4 *686:34 5.2942 
7 *686:34 *686:38 20.8446 
8 *686:38 *4986:A 42.575 
9 *686:38 *4988:B 40 
10 *686:34 *686:60 24.5629 
11 *686:60 *5017:A1 45.5105 
12 *686:60 *686:73 23.3166 
13 *686:73 *686:79 25.2736 
14 *686:79 *5229:A1 40.3193 
15 *686:79 *4980:A 49.8159 
16 *686:73 *5016:C 23.7801 
*END

*D_NET *687 0.0211017
*CONN
*I *5269:A1 I *D sg13g2_a21oi_1
*I *5266:A1 I *D sg13g2_a21oi_1
*I *5263:A1 I *D sg13g2_a21oi_1
*I *5239:A1 I *D sg13g2_a21oi_1
*I *5245:A1 I *D sg13g2_a21oi_1
*I *5320:A1 I *D sg13g2_a21oi_1
*I *5296:A1 I *D sg13g2_a21oi_1
*I *5272:A1 I *D sg13g2_a21oi_1
*I *5921:X O *D sg13g2_buf_1
*CAP
1 *5269:A1 0.000694966
2 *5266:A1 0.000791949
3 *5263:A1 0
4 *5239:A1 9.11885e-05
5 *5245:A1 0
6 *5320:A1 0.000586141
7 *5296:A1 0.000410473
8 *5272:A1 0.000380425
9 *5921:X 0.000531154
10 *687:96 0.000370988
11 *687:86 0.0018984
12 *687:77 0.0013724
13 *687:73 0.00216307
14 *687:56 0.00163002
15 *687:24 0.00146084
16 *687:20 0.00132262
17 *5239:A1 *5239:B1 0
18 *5266:A1 *701:25 0
19 *5266:A1 *702:32 0
20 *5266:A1 *1068:23 0
21 *5269:A1 *690:39 0
22 *5269:A1 *920:12 0.000960385
23 *5272:A1 *713:18 0
24 *5272:A1 *1032:23 0
25 *5296:A1 *5295:B 0
26 *5296:A1 *5659:RESET_B 0.000296852
27 *5320:A1 *1032:49 0.000608354
28 *5320:A1 *1067:43 0
29 *687:20 *690:39 0
30 *687:20 *1032:23 0
31 *687:24 *1032:49 0.00162094
32 *687:56 *690:39 0
33 *687:56 *987:14 0
34 *687:56 *1032:17 0
35 *687:56 *1032:23 0
36 *687:56 *1032:49 0
37 *687:73 *5245:B1 0
38 *687:73 *5689:RESET_B 0.000112059
39 *687:77 *701:77 0
40 *687:77 *920:12 0.000446767
41 *687:86 *5239:B1 0
42 *687:86 *701:25 0
43 *687:96 *5264:B 0.000556238
44 *687:96 *690:31 0
45 *5245:A2 *687:73 0.000241979
46 *5269:A2 *5269:A1 1.54008e-05
47 *5272:A2 *5272:A1 4.78028e-05
48 *5296:A2 *5296:A1 1.54008e-05
49 *5341:A *687:56 8.03089e-05
50 *5621:CLK *5239:A1 0
51 *5621:CLK *687:86 0
52 *5625:CLK *687:73 0
53 *5643:CLK *5272:A1 0
54 *5968:A *687:86 0
55 *159:8 *687:96 0.000128334
56 *185:8 *687:77 0
57 *452:8 *687:56 7.52158e-05
58 *464:8 *687:96 0.000552918
59 *468:8 *5269:A1 0
60 *470:10 *5272:A1 0.000208917
61 *485:10 *687:24 0
62 *486:10 *5296:A1 8.0216e-05
63 *605:279 *5320:A1 0
64 *605:296 *5296:A1 0
65 *605:296 *5320:A1 0
66 *625:8 *687:73 0
67 *625:72 *687:73 0
68 *663:46 *687:96 0.000446439
69 *673:20 *687:73 0.000824026
70 *673:33 *687:56 0
71 *673:93 *5239:A1 1.54008e-05
72 *675:18 *5266:A1 1.54008e-05
73 *675:26 *5266:A1 4.77425e-05
*RES
1 *5921:X *5272:A1 42.7041 
2 *5921:X *687:20 21.4008 
3 *687:20 *687:24 27.519 
4 *687:24 *5296:A1 44.4496 
5 *687:24 *5320:A1 46.2642 
6 *687:20 *687:56 48.0546 
7 *687:56 *5245:A1 20 
8 *687:56 *687:73 29.6923 
9 *687:73 *687:77 26.283 
10 *687:77 *5239:A1 20.7519 
11 *687:77 *687:86 7.0246 
12 *687:86 *687:96 46.2109 
13 *687:96 *5263:A1 20 
14 *687:86 *5266:A1 28.5593 
15 *687:73 *5269:A1 48.2709 
*END

*D_NET *688 0.00404353
*CONN
*I *5079:A2 I *D sg13g2_o21ai_1
*I *6038:A I *D sg13g2_buf_1
*I *5529:Q O *D sg13g2_dfrbpq_1
*CAP
1 *5079:A2 0.000137622
2 *6038:A 0.000395568
3 *5529:Q 0.000233881
4 *688:8 0.000767072
5 *5079:A2 *5072:B1 1.54556e-05
6 *5079:A2 *5079:A1 0.000161086
7 *5079:A2 *705:75 0
8 *5079:A2 *820:14 0
9 *6038:A *5079:A1 0
10 *6038:A *5529:RESET_B 0
11 *6038:A *705:53 0
12 *6038:A *820:14 0.000307051
13 *688:8 *5079:A1 0.00109244
14 *5080:B1 *5079:A2 0
15 *5529:D *6038:A 0
16 *656:24 *688:8 0.000933349
*RES
1 *5529:Q *688:8 45.2942 
2 *688:8 *6038:A 44.3157 
3 *688:8 *5079:A2 41.5038 
*END

*D_NET *689 0.0160865
*CONN
*I *5311:A1 I *D sg13g2_a21oi_1
*I *5314:A1 I *D sg13g2_a21oi_1
*I *5290:A1 I *D sg13g2_a21oi_1
*I *5287:A1 I *D sg13g2_a21oi_1
*I *5317:A1 I *D sg13g2_a21oi_1
*I *5293:A1 I *D sg13g2_a21oi_1
*I *5922:X O *D sg13g2_buf_1
*CAP
1 *5311:A1 0.000595891
2 *5314:A1 9.7489e-05
3 *5290:A1 0
4 *5287:A1 5.92537e-05
5 *5317:A1 0
6 *5293:A1 0.000549962
7 *5922:X 9.57496e-05
8 *689:67 0.000636259
9 *689:61 0.00120123
10 *689:48 0.00115414
11 *689:40 0.00179057
12 *689:27 0.000911757
13 *689:8 0.000990195
14 *5287:A1 *5653:RESET_B 0
15 *5293:A1 *5292:A 1.54282e-05
16 *5293:A1 *5293:B1 0.000274452
17 *5293:A1 *5316:A 0.000436687
18 *5311:A1 *717:51 0
19 *5311:A1 *997:25 0
20 *689:48 *717:51 0.000341205
21 *689:48 *997:25 2.22695e-05
22 *689:61 *5287:B1 0
23 *689:61 *5653:RESET_B 0
24 *689:67 *702:14 0
25 *689:67 *702:54 0.000890143
26 *689:67 *1025:8 8.00842e-05
27 *689:67 *1026:122 0.0001122
28 *5287:A2 *5287:A1 1.54008e-05
29 *5311:A2 *5311:A1 8.03091e-05
30 *5314:A2 *5314:A1 8.01776e-05
31 *5641:CLK *689:8 0
32 *5641:CLK *689:27 0
33 *5653:CLK *689:61 0
34 *5909:A *689:67 4.77425e-05
35 *480:8 *689:48 7.51285e-05
36 *484:12 *5293:A1 0
37 *498:8 *689:61 0.000130636
38 *498:8 *689:67 0.000889568
39 *663:55 *689:61 0.000488699
40 *663:55 *689:67 0.00186642
41 *663:89 *5311:A1 0
42 *663:95 *5311:A1 0
43 *674:21 *689:67 0
44 *674:40 *5311:A1 0
45 *674:40 *689:27 1.54556e-05
46 *674:40 *689:40 0.000944935
47 *674:48 *5293:A1 0.000695738
48 *674:48 *689:27 0.000501353
*RES
1 *5922:X *689:8 41.0918 
2 *689:8 *5293:A1 46.7053 
3 *689:8 *689:27 23.9449 
4 *689:27 *5317:A1 20 
5 *689:27 *689:40 26.8289 
6 *689:40 *689:48 25.7165 
7 *689:48 *5287:A1 20.5356 
8 *689:48 *689:61 25.0264 
9 *689:61 *689:67 31.2064 
10 *689:67 *5290:A1 20 
11 *689:61 *5314:A1 40.9682 
12 *689:40 *5311:A1 45.3663 
*END

*D_NET *690 0.0167508
*CONN
*I *5242:A1 I *D sg13g2_a21oi_1
*I *5922:A I *D sg13g2_buf_1
*I *5921:A I *D sg13g2_buf_1
*I *5920:A I *D sg13g2_buf_1
*I *5923:X O *D sg13g2_buf_1
*CAP
1 *5242:A1 0.000128333
2 *5922:A 0.000572318
3 *5921:A 0
4 *5920:A 0.000124881
5 *5923:X 0.0001933
6 *690:39 0.00194262
7 *690:31 0.00414752
8 *690:27 0.00354743
9 *690:10 0.00210469
10 *5242:A1 *1026:8 0
11 *5920:A *1050:34 0.000176577
12 *5920:A *1054:24 0.000208271
13 *5922:A *5316:A 0
14 *5922:A *5657:RESET_B 0
15 *5922:A *996:10 0
16 *690:10 *700:48 4.76296e-05
17 *690:10 *715:31 4.74263e-05
18 *690:10 *1035:28 0
19 *690:10 *1050:10 0.000126354
20 *690:27 *1023:8 7.98406e-05
21 *690:27 *1023:16 0
22 *690:27 *1026:8 0
23 *690:27 *1026:14 0.000144188
24 *690:27 *1035:28 0
25 *690:27 *1050:10 0.00134133
26 *690:31 *5264:B 0
27 *690:31 *996:10 0
28 *690:31 *1023:102 0
29 *690:31 *1023:127 0
30 *690:39 *5641:RESET_B 0.000338739
31 *690:39 *5693:RESET_B 0
32 *690:39 *712:8 0.000144849
33 *690:39 *713:18 0.000598734
34 *690:39 *1032:23 0
35 *690:39 *1033:8 4.73096e-05
36 *690:39 *1033:57 0.000273848
37 *5022:A2 *690:10 0.000126358
38 *5242:A2 *5242:A1 0.000208048
39 *5242:A2 *690:27 0
40 *5269:A1 *690:39 0
41 *5269:A2 *690:39 8.02431e-05
42 *5341:A *690:39 0
43 *5641:CLK *690:39 0
44 *5657:D *5922:A 0
45 *5854:A *690:39 0
46 *5971:A *5242:A1 0
47 *159:8 *690:31 0
48 *484:12 *5922:A 0
49 *618:14 *690:39 0
50 *626:34 *690:39 0
51 *663:46 *690:31 0
52 *668:60 *690:39 0
53 *672:48 *690:27 0
54 *672:70 *690:27 0
55 *686:12 *690:10 0
56 *687:20 *690:39 0
57 *687:56 *690:39 0
58 *687:96 *690:31 0
*RES
1 *5923:X *690:10 42.1527 
2 *690:10 *5920:A 41.4008 
3 *690:10 *690:27 41.3519 
4 *690:27 *690:31 37.9014 
5 *690:31 *690:39 39.6833 
6 *690:39 *5921:A 20 
7 *690:31 *5922:A 46.5405 
8 *690:27 *5242:A1 21.4008 
*END

*D_NET *691 0.0124571
*CONN
*I *4992:B I *D sg13g2_nor4_1
*I *5144:A1 I *D sg13g2_o21ai_1
*I *5146:A1 I *D sg13g2_a21oi_1
*I *5149:B I *D sg13g2_and3_1
*I *5063:A I *D sg13g2_nor2b_1
*I *5147:B I *D sg13g2_and2_1
*I *5152:C I *D sg13g2_and4_1
*I *5145:A1 I *D sg13g2_a21oi_1
*I *5924:X O *D sg13g2_buf_1
*CAP
1 *4992:B 0.000152886
2 *5144:A1 0
3 *5146:A1 0
4 *5149:B 0
5 *5063:A 0.000556318
6 *5147:B 0
7 *5152:C 7.93504e-05
8 *5145:A1 0.000179755
9 *5924:X 4.20782e-05
10 *691:53 0.000658247
11 *691:49 0.000687343
12 *691:40 0.000585414
13 *691:29 0.00036133
14 *691:25 0.000539249
15 *691:10 0.000824222
16 *691:8 0.000582161
17 *4992:B *1090:79 0.000181192
18 *4992:B *1091:34 9.65572e-05
19 *4992:B *1091:42 4.78853e-05
20 *4992:B *1093:85 0.00014447
21 *4992:B *1093:91 1.54556e-05
22 *5063:A *1002:10 0
23 *5063:A *1093:57 7.48842e-05
24 *5152:C *705:31 0.000396405
25 *691:8 *1090:62 0
26 *691:10 *705:31 0
27 *691:25 *5577:RESET_B 0
28 *691:29 *705:31 0.00113988
29 *691:29 *1007:81 0
30 *691:49 *1093:14 0
31 *691:49 *1093:44 0.000208617
32 *691:53 *1093:57 0.000286322
33 *5144:A2 *691:25 8.00842e-05
34 *5145:A2 *5145:A1 0.000326354
35 *5146:A2 *691:49 3.23417e-05
36 *5151:A1 *691:49 2.21754e-05
37 *5577:D *691:25 8.02431e-05
38 *348:22 *691:8 0
39 *348:22 *691:29 0.000128663
40 *348:32 *691:29 0.000181192
41 *374:10 *4992:B 0.000287256
42 *374:10 *691:10 0.00107623
43 *374:12 *5145:A1 0.000106064
44 *374:12 *691:10 0.000345126
45 *374:31 *691:25 0.000145053
46 *374:42 *5145:A1 0
47 *374:48 *691:49 8.00842e-05
48 *374:69 *5152:C 0.000343546
49 *374:69 *691:29 0.000106015
50 *374:76 *691:49 0.000745113
51 *374:84 *691:53 0.000339305
52 *607:8 *5145:A1 0.000144678
53 *658:24 *5063:A 4.75265e-05
*RES
1 *5924:X *691:8 40.3193 
2 *691:8 *691:10 6.5302 
3 *691:10 *5145:A1 42.3072 
4 *691:10 *691:25 22.6986 
5 *691:25 *691:29 25.2942 
6 *691:29 *5152:C 41.8334 
7 *691:29 *691:40 20 
8 *691:40 *5147:B 20 
9 *691:40 *691:49 6.077 
10 *691:49 *691:53 21.8334 
11 *691:53 *5063:A 46.386 
12 *691:53 *5149:B 40 
13 *691:49 *5146:A1 20 
14 *691:25 *5144:A1 20 
15 *691:8 *4992:B 42.3072 
*END

*D_NET *692 0.00872479
*CONN
*I *5110:A2 I *D sg13g2_a21oi_1
*I *5107:A2 I *D sg13g2_o21ai_1
*I *5111:A2 I *D sg13g2_a21o_1
*I *5112:B I *D sg13g2_nand3_1
*I *5006:D I *D sg13g2_and4_1
*I *5003:D I *D sg13g2_nand4_1
*I *5007:D I *D sg13g2_nand4_1
*I *5115:B I *D sg13g2_and4_1
*I *5925:X O *D sg13g2_buf_1
*CAP
1 *5110:A2 0.000240285
2 *5107:A2 5.97316e-05
3 *5111:A2 0.000121585
4 *5112:B 5.02162e-05
5 *5006:D 0
6 *5003:D 0.000244692
7 *5007:D 5.64571e-05
8 *5115:B 0.00021862
9 *5925:X 0
10 *692:35 0.000495208
11 *692:29 0.000777996
12 *692:14 0.000914502
13 *692:12 0.000602299
14 *692:10 0.00100838
15 *692:8 0.000576019
16 *692:6 0.000309915
17 *5003:D *5003:A 0.00018128
18 *5107:A2 *708:14 0.000112057
19 *5110:A2 *5110:A1 0.000240531
20 *5110:A2 *5553:RESET_B 8.02105e-05
21 *5111:A2 *707:33 0
22 *5111:A2 *1016:27 8.14577e-05
23 *5112:B *5112:C 4.77425e-05
24 *5112:B *1100:14 6.46834e-05
25 *5115:B *5115:C 4.77425e-05
26 *5115:B *1111:23 0
27 *692:12 *707:67 0
28 *692:12 *1016:31 0
29 *692:12 *1100:14 0
30 *692:14 *1100:25 0
31 *692:29 *1100:40 0.000855495
32 *692:29 *1100:42 3.23417e-05
33 *692:29 *1114:25 0
34 *692:35 *5007:C 0.000306903
35 *692:35 *5007:A 0.000274561
36 *692:35 *1100:42 1.54008e-05
37 *5107:A1 *5107:A2 0.000112057
38 *5107:A1 *5110:A2 7.52149e-05
39 *5107:A1 *692:8 0.000234195
40 *5107:A1 *692:10 7.48842e-05
41 *5565:CLK *5110:A2 0
42 *5896:A *5110:A2 0.000212127
43 *282:8 *5003:D 0
44 *284:8 *5003:D 0
45 *358:80 *692:29 0
46 *662:40 *5110:A2 0
47 *662:40 *692:8 0
48 *662:40 *692:10 0
*RES
1 *5925:X *692:6 40 
2 *692:6 *692:8 1.0918 
3 *692:8 *692:10 4.5526 
4 *692:10 *692:12 4.0582 
5 *692:12 *692:14 1.0918 
6 *692:14 *5115:B 42.0909 
7 *692:14 *692:29 26.3757 
8 *692:29 *692:35 22.369 
9 *692:35 *5007:D 40.5974 
10 *692:35 *5003:D 43.0694 
11 *692:29 *5006:D 20 
12 *692:12 *5112:B 40.7519 
13 *692:10 *5111:A2 41.1948 
14 *692:8 *5107:A2 40.7519 
15 *692:6 *5110:A2 42.9561 
*END

*D_NET *693 0.0189111
*CONN
*I *5422:A I *D sg13g2_nor4_1
*I *5413:A I *D sg13g2_nor2_1
*I *5457:A I *D sg13g2_nor4_1
*I *5448:A I *D sg13g2_nor4_1
*I *5451:A I *D sg13g2_nor4_1
*I *5454:A I *D sg13g2_nor4_1
*I *5460:A I *D sg13g2_nor4_1
*I *5429:A I *D sg13g2_nor2_1
*I *5926:X O *D sg13g2_buf_1
*CAP
1 *5422:A 0.000227915
2 *5413:A 0
3 *5457:A 0
4 *5448:A 0.000717918
5 *5451:A 0.000126997
6 *5454:A 0
7 *5460:A 0
8 *5429:A 0
9 *5926:X 0.000336658
10 *693:87 0.00126435
11 *693:75 0.000468043
12 *693:69 0.000687525
13 *693:63 0.000638913
14 *693:61 0.000165319
15 *693:55 0.000454096
16 *693:47 0.00113284
17 *693:41 0.00173499
18 *693:24 0.000918543
19 *693:16 0.0022026
20 *693:14 0.00141109
21 *693:8 0.0011267
22 *5422:A *5437:C 0
23 *5422:A *5437:A 0
24 *5448:A *5448:B 1.54556e-05
25 *5448:A *1009:56 0.000176472
26 *5448:A *1011:81 0
27 *5448:A *1027:24 0
28 *5448:A *1133:8 0
29 *5451:A *5451:B 0.000112558
30 *693:8 *5437:C 0
31 *693:14 *698:26 0
32 *693:41 *5412:B 0
33 *693:41 *5412:A 0
34 *693:41 *5430:B 0.000234726
35 *693:41 *1121:12 7.51285e-05
36 *693:47 *5455:A 0
37 *693:47 *1004:116 0
38 *693:47 *1121:8 0
39 *693:47 *1121:25 4.77425e-05
40 *693:55 *1009:75 0.000344523
41 *693:55 *1135:14 0
42 *693:61 *1011:46 0
43 *693:69 *5454:B 0.000112558
44 *693:69 *5460:B 0
45 *693:69 *1009:58 0
46 *693:69 *1011:46 0
47 *693:75 *5460:B 0
48 *693:87 *714:33 0.000287672
49 *693:87 *1009:58 0
50 *693:87 *1011:46 0
51 *693:87 *1027:24 0
52 *5410:B *5422:A 0.000144833
53 *5410:B *693:8 0
54 *5422:D *5422:A 0
55 *5428:A1 *693:24 0.000399681
56 *5430:A *693:41 0
57 *5431:A1 *693:41 0
58 *5448:C *5448:A 5.60495e-05
59 *5448:D *5448:A 0
60 *5457:C *693:47 0
61 *5457:C *693:55 0
62 *5457:D *693:55 0
63 *5488:B1 *693:14 0
64 *5876:A *5451:A 0
65 *5877:A *693:47 0.000533991
66 *5877:A *693:55 0.00017747
67 *219:10 *693:14 0.000357077
68 *233:8 *693:75 0
69 *549:21 *5422:A 0.000112601
70 *550:10 *693:14 0
71 *551:32 *693:24 0.000453057
72 *554:6 *693:16 0
73 *556:8 *693:14 0
74 *556:8 *693:16 0
75 *556:8 *693:41 0
76 *561:8 *693:41 0.000340704
77 *565:8 *693:24 0
78 *579:10 *5448:A 0.000287672
79 *649:38 *693:24 0
80 *678:99 *693:8 4.77201e-05
81 *680:32 *693:55 0.000180403
82 *680:55 *693:61 0.000242118
83 *680:55 *693:87 0.000556371
84 *680:79 *693:47 0
*RES
1 *5926:X *693:8 40.9682 
2 *693:8 *693:14 31.9754 
3 *693:14 *693:16 3.7801 
4 *693:16 *693:24 31.1549 
5 *693:24 *5429:A 40 
6 *693:16 *693:41 49.8262 
7 *693:41 *693:47 8.5593 
8 *693:47 *693:55 43.4505 
9 *693:55 *693:61 41.8334 
10 *693:61 *693:63 20 
11 *693:63 *693:69 21.7819 
12 *693:69 *693:75 44.0582 
13 *693:75 *5460:A 20 
14 *693:69 *5454:A 20 
15 *693:63 *693:87 4.5526 
16 *693:87 *5451:A 41.1845 
17 *693:87 *5448:A 46.4787 
18 *693:47 *5457:A 20 
19 *693:14 *5413:A 20 
20 *5926:X *5422:A 42.575 
*END

*D_NET *694 0.0161334
*CONN
*I *5479:A I *D sg13g2_nor3_1
*I *5482:A I *D sg13g2_nor3_1
*I *5485:A I *D sg13g2_nor3_1
*I *5330:B I *D sg13g2_nor3_1
*I *5306:B I *D sg13g2_nor3_1
*I *5282:B I *D sg13g2_nor3_1
*I *5258:B I *D sg13g2_nor3_1
*I *5445:A I *D sg13g2_nor4_1
*I *5927:X O *D sg13g2_buf_1
*CAP
1 *5479:A 0.000353294
2 *5482:A 0
3 *5485:A 3.02213e-05
4 *5330:B 5.38141e-05
5 *5306:B 0
6 *5282:B 0
7 *5258:B 0.000639474
8 *5445:A 0.00075111
9 *5927:X 0
10 *694:62 0.000842234
11 *694:56 0.000995754
12 *694:43 0.00113478
13 *694:39 0.0014776
14 *694:33 0.00170386
15 *694:25 0.00114892
16 *694:10 0.00184783
17 *694:4 0.000892719
18 *5258:B *5633:RESET_B 0.000274452
19 *5258:B *1020:29 8.03089e-05
20 *5330:B *1020:6 0
21 *5445:A *5447:B 0
22 *5445:A *952:8 0
23 *5445:A *1132:10 0
24 *5479:A *5801:RESET_B 0
25 *694:10 *5801:RESET_B 0
26 *694:25 *6019:A 0
27 *694:25 *1012:32 0
28 *694:25 *1132:10 0.000307287
29 *694:33 *5256:A 0.000177457
30 *694:33 *5256:B 0
31 *694:33 *5803:RESET_B 0
32 *694:33 *940:10 0
33 *694:39 *5329:B1 0
34 *694:39 *5681:D 0
35 *694:39 *1020:6 0
36 *694:39 *1020:51 0
37 *694:43 *1020:12 0
38 *694:56 *5304:B 0
39 *694:56 *1020:29 0
40 *5257:A1 *5258:B 0
41 *5257:A2 *5258:B 0
42 *5258:A *5258:B 1.54556e-05
43 *5306:C *694:56 1.54008e-05
44 *5329:A1 *694:39 0
45 *5330:C *5330:B 8.00842e-05
46 *5479:C *5479:A 0
47 *5482:C *694:33 0
48 *5486:A1 *5445:A 0
49 *5633:D *5258:B 0.000274611
50 *5681:CLK *5485:A 4.77425e-05
51 *5681:CLK *694:39 0.00107573
52 *5801:D *5479:A 4.75825e-05
53 *5803:D *694:33 0
54 *5803:CLK *694:33 0.000505178
55 *508:8 *694:39 0.000395488
56 *508:8 *694:43 0.000128439
57 *671:32 *694:43 0
58 *671:47 *5258:B 0
59 *671:47 *694:56 0
60 *680:12 *5445:A 0
61 *681:12 *694:25 0
62 *681:32 *694:25 0
63 *681:40 *694:10 0.000339877
64 *681:53 *694:10 0.000496701
65 *681:64 *5445:A 0
66 *681:64 *694:10 0
*RES
1 *5927:X *694:4 20 
2 *694:4 *694:10 26.077 
3 *694:10 *5445:A 47.7662 
4 *694:10 *694:25 26.077 
5 *694:25 *694:33 47.2821 
6 *694:33 *694:39 32.1025 
7 *694:39 *694:43 23.3166 
8 *694:43 *5258:B 27.5396 
9 *694:43 *694:56 1.4008 
10 *694:56 *694:62 48.2606 
11 *694:62 *5282:B 20 
12 *694:56 *5306:B 20 
13 *694:39 *5330:B 40.5356 
14 *694:33 *5485:A 20.3193 
15 *694:25 *5482:A 20 
16 *694:4 *5479:A 24.12 
*END

*D_NET *695 0.016447
*CONN
*I *5255:B I *D sg13g2_nor3_1
*I *5333:B I *D sg13g2_nor3_1
*I *5327:B I *D sg13g2_nor3_1
*I *5303:B I *D sg13g2_nor3_1
*I *5309:B I *D sg13g2_nor3_1
*I *5285:B I *D sg13g2_nor3_1
*I *5279:B I *D sg13g2_nor3_1
*I *5261:B I *D sg13g2_nor3_1
*I *5928:X O *D sg13g2_buf_1
*CAP
1 *5255:B 7.42882e-05
2 *5333:B 0.000225359
3 *5327:B 0
4 *5303:B 0
5 *5309:B 7.60629e-05
6 *5285:B 0.000479996
7 *5279:B 0.000278848
8 *5261:B 0.000148449
9 *5928:X 0.000399663
10 *695:103 0.000573109
11 *695:88 0.00124164
12 *695:84 0.00130866
13 *695:73 0.000804265
14 *695:60 0.0014086
15 *695:35 0.00159135
16 *695:18 0.00150949
17 *695:10 0.00113767
18 *5255:B *5253:B 0.00012976
19 *5261:B *1020:64 0
20 *5261:B *1020:77 0
21 *5279:B *711:71 0
22 *5285:B *5651:RESET_B 0
23 *5333:B *5331:B 0.000324375
24 *695:10 *5631:RESET_B 0.000135914
25 *695:18 *5253:B 0.000570207
26 *695:18 *5631:RESET_B 0
27 *695:18 *5635:RESET_B 1.54008e-05
28 *695:18 *1020:77 0.00024211
29 *695:35 *5260:B1 0
30 *695:60 *711:71 0
31 *695:73 *5307:B 0.000183978
32 *695:84 *5307:B 0.0010783
33 *695:84 *5331:B 0.000238641
34 *695:88 *5663:D 0
35 *695:88 *1021:26 0
36 *695:103 *1030:70 0
37 *695:103 *1031:57 0
38 *695:103 *1061:12 0
39 *695:103 *1061:34 0
40 *5255:C *5255:B 1.54008e-05
41 *5255:C *695:10 0
42 *5260:A2 *695:35 0
43 *5261:C *695:18 0
44 *5279:A *5279:B 0
45 *5279:C *5279:B 1.54008e-05
46 *5284:A1 *5279:B 0.000100976
47 *5284:A1 *695:60 0.00100393
48 *5285:A *5285:B 0
49 *5285:C *5285:B 8.03089e-05
50 *5303:A *695:88 0
51 *5303:C *695:88 8.02431e-05
52 *5309:C *5309:B 1.54008e-05
53 *5326:A1 *695:103 0
54 *5326:A2 *695:103 0
55 *5327:A *695:103 0
56 *5333:A *5333:B 0
57 *5333:C *5333:B 1.54556e-05
58 *5631:D *5255:B 0
59 *5631:D *695:10 0
60 *5679:D *695:103 0
61 *5850:A *695:18 0
62 *5993:A *5333:B 0
63 *6006:A *695:103 0
64 *6017:A *5309:B 4.76053e-05
65 *462:12 *5261:B 0.000501633
66 *462:12 *695:35 0.000159839
67 *623:31 *5333:B 0
68 *669:8 *5279:B 0
69 *669:25 *695:35 0
70 *669:73 *695:103 0.00023464
71 *683:8 *695:10 0
72 *683:24 *695:35 0
73 *683:33 *695:35 0
74 *683:82 *695:103 0
*RES
1 *5928:X *695:10 24.2024 
2 *695:10 *695:18 27.4778 
3 *695:18 *5261:B 42.3278 
4 *695:18 *695:35 27.416 
5 *695:35 *5279:B 23.2754 
6 *695:35 *695:60 26.8083 
7 *695:60 *5285:B 44.9955 
8 *695:60 *695:73 3.0694 
9 *695:73 *5309:B 40.7519 
10 *695:73 *695:84 6.0358 
11 *695:84 *695:88 27.2409 
12 *695:88 *5303:B 20 
13 *695:88 *695:103 45.9328 
14 *695:103 *5327:B 20 
15 *695:84 *5333:B 43.0797 
16 *695:10 *5255:B 20.9682 
*END

*D_NET *696 0.0154922
*CONN
*I *5297:B I *D sg13g2_nor3_1
*I *5273:B I *D sg13g2_nor3_1
*I *5470:A I *D sg13g2_nor3_1
*I *5249:B I *D sg13g2_nor3_1
*I *5276:B I *D sg13g2_nor3_1
*I *5476:A I *D sg13g2_nor3_1
*I *5252:B I *D sg13g2_nor3_1
*I *5473:A I *D sg13g2_nor3_1
*I *5929:X O *D sg13g2_buf_1
*CAP
1 *5297:B 0
2 *5273:B 2.70437e-05
3 *5470:A 0.000221989
4 *5249:B 0
5 *5276:B 0.000850075
6 *5476:A 0.00064552
7 *5252:B 0
8 *5473:A 0.000329017
9 *5929:X 0
10 *696:111 0.00096663
11 *696:96 0.00189639
12 *696:81 0.00112471
13 *696:74 0.000107466
14 *696:35 0.000791851
15 *696:29 0.00161468
16 *696:25 0.00128878
17 *696:8 0.00139392
18 *696:4 0.000501865
19 *5273:B *5919:A 0
20 *5276:B *5274:B 4.78028e-05
21 *5276:B *5645:RESET_B 0
22 *5276:B *935:25 0.000501875
23 *5276:B *1022:12 0
24 *5276:B *1022:38 0
25 *5470:A *1052:20 0
26 *5476:A *5250:A 0.000288997
27 *5476:A *1040:12 0.000714655
28 *696:8 *5471:B 0
29 *696:8 *5795:RESET_B 0
30 *696:8 *1038:16 0.000208405
31 *696:25 *1039:10 0
32 *696:35 *1022:12 0
33 *696:74 *764:16 0
34 *696:96 *1035:39 0
35 *696:96 *1038:8 0
36 *696:96 *1038:16 0
37 *696:96 *1052:20 0
38 *696:111 *5295:B 0
39 *696:111 *1059:6 0
40 *696:111 *1059:23 0.000448842
41 *5272:A2 *696:111 0
42 *5273:C *5273:B 4.77425e-05
43 *5276:A *5276:B 0
44 *5276:C *5276:B 0.000241368
45 *5296:A2 *696:111 0
46 *5297:A *696:111 0
47 *5464:B *5470:A 0
48 *5476:B *5476:A 0
49 *5629:CLK *5476:A 0
50 *5629:CLK *696:35 0
51 *5659:D *696:111 0
52 *5797:CLK *696:25 0
53 *5797:CLK *696:74 0
54 *238:8 *5470:A 0.000336941
55 *238:8 *696:96 0.000128618
56 *456:8 *5276:B 0
57 *456:8 *696:35 0
58 *469:10 *696:111 0
59 *470:10 *696:96 0
60 *470:10 *696:111 0.000767034
61 *485:10 *696:111 0
62 *586:42 *5473:A 0
63 *596:8 *5476:A 0
64 *633:26 *5476:A 0
65 *633:28 *5476:A 0
66 *671:22 *5276:B 0
67 *679:81 *696:8 0
68 *684:29 *5276:B 0
*RES
1 *5929:X *696:4 20 
2 *696:4 *696:8 25.2942 
3 *696:8 *5473:A 43.3166 
4 *696:8 *696:25 26.6744 
5 *696:25 *696:29 28.1061 
6 *696:29 *696:35 1.7613 
7 *696:35 *5252:B 40 
8 *696:35 *5476:A 47.9104 
9 *696:29 *5276:B 49.5687 
10 *696:25 *696:74 40.9476 
11 *696:74 *5249:B 20 
12 *696:4 *696:81 20 
13 *696:81 *5470:A 42.369 
14 *696:81 *696:96 9.8159 
15 *696:96 *5273:B 40.3193 
16 *696:96 *696:111 31.4845 
17 *696:111 *5297:B 20 
*END

*D_NET *697 0.0124815
*CONN
*I *5324:B I *D sg13g2_nor3_1
*I *5300:B I *D sg13g2_nor3_1
*I *5928:A I *D sg13g2_buf_1
*I *5927:A I *D sg13g2_buf_1
*I *5929:A I *D sg13g2_buf_1
*I *5930:X O *D sg13g2_buf_1
*CAP
1 *5324:B 0.000916452
2 *5300:B 0
3 *5928:A 0.000368762
4 *5927:A 3.27461e-05
5 *5929:A 3.07345e-05
6 *5930:X 0.000160075
7 *697:51 0.00234398
8 *697:36 0.00241901
9 *697:25 0.00225586
10 *697:21 0.00163655
11 *697:8 0.000226964
12 *5324:B *5661:RESET_B 0
13 *5324:B *992:8 0
14 *5928:A *5253:A 0
15 *5928:A *1041:17 0
16 *5929:A *1038:16 1.53311e-05
17 *697:8 *698:8 0
18 *697:8 *698:18 0
19 *697:21 *1035:39 7.31628e-05
20 *697:36 *1022:12 0
21 *697:36 *1022:38 0
22 *697:36 *1041:17 0
23 *697:51 *5322:B 0
24 *697:51 *941:8 0
25 *697:51 *1022:42 0
26 *697:51 *1022:51 0
27 *697:51 *1060:24 0
28 *5299:A2 *5324:B 0
29 *5300:A *5324:B 0
30 *5300:A *697:51 0
31 *5300:C *697:51 0.000110282
32 *5324:A *5324:B 0.000339267
33 *5324:C *5324:B 0
34 *5464:B *5929:A 0
35 *5661:D *5324:B 0.000273864
36 *472:8 *697:51 0
37 *586:42 *697:25 0.00097311
38 *586:61 *697:25 0.00030539
39 *670:18 *697:36 0
40 *670:18 *697:51 0
41 *685:10 *5928:A 0
*RES
1 *5930:X *697:8 21.5347 
2 *697:8 *5929:A 20.3193 
3 *697:8 *697:21 40.3502 
4 *697:21 *697:25 39.7863 
5 *697:25 *5927:A 40.3502 
6 *697:25 *697:36 7.519 
7 *697:36 *5928:A 43.9964 
8 *697:36 *697:51 36.2431 
9 *697:51 *5300:B 20 
10 *697:51 *5324:B 29.9292 
*END

*D_NET *698 0.0115541
*CONN
*I *5930:A I *D sg13g2_buf_1
*I *5926:A I *D sg13g2_buf_1
*I *5440:B I *D sg13g2_nor3_1
*I *5489:A I *D sg13g2_nor2_1
*I *5931:X O *D sg13g2_buf_1
*CAP
1 *5930:A 0
2 *5926:A 0
3 *5440:B 0
4 *5489:A 0
5 *5931:X 0.000228032
6 *698:41 4.86855e-05
7 *698:35 0.00129093
8 *698:26 0.00162708
9 *698:18 0.00404789
10 *698:8 0.0014066
11 *698:18 *1035:39 0.0029049
12 *698:18 *1052:20 0
13 *698:26 *1010:12 0
14 *698:26 *1035:22 0
15 *698:26 *1035:39 0
16 *5464:B *698:18 0
17 *5470:C *698:8 0
18 *219:10 *698:26 0
19 *572:8 *698:41 0
20 *604:10 *698:26 0
21 *605:193 *698:35 0
22 *615:14 *698:41 0
23 *678:99 *698:26 0
24 *682:24 *698:18 0
25 *693:14 *698:26 0
26 *697:8 *698:8 0
27 *697:8 *698:18 0
*RES
1 *5931:X *698:8 22.4617 
2 *698:8 *698:18 36.7272 
3 *698:18 *698:26 36.8405 
4 *698:26 *5489:A 20 
5 *698:18 *698:35 35.8929 
6 *698:35 *698:41 40.3502 
7 *698:41 *5440:B 20 
8 *698:18 *5926:A 40 
9 *698:8 *5930:A 20 
*END

*D_NET *699 0.0122558
*CONN
*I *5081:A2 I *D sg13g2_o21ai_1
*I *6039:A I *D sg13g2_buf_1
*I *5531:Q O *D sg13g2_dfrbpq_1
*CAP
1 *5081:A2 0
2 *6039:A 0.00193045
3 *5531:Q 0.000258195
4 *699:41 0.000170798
5 *699:26 0.00339626
6 *699:16 0.00345899
7 *699:10 0.00242217
8 *6039:A *5785:RESET_B 0
9 *699:10 *5809:RESET_B 0
10 *699:10 *1028:10 0
11 *699:10 *1044:14 6.95917e-05
12 *699:16 *5425:A 0
13 *699:16 *5809:RESET_B 0
14 *699:16 *704:72 0
15 *699:16 *1010:52 0
16 *699:16 *1028:14 0
17 *699:16 *1123:8 0
18 *699:26 *5787:RESET_B 0
19 *699:41 *1028:14 0
20 *5428:B1 *699:16 0
21 *5436:A1 *699:16 0
22 *5460:D *699:26 0
23 *5489:B *699:16 0
24 *5785:D *6039:A 0
25 *5785:D *699:26 0
26 *5787:D *699:26 0
27 *5789:D *699:26 0
28 *5809:D *699:16 0
29 *227:8 *699:16 0
30 *584:10 *699:26 0.000242236
31 *648:31 *6039:A 0
32 *649:10 *699:26 0
33 *649:25 *699:16 0
34 *649:25 *699:26 0.000307117
35 *649:34 *699:16 0
*RES
1 *5531:Q *699:10 23.2754 
2 *699:10 *699:16 40.1983 
3 *699:16 *699:26 36.3255 
4 *699:26 *6039:A 41.9493 
5 *699:10 *699:41 41.8746 
6 *699:41 *5081:A2 20 
*END

*D_NET *700 0.0238021
*CONN
*I *5014:B1 I *D sg13g2_a21oi_1
*I *5018:B1 I *D sg13g2_a21oi_1
*I *4986:B I *D sg13g2_nor2_1
*I *5024:B I *D sg13g2_nor2_1
*I *5335:B1 I *D sg13g2_a21oi_1
*I *5190:B1 I *D sg13g2_a21oi_1
*I *5418:A I *D sg13g2_nor4_1
*I *5420:B I *D sg13g2_nor4_1
*I *5932:X O *D sg13g2_buf_1
*CAP
1 *5014:B1 3.90383e-05
2 *5018:B1 0
3 *4986:B 0
4 *5024:B 0.000702991
5 *5335:B1 3.02081e-05
6 *5190:B1 4.78167e-05
7 *5418:A 0.000418115
8 *5420:B 0.000291552
9 *5932:X 6.92287e-05
10 *700:92 0.0028393
11 *700:90 0.00279148
12 *700:60 0.00135392
13 *700:54 0.000816365
14 *700:52 0.000469073
15 *700:48 0.00196626
16 *700:28 0.00197377
17 *700:24 0.00109929
18 *700:16 0.00136478
19 *700:10 0.00128178
20 *700:8 6.92287e-05
21 *5014:B1 *716:44 6.47875e-05
22 *5024:B *5023:B 0
23 *5024:B *5026:B 0
24 *5024:B *1050:10 0
25 *5024:B *1052:16 0
26 *5190:B1 *1106:18 8.02431e-05
27 *5418:A *936:8 0.000583679
28 *5418:A *1009:8 0
29 *5418:A *1126:46 0.000178621
30 *5418:A *1126:50 0.000287776
31 *5420:B *5420:A 4.78521e-05
32 *5420:B *936:8 2.22695e-05
33 *5420:B *1125:27 0.000287343
34 *700:16 *5819:RESET_B 0
35 *700:16 *716:44 0.000792883
36 *700:28 *5019:A2 0
37 *700:28 *5946:A 0
38 *700:28 *718:22 0
39 *700:48 *4985:A 0.00024173
40 *700:48 *5019:A2 0
41 *700:48 *5023:B 0
42 *700:48 *715:31 0
43 *700:48 *1051:27 0
44 *700:52 *4985:A 0
45 *700:52 *1035:22 0
46 *700:52 *1050:34 0.000112634
47 *700:52 *1050:44 4.77425e-05
48 *700:52 *1054:24 4.78356e-05
49 *700:54 *1035:22 0
50 *700:60 *719:43 0
51 *700:60 *1010:6 0
52 *700:60 *1035:22 0
53 *700:92 *735:10 0
54 *700:92 *1104:32 0
55 *5014:A1 *700:8 0
56 *5022:A2 *700:48 0
57 *5190:A1 *5190:B1 0
58 *5190:A2 *5190:B1 0
59 *5194:A *700:92 0
60 *5401:A *700:16 0
61 *5418:B *5418:A 1.54008e-05
62 *5819:D *700:16 0.000177268
63 *5825:D *700:28 0.000664081
64 *183:10 *700:54 0.000177339
65 *183:10 *700:60 8.00842e-05
66 *183:10 *700:92 0
67 *266:10 *700:48 0.000241522
68 *266:66 *700:28 0.00011181
69 *286:68 *700:92 0
70 *292:12 *700:16 0
71 *298:10 *5024:B 0.000144833
72 *358:36 *700:92 0
73 *401:10 *700:92 0
74 *403:10 *700:92 0
75 *547:6 *5418:A 0
76 *555:10 *700:92 0
77 *559:8 *5420:B 0.000288087
78 *605:6 *700:54 0
79 *605:19 *700:52 0
80 *605:19 *700:54 0
81 *605:19 *700:92 0
82 *605:25 *700:48 0
83 *605:114 *700:16 0
84 *605:114 *700:28 0
85 *612:25 *5014:B1 8.00842e-05
86 *612:25 *700:16 0.00111672
87 *631:49 *700:92 0
88 *631:62 *700:92 0
89 *639:10 *700:24 0.000237686
90 *651:21 *700:60 0
91 *651:25 *5418:A 0
92 *651:25 *5420:B 0
93 *672:58 *5024:B 0
94 *686:12 *5024:B 0
95 *686:12 *700:48 0
96 *686:22 *700:48 0
97 *690:10 *700:48 4.76296e-05
*RES
1 *5932:X *700:8 40.5974 
2 *700:8 *700:10 20 
3 *700:10 *700:16 14.0286 
4 *700:16 *700:24 41.4111 
5 *700:24 *700:28 10.1867 
6 *700:28 *700:48 30.2948 
7 *700:48 *700:52 22.4823 
8 *700:52 *700:54 1.8334 
9 *700:54 *700:60 26.0461 
10 *700:60 *5420:B 44.0273 
11 *700:60 *5418:A 45.7165 
12 *700:54 *700:90 20 
13 *700:90 *700:92 31.003 
14 *700:92 *5190:B1 40.5356 
15 *700:52 *5335:B1 20.3502 
16 *700:48 *5024:B 45.7471 
17 *700:28 *4986:B 20 
18 *700:16 *5018:B1 20 
19 *700:10 *5014:B1 20.5356 
*END

*D_NET *701 0.0181908
*CONN
*I *5264:B I *D sg13g2_nor3_1
*I *5294:B I *D sg13g2_nor3_1
*I *5270:B I *D sg13g2_nor3_1
*I *5240:B I *D sg13g2_nor3_1
*I *5246:B I *D sg13g2_nor3_1
*I *5467:A I *D sg13g2_nor3_1
*I *5464:A I *D sg13g2_nor3_1
*I *5243:B I *D sg13g2_nor3_1
*I *5933:X O *D sg13g2_buf_1
*CAP
1 *5264:B 0.000317755
2 *5294:B 0
3 *5270:B 0
4 *5240:B 0
5 *5246:B 0.000567664
6 *5467:A 0
7 *5464:A 3.87833e-05
8 *5243:B 0
9 *5933:X 0.000153364
10 *701:90 0.00104887
11 *701:77 0.00216653
12 *701:54 0.000298938
13 *701:39 0.000706054
14 *701:33 0.00168991
15 *701:29 0.00083616
16 *701:25 0.00201761
17 *701:19 0.00150282
18 *701:10 0.000520734
19 *5246:B *5244:B 0
20 *5264:B *1026:110 0
21 *701:10 *702:32 0.000181377
22 *701:19 *702:32 0.000798647
23 *701:25 *5239:B1 0
24 *701:33 *5238:A 0.000546699
25 *701:33 *5791:RESET_B 0.000336907
26 *701:33 *1036:16 0.000401487
27 *701:39 *5468:B 0
28 *701:54 *5465:B 0.000394571
29 *701:77 *920:12 0
30 *701:77 *1026:31 0
31 *701:90 *6013:A 0.000209796
32 *701:90 *1058:19 3.24568e-05
33 *5240:A *701:25 1.54008e-05
34 *5240:A *701:33 0
35 *5240:C *701:33 0.000304613
36 *5246:A *5246:B 0
37 *5246:C *5246:B 0
38 *5266:A1 *701:25 0
39 *5294:C *701:90 0
40 *5464:C *701:39 0
41 *5621:CLK *701:33 0
42 *5623:D *701:10 0
43 *5791:D *701:33 0
44 *5791:D *701:39 0
45 *5793:CLK *5246:B 0
46 *5971:A *701:25 0
47 *79:8 *701:10 0
48 *153:8 *5246:B 0.000128247
49 *263:12 *701:25 0
50 *450:8 *701:19 0.000233463
51 *464:8 *5264:B 0.000128663
52 *468:8 *701:77 0.000128576
53 *468:8 *701:90 0.000552589
54 *590:12 *701:54 0.000181298
55 *625:42 *5246:B 0
56 *673:93 *701:77 0.00119461
57 *687:77 *701:77 0
58 *687:86 *701:25 0
59 *687:96 *5264:B 0.000556238
60 *690:31 *5264:B 0
*RES
1 *5933:X *701:10 41.8746 
2 *701:10 *5243:B 40 
3 *701:10 *701:19 4.7998 
4 *701:19 *701:25 47.8018 
5 *701:25 *701:29 20.8446 
6 *701:29 *701:33 28.5387 
7 *701:33 *701:39 23.7286 
8 *701:39 *5464:A 20.3193 
9 *701:39 *701:54 43.8831 
10 *701:54 *5467:A 20 
11 *701:33 *5246:B 46.7748 
12 *701:29 *5240:B 20 
13 *701:25 *701:77 12.7102 
14 *701:77 *5270:B 40 
15 *701:77 *701:90 32.0098 
16 *701:90 *5294:B 20 
17 *701:19 *5264:B 43.811 
*END

*D_NET *702 0.0217208
*CONN
*I *5291:B I *D sg13g2_nor3_1
*I *5315:B I *D sg13g2_nor3_1
*I *5288:B I *D sg13g2_nor3_1
*I *5312:B I *D sg13g2_nor3_1
*I *5318:B I *D sg13g2_nor3_1
*I *5321:B I *D sg13g2_nor3_1
*I *5267:B I *D sg13g2_nor3_1
*I *5933:A I *D sg13g2_buf_1
*I *5934:X O *D sg13g2_buf_1
*CAP
1 *5291:B 0
2 *5315:B 0
3 *5288:B 0
4 *5312:B 0.000904992
5 *5318:B 0.000248982
6 *5321:B 0
7 *5267:B 0
8 *5933:A 0
9 *5934:X 0.000175495
10 *702:131 0.00020578
11 *702:84 0.000173831
12 *702:78 0.00153397
13 *702:74 0.00216629
14 *702:68 0.00195755
15 *702:62 0.00117567
16 *702:54 0.00103579
17 *702:32 0.00108629
18 *702:26 0.00108629
19 *702:24 0.00083931
20 *702:14 0.00147426
21 *702:8 0.000660726
22 *5312:B *5310:B 0
23 *5312:B *5316:B 0
24 *5312:B *5669:RESET_B 0
25 *5312:B *927:10 0
26 *5312:B *997:25 0.000288917
27 *5318:B *996:10 0
28 *5318:B *996:32 0
29 *702:14 *5289:A 0
30 *702:14 *1025:8 8.00842e-05
31 *702:24 *5354:A0 0.000129163
32 *702:24 *5354:A1 0.000338509
33 *702:24 *718:41 0
34 *702:24 *928:8 0
35 *702:24 *1025:8 1.54008e-05
36 *702:24 *1026:122 0
37 *702:32 *5242:B1 0
38 *702:32 *1023:84 0
39 *702:32 *1068:23 0
40 *702:62 *5653:RESET_B 0
41 *702:62 *1025:34 0.000886019
42 *702:68 *997:25 0
43 *702:74 *5316:B 0
44 *702:84 *987:14 0
45 *702:84 *1026:80 0.000234727
46 *702:84 *1032:49 0
47 *5266:A1 *702:32 0
48 *5267:C *702:32 1.53311e-05
49 *5288:A *702:62 0
50 *5288:C *702:68 0
51 *5291:A *702:8 0
52 *5291:A *702:131 0
53 *5291:C *702:14 0
54 *5291:C *702:131 1.54556e-05
55 *5312:C *5312:B 0.000225164
56 *5314:A2 *702:62 8.00842e-05
57 *5315:C *702:54 1.54556e-05
58 *5320:A2 *702:84 0
59 *5653:D *702:62 0.000175826
60 *5653:CLK *5312:B 0
61 *5653:CLK *702:74 0
62 *5909:A *702:8 0
63 *5909:A *702:14 0
64 *6012:A *702:8 0
65 *466:8 *702:24 0.000393212
66 *482:8 *702:131 0.00045472
67 *626:45 *702:74 0
68 *663:55 *702:54 1.57249e-05
69 *663:63 *5312:B 0
70 *664:14 *702:24 0
71 *668:48 *702:62 0
72 *674:21 *702:54 0.000779052
73 *675:26 *702:24 0.000982569
74 *689:67 *702:14 0
75 *689:67 *702:54 0.000890143
76 *701:10 *702:32 0.000181377
77 *701:19 *702:32 0.000798647
*RES
1 *5934:X *702:8 21.751 
2 *702:8 *702:14 2.9355 
3 *702:14 *702:24 30.7944 
4 *702:24 *702:26 20 
5 *702:26 *702:32 30.2651 
6 *702:32 *5933:A 40 
7 *702:26 *5267:B 20 
8 *702:14 *702:54 45.6238 
9 *702:54 *702:62 48.0546 
10 *702:62 *702:68 24.5938 
11 *702:68 *702:74 45.7268 
12 *702:74 *702:78 37.407 
13 *702:78 *702:84 42.3278 
14 *702:84 *5321:B 20 
15 *702:74 *5318:B 42.575 
16 *702:68 *5312:B 49.3112 
17 *702:62 *5288:B 20 
18 *702:54 *5315:B 20 
19 *702:8 *702:131 42.3999 
20 *702:131 *5291:B 20 
*END

*D_NET *703 0.0119023
*CONN
*I *5404:B1 I *D sg13g2_a21oi_1
*I *5934:A I *D sg13g2_buf_1
*I *5811:D I *D sg13g2_dfrbpq_1
*I *5932:A I *D sg13g2_buf_1
*I *5935:X O *D sg13g2_buf_1
*CAP
1 *5404:B1 0
2 *5934:A 0
3 *5811:D 0.00050469
4 *5932:A 0.000409861
5 *5935:X 0.000452259
6 *703:48 0.0027921
7 *703:31 0.00366772
8 *703:27 0.000396352
9 *703:14 0.000887538
10 *5811:D *1000:8 7.52158e-05
11 *5811:D *1017:52 0
12 *5932:A *1116:97 0
13 *703:48 *5655:RESET_B 0
14 *703:48 *5655:D 0
15 *703:48 *1017:52 0
16 *5014:A1 *5932:A 0.00119415
17 *5404:A1 *5932:A 0.00012816
18 *5404:A1 *703:14 0
19 *5655:CLK *703:48 0.000307057
20 *5755:D *703:14 0.000242313
21 *5902:A *703:48 0
22 *6012:A *703:48 0
23 *186:8 *703:48 0
24 *610:12 *703:48 0
25 *642:68 *703:14 0
26 *642:68 *703:27 3.23417e-05
27 *642:68 *703:31 0.000630922
28 *645:10 *5811:D 0.000181608
29 *645:38 *5811:D 0
30 *665:22 *703:14 0
31 *665:22 *703:31 0
32 *667:10 *703:48 0
33 *667:36 *703:48 0
34 *667:42 *5811:D 0
35 *667:42 *703:48 0
*RES
1 *5935:X *703:14 44.3981 
2 *703:14 *5932:A 46.0358 
3 *703:14 *703:27 20.3193 
4 *703:27 *703:31 24.2127 
5 *703:31 *5811:D 44.9646 
6 *703:31 *703:48 47.5834 
7 *703:48 *5934:A 20 
8 *703:27 *5404:B1 20 
*END

*D_NET *704 0.0226263
*CONN
*I *5197:B I *D sg13g2_nand3_1
*I *5093:B1 I *D sg13g2_o21ai_1
*I *5092:B I *D sg13g2_and2_1
*I *5081:B1 I *D sg13g2_o21ai_1
*I *5085:B1 I *D sg13g2_o21ai_1
*I *5083:B1 I *D sg13g2_o21ai_1
*I *5089:B1 I *D sg13g2_o21ai_1
*I *5095:B1 I *D sg13g2_o21ai_1
*I *5936:X O *D sg13g2_buf_1
*CAP
1 *5197:B 0
2 *5093:B1 0.000184648
3 *5092:B 0
4 *5081:B1 0
5 *5085:B1 3.63385e-05
6 *5083:B1 7.39919e-05
7 *5089:B1 0.00017352
8 *5095:B1 0.000191564
9 *5936:X 2.50478e-05
10 *704:89 0.000849277
11 *704:83 0.00181873
12 *704:72 0.000982621
13 *704:57 0.00143936
14 *704:44 0.00162873
15 *704:33 0.00135992
16 *704:31 0.00184144
17 *704:25 0.00310804
18 *704:8 0.00232009
19 *5083:B1 *5083:A2 2.34862e-05
20 *5089:B1 *742:29 1.54008e-05
21 *5089:B1 *1028:91 0
22 *5093:B1 *5093:A2 0.000112519
23 *5093:B1 *5094:A1 0
24 *5093:B1 *765:16 0.000194258
25 *5095:B1 *5095:A2 1.53666e-05
26 *5095:B1 *709:45 0.000235075
27 *5095:B1 *1028:58 0
28 *704:25 *709:56 0
29 *704:25 *1105:22 0
30 *704:25 *1106:33 0
31 *704:31 *5601:RESET_B 0.000339552
32 *704:31 *1028:91 0
33 *704:31 *1105:18 0
34 *704:31 *1106:8 0
35 *704:31 *1106:33 0
36 *704:33 *1028:91 0
37 *704:44 *1028:16 0
38 *704:57 *1028:16 0
39 *704:57 *1029:24 0.00136433
40 *704:72 *720:8 0
41 *704:72 *720:12 0
42 *704:72 *720:27 0.000609155
43 *704:72 *1028:14 0
44 *704:72 *1028:16 0
45 *704:72 *1029:24 0.000106333
46 *704:83 *765:8 0
47 *704:83 *1028:18 0
48 *704:89 *5091:S 0
49 *704:89 *753:18 0.000454344
50 *704:89 *765:16 0.000598822
51 *5084:A2 *5083:B1 0
52 *5090:B1 *5089:B1 1.54008e-05
53 *5195:B *704:31 0
54 *5198:B *704:31 0
55 *5533:CLK *5083:B1 0
56 *5545:CLK *704:25 0
57 *5601:D *704:31 0
58 *5809:D *704:72 0
59 *253:20 *5095:B1 2.20248e-05
60 *253:20 *704:25 0.000908674
61 *337:18 *5085:B1 1.54008e-05
62 *413:10 *704:25 0
63 *415:6 *704:25 0
64 *415:6 *704:31 1.54008e-05
65 *418:10 *704:25 0.00154747
66 *629:47 *704:25 0
67 *699:16 *704:72 0
*RES
1 *5936:X *704:8 40.3193 
2 *704:8 *5095:B1 42.1218 
3 *704:8 *704:25 40.909 
4 *704:25 *704:31 10.5369 
5 *704:31 *704:33 0.5356 
6 *704:33 *5089:B1 21.6171 
7 *704:33 *704:44 33.9462 
8 *704:44 *5083:B1 40.909 
9 *704:44 *704:57 6.7774 
10 *704:57 *5085:B1 40.3193 
11 *704:57 *704:72 31.4227 
12 *704:72 *5081:B1 20 
13 *704:31 *704:83 49.991 
14 *704:83 *704:89 30.4957 
15 *704:89 *5092:B 40 
16 *704:83 *5093:B1 22.0497 
17 *704:25 *5197:B 20 
*END

*D_NET *705 0.0283524
*CONN
*I *5052:B1 I *D sg13g2_o21ai_1
*I *5226:B I *D sg13g2_nand2_1
*I *5102:B1 I *D sg13g2_o21ai_1
*I *5072:B1 I *D sg13g2_o21ai_1
*I *5079:B1 I *D sg13g2_o21ai_1
*I *5101:B I *D sg13g2_and2_1
*I *5097:B1 I *D sg13g2_o21ai_1
*I *5070:B1 I *D sg13g2_o21ai_1
*I *5937:X O *D sg13g2_buf_1
*CAP
1 *5052:B1 0
2 *5226:B 0.000871442
3 *5102:B1 4.29679e-05
4 *5072:B1 0.000477496
5 *5079:B1 0
6 *5101:B 0
7 *5097:B1 0.000497463
8 *5070:B1 0.000513227
9 *5937:X 2.12569e-05
10 *705:117 0.00231989
11 *705:75 0.000704715
12 *705:53 0.00139641
13 *705:45 0.00187719
14 *705:43 0.00185261
15 *705:41 0.00193005
16 *705:39 0.0012952
17 *705:31 0.00538516
18 *705:8 0.00230457
19 *5070:B1 *5070:A2 4.77425e-05
20 *5070:B1 *5521:RESET_B 0
21 *5070:B1 *709:24 0
22 *5070:B1 *1024:12 0.000161856
23 *5072:B1 *820:14 0
24 *5097:B1 *5097:A1 0
25 *5097:B1 *5097:A2 1.54556e-05
26 *5097:B1 *5098:A1 0
27 *5097:B1 *1109:14 0
28 *5102:B1 *5102:A2 7.99179e-05
29 *5226:B *5223:B 0
30 *705:8 *709:24 0
31 *705:31 *5937:A 0
32 *705:31 *709:37 0
33 *705:43 *743:10 0
34 *705:45 *820:14 0
35 *705:53 *5549:RESET_B 0
36 *705:53 *820:14 0
37 *705:117 *5052:A2 1.54556e-05
38 *705:117 *5054:A 0
39 *705:117 *5141:B 0
40 *705:117 *5141:A 0.000528698
41 *705:117 *5148:C 0.000234311
42 *705:117 *5148:D 0
43 *705:117 *1007:46 0
44 *705:117 *1007:52 0
45 *705:117 *1093:101 8.00842e-05
46 *705:117 *1095:30 0
47 *705:117 *1119:14 0
48 *705:117 *1120:26 0
49 boot_addr[30] *5097:B1 0
50 *5053:B *705:117 0
51 *5071:B *5070:B1 0
52 *5072:A1 *5072:B1 0
53 *5072:A2 *5072:B1 1.54556e-05
54 *5073:B1 *5072:B1 1.54556e-05
55 *5079:A2 *5072:B1 1.54556e-05
56 *5079:A2 *705:75 0
57 *5080:A1 *705:75 0.000112689
58 *5080:B1 *705:75 0.000274677
59 *5098:B1 *5097:B1 1.54556e-05
60 *5101:A *5097:B1 0.000530593
61 *5101:A *705:53 8.02379e-05
62 *5103:B1 *5102:B1 7.99179e-05
63 *5152:C *705:31 0.000396405
64 *5226:A *5226:B 0
65 *5521:D *5070:B1 0
66 *5529:D *5072:B1 0
67 *5529:D *705:53 0
68 *5529:D *705:75 0
69 *5865:A *705:117 0
70 *6038:A *705:53 0
71 *116:12 *705:43 0
72 *260:14 *705:43 0
73 *316:10 *705:117 0
74 *329:10 *5070:B1 4.77425e-05
75 *348:22 *705:31 0
76 *348:22 *705:39 7.4933e-05
77 *374:42 *705:31 0.000639288
78 *374:46 *705:31 0.000341534
79 *385:29 *5226:B 0
80 *387:14 *5226:B 0
81 *410:12 *5226:B 0
82 *410:20 *705:43 0
83 *412:72 *5226:B 0.000345607
84 *421:41 *5226:B 0
85 *427:10 *705:43 0
86 *605:33 *5226:B 0
87 *605:33 *705:43 0
88 *605:59 *705:39 0
89 *605:76 *705:39 0
90 *605:76 *705:117 0
91 *608:6 *705:117 0
92 *608:23 *705:117 8.0216e-05
93 *656:24 *705:43 0
94 *656:24 *705:45 0
95 *656:33 *5072:B1 0
96 *656:33 *705:75 0.000226776
97 *657:43 *705:39 0
98 *657:49 *5226:B 0.000552273
99 *657:49 *705:43 0.000714685
100 *658:75 *705:117 0
101 *691:10 *705:31 0
102 *691:29 *705:31 0.00113988
*RES
1 *5937:X *705:8 40.3193 
2 *705:8 *5070:B1 45.9431 
3 *705:8 *705:31 21.5476 
4 *705:31 *705:39 36.5933 
5 *705:39 *705:41 20 
6 *705:41 *705:43 11.9686 
7 *705:43 *705:45 7.7662 
8 *705:45 *705:53 29.6408 
9 *705:53 *5097:B1 25.6856 
10 *705:53 *5101:B 20 
11 *705:45 *705:75 22.8634 
12 *705:75 *5079:B1 20 
13 *705:75 *5072:B1 25.4384 
14 *705:43 *5102:B1 40.5356 
15 *705:41 *5226:B 49.785 
16 *705:31 *705:117 43.5973 
17 *705:117 *5052:B1 20 
*END

*D_NET *706 0.0148789
*CONN
*I *5106:B I *D sg13g2_nand2_1
*I *5055:B1 I *D sg13g2_o21ai_1
*I *5058:B1 I *D sg13g2_o21ai_1
*I *5061:B1 I *D sg13g2_o21ai_1
*I *5067:B1 I *D sg13g2_o21ai_1
*I *5064:B1 I *D sg13g2_o21ai_1
*I *5938:X O *D sg13g2_buf_1
*CAP
1 *5106:B 0
2 *5055:B1 0.000316504
3 *5058:B1 0
4 *5061:B1 3.77166e-05
5 *5067:B1 0
6 *5064:B1 0.000733947
7 *5938:X 0.000673852
8 *706:94 0.00109959
9 *706:75 0.002109
10 *706:64 0.00176379
11 *706:45 0.00211189
12 *706:43 0.00114922
13 *706:14 0.000755456
14 *706:10 0.000549423
15 *5055:B1 *5054:A 0
16 *5055:B1 *5055:A2 1.54556e-05
17 *5055:B1 *6055:A 0
18 *5064:B1 *5067:A2 1.54008e-05
19 *5064:B1 *6099:A 0
20 *5064:B1 *709:24 0
21 *706:10 *709:24 0
22 *706:14 *5067:A2 3.24187e-05
23 *706:43 *5941:A 0
24 *706:43 *719:8 4.73096e-05
25 *706:45 *719:25 0
26 *706:45 *991:10 0.000342449
27 *706:64 *5057:A 0
28 *706:64 *5058:A2 1.54556e-05
29 *706:64 *5515:RESET_B 0
30 *706:64 *719:25 0
31 *706:64 *991:10 7.51285e-05
32 *706:75 *5058:A2 0.000639591
33 *706:75 *980:8 0.000235556
34 *706:94 *5054:A 0
35 *706:94 *1018:114 0
36 *5058:A1 *706:64 0
37 *5059:B *706:64 0
38 *5065:A *5064:B1 0
39 *5065:B *5064:B1 0.00053399
40 *5068:A *5064:B1 1.54008e-05
41 *5068:A *706:14 4.77425e-05
42 *5515:D *706:64 0.000177334
43 *5517:D *5064:B1 0
44 *5517:CLK *706:10 0
45 *5519:CLK *706:10 0
46 *5895:A *706:64 0
47 *5950:A *706:43 0
48 *97:10 *706:75 0
49 *98:8 *706:64 0
50 *318:10 *5055:B1 0.000144358
51 *318:10 *706:75 0
52 *318:10 *706:94 0
53 *322:10 *706:64 0.000395067
54 *326:8 *706:10 0
55 *349:10 *706:94 5.47442e-05
56 *636:20 *706:94 0
57 *637:25 *706:94 0
58 *637:48 *706:75 0
59 *658:16 *706:10 0
60 *658:16 *706:43 0
61 *658:16 *706:45 0
62 *658:16 *706:64 0
63 *658:41 *5064:B1 0
64 *658:52 *706:10 0.000341206
65 *658:86 *5055:B1 0.00017663
66 *658:101 *5055:B1 0.000273311
67 *659:21 *706:64 0
68 *659:41 *706:64 0
*RES
1 *5938:X *706:10 44.9337 
2 *706:10 *706:14 20.3193 
3 *706:14 *5064:B1 28.303 
4 *706:14 *5067:B1 20 
5 *5938:X *706:43 41.4008 
6 *706:43 *706:45 11.227 
7 *706:45 *5061:B1 40.3193 
8 *706:45 *706:64 30.9489 
9 *706:64 *5058:B1 20 
10 *706:64 *706:75 28.9507 
11 *706:75 *5055:B1 43.3475 
12 *706:75 *706:94 32.2519 
13 *706:94 *5106:B 20 
*END

*D_NET *707 0.0202076
*CONN
*I *5031:B1 I *D sg13g2_o21ai_1
*I *5077:B1 I *D sg13g2_o21ai_1
*I *5049:B1 I *D sg13g2_o21ai_1
*I *5037:B1 I *D sg13g2_o21ai_1
*I *5113:B I *D sg13g2_and4_1
*I *5075:B1 I *D sg13g2_o21ai_1
*I *5105:B I *D sg13g2_and2_1
*I *5034:B1 I *D sg13g2_o21ai_1
*I *5939:X O *D sg13g2_buf_1
*CAP
1 *5031:B1 2.79466e-05
2 *5077:B1 3.15634e-05
3 *5049:B1 0.000781102
4 *5037:B1 0
5 *5113:B 0
6 *5075:B1 0
7 *5105:B 7.63595e-05
8 *5034:B1 0.000149096
9 *5939:X 0
10 *707:95 0.00131749
11 *707:89 0.00139496
12 *707:74 0.000913033
13 *707:67 0.000351378
14 *707:54 0.00156137
15 *707:37 0.00258986
16 *707:33 0.00159145
17 *707:27 0.00176194
18 *707:21 0.00226434
19 *707:6 0.00159136
20 *5031:B1 *5031:A2 1.54556e-05
21 *5031:B1 *5495:RESET_B 0
22 *5034:B1 *5034:A2 1.54556e-05
23 *5034:B1 *5940:A 0
24 *5034:B1 *842:8 0
25 *5049:B1 *5049:A2 0.000372009
26 *5049:B1 *5507:RESET_B 0
27 *5049:B1 *6002:A 0.000242203
28 *5105:B *1008:23 0
29 *707:21 *5033:A 0
30 *707:21 *1111:8 0
31 *707:27 *5111:B1 0
32 *707:33 *5120:B1 4.77425e-05
33 *707:33 *1007:25 0
34 *707:33 *1016:27 0
35 *707:54 *1017:52 0
36 *707:54 *1048:59 0
37 *707:67 *5036:A 0
38 *707:67 *5113:C 1.54008e-05
39 *707:67 *1016:31 0.000448399
40 *707:74 *5037:A2 1.54008e-05
41 *707:89 *5037:A2 8.00842e-05
42 *707:89 *5495:RESET_B 0
43 *707:89 *708:10 0.000877645
44 *5031:A1 *5031:B1 0
45 *5031:A1 *707:89 0
46 *5032:B *707:89 0
47 *5034:A1 *5034:B1 0
48 *5034:A1 *707:21 0
49 *5035:A *5034:B1 1.54556e-05
50 *5075:A1 *707:54 0
51 *5077:A1 *5049:B1 0
52 *5077:A1 *5077:B1 0
53 *5077:A2 *5077:B1 1.54556e-05
54 *5111:A2 *707:33 0
55 *5113:A *707:67 4.77425e-05
56 *5120:A1 *707:33 4.76038e-05
57 *5123:C *707:33 0
58 *261:31 *5049:B1 0
59 *261:39 *707:95 0
60 *303:8 *707:89 0
61 *307:10 *707:74 1.54008e-05
62 *307:10 *707:89 6.46834e-05
63 *333:8 *707:95 0.000554993
64 *347:8 *5105:B 0
65 *352:8 *707:54 0.00016133
66 *352:16 *5105:B 0.000127297
67 *352:16 *707:54 0.000285879
68 *637:25 *5034:B1 0
69 *643:42 *707:27 0
70 *643:42 *707:74 0
71 *645:18 *707:54 4.77699e-05
72 *646:39 *707:27 0
73 *646:58 *5049:B1 0
74 *646:64 *707:95 0
75 *660:35 *707:95 0
76 *660:41 *707:89 0
77 *660:41 *707:95 0
78 *660:45 *707:21 0
79 *660:47 *707:21 0
80 *661:45 *707:54 0.00029099
81 *662:25 *707:54 0
82 *692:12 *707:67 0
*RES
1 *5939:X *707:6 40 
2 *707:6 *5034:B1 41.6274 
3 *707:6 *707:21 33.4518 
4 *707:21 *707:27 7.6941 
5 *707:27 *707:33 46.1594 
6 *707:33 *707:37 31.3506 
7 *707:37 *5105:B 40.9167 
8 *707:37 *707:54 34.4509 
9 *707:54 *5075:B1 20 
10 *707:27 *707:67 43.6359 
11 *707:67 *5113:B 20 
12 *707:21 *707:74 0.5356 
13 *707:74 *5037:B1 20 
14 *707:74 *707:89 49.9189 
15 *707:89 *707:95 46.7774 
16 *707:95 *5049:B1 27.6735 
17 *707:95 *5077:B1 20.3193 
18 *707:89 *5031:B1 20.3193 
*END

*D_NET *708 0.0262355
*CONN
*I *5939:A I *D sg13g2_buf_1
*I *5107:B1 I *D sg13g2_o21ai_1
*I *5166:B I *D sg13g2_and4_1
*I *5178:B I *D sg13g2_nand3_1
*I *4984:B I *D sg13g2_and2_1
*I *4983:A I *D sg13g2_and2_1
*I *5940:X O *D sg13g2_buf_1
*CAP
1 *5939:A 0
2 *5107:B1 0
3 *5166:B 0
4 *5178:B 0
5 *4984:B 2.45224e-05
6 *4983:A 0.000464227
7 *5940:X 0.000333405
8 *708:66 0.00241415
9 *708:56 0.0028375
10 *708:28 0.000851115
11 *708:20 0.00270724
12 *708:18 0.00192151
13 *708:14 0.000764952
14 *708:10 0.00180693
15 *708:6 0.00137539
16 *4983:A *4983:B 0.000501123
17 *4984:B *4983:B 4.77425e-05
18 *708:6 *5034:A2 0
19 *708:6 *5940:A 0.000500991
20 *708:14 *5030:A 0
21 *708:28 *1049:10 0.00158765
22 *708:56 *1018:10 0
23 *708:56 *1049:10 0
24 *708:66 *5175:D 0
25 *708:66 *1006:25 0
26 *708:66 *1006:31 0
27 *708:66 *1018:10 0
28 *5034:A1 *708:10 0.000342122
29 *5035:B *708:6 0
30 *5086:A2 *708:66 0
31 *5107:A2 *708:14 0.000112057
32 *5110:B1 *708:14 0.000336525
33 *5166:A *708:56 6.45171e-05
34 *5166:A *708:66 1.54008e-05
35 *5166:C *708:56 0.00011226
36 *5166:C *708:66 1.54008e-05
37 *5166:D *708:66 0
38 *5169:B1 *708:66 0
39 *5169:A2 *708:66 0
40 *5170:C *708:66 0
41 *5177:D *708:66 0
42 *5181:A2 *708:66 0
43 *5589:CLK *708:66 0
44 *5821:D *4983:A 1.54556e-05
45 *89:10 *708:10 0
46 *288:18 *708:66 0
47 *291:12 *708:56 0
48 *292:12 *708:28 0.0015885
49 *304:10 *708:10 0
50 *307:10 *708:10 0
51 *387:25 *708:56 0.000450485
52 *390:28 *708:66 0.000786811
53 *397:14 *708:66 0
54 *400:10 *708:66 0
55 *632:34 *708:66 0
56 *646:39 *708:14 0
57 *657:10 *4983:A 0
58 *657:16 *4983:A 0
59 *660:43 *708:10 0.000771926
60 *660:45 *708:10 0.00114344
61 *660:47 *708:10 0.00146451
62 *707:89 *708:10 0.000877645
*RES
1 *5940:X *708:6 23.3475 
2 *708:6 *708:10 36.9126 
3 *708:10 *708:14 28.1061 
4 *708:14 *708:18 40 
5 *708:18 *708:20 22.8145 
6 *708:20 *708:28 48.24 
7 *708:28 *4983:A 25.2633 
8 *708:28 *4984:B 20.3193 
9 *708:20 *708:56 45.0573 
10 *708:56 *708:66 44.0558 
11 *708:66 *5178:B 40 
12 *708:56 *5166:B 20 
13 *708:14 *5107:B1 20 
14 *708:6 *5939:A 20 
*END

*D_NET *709 0.0319761
*CONN
*I *5940:A I *D sg13g2_buf_1
*I *5938:A I *D sg13g2_buf_1
*I *5186:B I *D sg13g2_nand3_1
*I *5087:B1 I *D sg13g2_o21ai_1
*I *5936:A I *D sg13g2_buf_1
*I *5937:A I *D sg13g2_buf_1
*I *5941:X O *D sg13g2_buf_1
*CAP
1 *5940:A 0.00144603
2 *5938:A 0
3 *5186:B 0.000266135
4 *5087:B1 0.000790452
5 *5936:A 0
6 *5937:A 0.000123656
7 *5941:X 0.000231798
8 *709:99 0.00377585
9 *709:64 0.00166551
10 *709:56 0.00319371
11 *709:45 0.00271004
12 *709:41 0.002837
13 *709:37 0.00319032
14 *709:24 0.002075
15 *709:12 0.00147276
16 *709:10 0.00256162
17 *5087:B1 *5087:A2 1.54008e-05
18 *5087:B1 *1105:6 0
19 *5186:B *1018:69 0.000473404
20 *5186:B *1103:19 0.000112426
21 *5186:B *1106:18 0
22 *5937:A *1024:8 0
23 *5940:A *5033:A 0
24 *5940:A *5034:A2 0
25 *5940:A *5497:RESET_B 0
26 *5940:A *5559:RESET_B 0
27 *5940:A *5954:A 0
28 *5940:A *1007:6 8.0057e-05
29 *5940:A *1007:36 0
30 *709:10 *5519:RESET_B 0
31 *709:10 *5941:A 0
32 *709:24 *5519:RESET_B 0
33 *709:37 *1024:8 0
34 *709:41 *5102:A1 0
35 *709:41 *5102:A2 0
36 *709:41 *5152:A 0
37 *709:41 *5607:RESET_B 0
38 *709:41 *743:10 0.00033683
39 *709:41 *1034:59 0
40 *709:45 *776:32 0
41 *709:64 *4971:A 0
42 *709:64 *1018:81 0
43 *709:64 *1105:12 0.000181694
44 *709:99 *5941:A 0
45 *709:99 *719:25 0
46 *709:99 *1013:8 0
47 *5034:B1 *5940:A 0
48 *5035:B *5940:A 0
49 *5064:B1 *709:24 0
50 *5068:A *709:24 0
51 *5068:B *709:24 0
52 *5070:B1 *709:24 0
53 *5088:A2 *5087:B1 0
54 *5088:B1 *5087:B1 0
55 *5095:B1 *709:45 0.000235075
56 *5103:A2 *709:41 0
57 *5103:B1 *709:41 0
58 *5119:C *5940:A 0.000176691
59 *5187:A1 *5087:B1 0
60 *5187:A2 *5087:B1 0.000695869
61 *5190:A1 *709:64 0
62 *5198:A *709:64 0
63 *5200:D *709:56 0
64 *5201:B1 *709:56 0
65 *5517:CLK *709:24 0
66 *5537:CLK *5087:B1 0.000589472
67 *5551:CLK *709:41 0
68 *5557:D *5940:A 0
69 *5559:D *5940:A 8.0342e-05
70 *5573:CLK *709:99 0.000979579
71 *5575:CLK *709:99 0
72 *5581:D *709:41 0.000658008
73 *5599:D *709:64 4.78688e-05
74 *100:10 *709:10 0
75 *255:8 *5087:B1 0
76 *255:8 *709:64 0
77 *255:30 *709:64 0
78 *358:80 *709:99 0.000128662
79 *412:8 *709:56 0
80 *412:18 *709:56 0.000130405
81 *412:26 *709:56 0
82 *413:10 *709:56 0
83 *413:10 *709:64 0
84 *413:14 *709:56 0
85 *419:31 *709:56 0
86 *635:36 *709:99 0
87 *637:25 *709:99 0.00021346
88 *658:16 *709:24 0
89 *658:24 *709:24 0
90 *704:25 *709:56 0
91 *705:8 *709:24 0
92 *705:31 *5937:A 0
93 *705:31 *709:37 0
94 *706:10 *709:24 0
95 *708:6 *5940:A 0.000500991
*RES
1 *5941:X *709:10 42.3999 
2 *709:10 *709:12 20 
3 *709:12 *709:24 31.8958 
4 *709:24 *5937:A 41.339 
5 *709:24 *709:37 24.5526 
6 *709:37 *709:41 48.8144 
7 *709:41 *709:45 21.5862 
8 *709:45 *5936:A 20 
9 *709:45 *709:56 44.3389 
10 *709:56 *709:64 46.0461 
11 *709:64 *5087:B1 48.9919 
12 *709:64 *5186:B 43.3269 
13 *709:12 *5938:A 20 
14 *709:10 *709:99 49.5919 
15 *709:99 *5940:A 35.8105 
*END

*D_NET *710 0.0100511
*CONN
*I *6040:A I *D sg13g2_buf_1
*I *5083:A2 I *D sg13g2_o21ai_1
*I *5533:Q O *D sg13g2_dfrbpq_1
*CAP
1 *6040:A 0
2 *5083:A2 0.000325807
3 *5533:Q 0.000224851
4 *710:27 0.00427727
5 *710:21 0.00427727
6 *710:8 0.000550658
7 *5083:A2 *5083:A1 6.46834e-05
8 *5083:A2 *1029:30 0.000307057
9 *710:8 *1029:24 0
10 *710:27 *1029:30 0
11 *5083:B1 *5083:A2 2.34862e-05
12 *5084:A2 *710:27 0
13 *5084:B1 *5083:A2 0
14 *107:10 *5083:A2 0
15 *649:38 *710:8 0
*RES
1 *5533:Q *710:8 42.8222 
2 *710:8 *5083:A2 43.5741 
3 *710:8 *710:21 20 
4 *710:21 *710:27 48.5748 
5 *710:27 *6040:A 20 
*END

*D_NET *711 0.0224982
*CONN
*I *5347:B I *D sg13g2_and2_1
*I *5367:B I *D sg13g2_and2_1
*I *5383:B I *D sg13g2_and2_1
*I *5351:B I *D sg13g2_and2_1
*I *5397:B I *D sg13g2_and2_1
*I *5363:B I *D sg13g2_and2_1
*I *5395:B I *D sg13g2_and2_1
*I *5379:B I *D sg13g2_and2_1
*I *5942:X O *D sg13g2_buf_1
*CAP
1 *5347:B 0
2 *5367:B 0
3 *5383:B 0.000588329
4 *5351:B 3.77166e-05
5 *5397:B 0.000733434
6 *5363:B 0
7 *5395:B 0.000195986
8 *5379:B 0.000898293
9 *5942:X 0
10 *711:81 0.0012669
11 *711:75 0.00113369
12 *711:71 0.00187354
13 *711:65 0.00215943
14 *711:57 0.000739172
15 *711:20 0.00220243
16 *711:12 0.00165594
17 *711:4 0.000951457
18 *5379:B *5394:A0 0
19 *5379:B *5394:S 0.000307019
20 *5379:B *5399:B 0
21 *5379:B *5731:RESET_B 0
22 *5379:B *1030:84 0
23 *5383:B *5382:A0 0.000209637
24 *5383:B *5382:S 0.00117201
25 *5383:B *6076:A 0
26 *5383:B *841:10 0.000397963
27 *5383:B *970:10 0
28 *5383:B *1030:20 0.00034162
29 *5383:B *1030:46 0.000267234
30 *5395:B *986:10 0
31 *5397:B *978:27 0
32 *5397:B *1031:20 0
33 *711:12 *6022:A 0
34 *711:12 *941:8 0
35 *711:12 *964:12 0
36 *711:12 *993:27 0
37 *711:12 *1030:117 0
38 *711:12 *1031:10 0
39 *711:20 *993:27 0.000128662
40 *711:20 *1022:66 0
41 *711:20 *1061:34 0
42 *711:57 *5346:A1 0
43 *711:57 *5699:RESET_B 0
44 *711:57 *1031:10 0
45 *711:65 *1030:104 0
46 *711:65 *1084:10 0
47 *711:71 *5277:A 0.000144984
48 *711:71 *5277:B 0
49 *711:71 *5284:B1 6.16032e-06
50 *711:71 *5366:A1 0
51 *711:71 *1031:10 0.000161121
52 *711:71 *1031:14 0.00174139
53 *711:81 *995:23 0
54 *711:81 *1030:20 0.000874014
55 *711:81 *1031:20 0
56 *5279:B *711:71 0
57 *5279:C *711:71 0
58 *5284:A1 *711:71 0
59 *5347:A *711:57 0.000203674
60 *5347:A *711:65 8.03692e-05
61 *5363:A *711:20 8.03089e-05
62 *5367:A *711:71 8.03091e-05
63 *5367:A *711:75 9.5485e-05
64 *5383:A *5383:B 0
65 *5397:A *5397:B 0
66 *5699:D *711:57 0
67 *5703:CLK *711:81 0
68 *5715:CLK *711:20 0.000395896
69 *5719:CLK *5383:B 0
70 *5719:CLK *711:81 0
71 *5731:D *5379:B 0
72 *5733:CLK *5397:B 0.000371102
73 *5749:D *5397:B 0
74 *214:12 *711:20 0
75 *519:10 *711:81 0.000128247
76 *533:10 *5379:B 0
77 *622:56 *711:65 0
78 *623:8 *711:20 0.00021346
79 *647:12 *711:71 0
80 *669:31 *711:71 0
81 *679:53 *5395:B 0.000661201
82 *679:53 *711:20 0
83 *695:60 *711:71 0
*RES
1 *5942:X *711:4 20 
2 *711:4 *711:12 46.8186 
3 *711:12 *711:20 31.6802 
4 *711:20 *5379:B 48.4828 
5 *711:20 *5395:B 43.0694 
6 *711:12 *5363:B 20 
7 *711:4 *711:57 4.3672 
8 *711:57 *711:65 43.5432 
9 *711:65 *711:71 19.158 
10 *711:71 *711:75 20.5356 
11 *711:75 *711:81 6.9525 
12 *711:81 *5397:B 48.3739 
13 *711:81 *5351:B 40.3193 
14 *711:75 *5383:B 49.6614 
15 *711:71 *5367:B 20 
16 *711:57 *5347:B 20 
*END

*D_NET *712 0.0193751
*CONN
*I *5391:B I *D sg13g2_and2_1
*I *5375:B I *D sg13g2_and2_1
*I *5359:B I *D sg13g2_and2_1
*I *5343:B I *D sg13g2_and2_1
*I *5345:B I *D sg13g2_and2_1
*I *5377:B I *D sg13g2_and2_1
*I *5361:B I *D sg13g2_and2_1
*I *5341:B I *D sg13g2_and2_1
*I *5943:X O *D sg13g2_buf_1
*CAP
1 *5391:B 0.00037858
2 *5375:B 0
3 *5359:B 0
4 *5343:B 0
5 *5345:B 0.000477402
6 *5377:B 0
7 *5361:B 0.000686084
8 *5341:B 0.000161765
9 *5943:X 0.000165374
10 *712:73 0.000477402
11 *712:71 0.00129945
12 *712:51 0.00111874
13 *712:43 0.0021468
14 *712:37 0.00124661
15 *712:31 0.00138853
16 *712:27 0.00203357
17 *712:8 0.00142552
18 *5341:B *1033:10 0
19 *5345:B *5697:RESET_B 0.000274769
20 *5345:B *5976:A 0
21 *5345:B *1033:57 0
22 *5361:B *5399:B 0
23 *5361:B *713:60 6.15385e-06
24 *5391:B *5743:RESET_B 0
25 *5391:B *987:23 0.000266077
26 *712:27 *917:8 0
27 *712:27 *987:23 0.00199383
28 *712:27 *1033:10 0
29 *712:27 *1033:72 0
30 *712:31 *5727:RESET_B 0
31 *712:31 *1032:57 0
32 *712:37 *5358:A1 0
33 *712:37 *5711:RESET_B 0
34 *712:37 *1032:57 0
35 *712:37 *1032:66 0
36 *712:43 *5392:A1 0.00024211
37 *712:43 *5745:RESET_B 0
38 *712:43 *5994:A 0
39 *712:43 *713:60 9.70197e-05
40 *712:43 *1032:66 0
41 *712:51 *713:60 0.000598805
42 *712:51 *992:23 0.000181192
43 *712:71 *764:16 0
44 *712:71 *967:8 0
45 *5320:A2 *712:27 0.00082093
46 *5341:A *5341:B 0
47 *5341:A *712:8 0
48 *5343:A *5345:B 0
49 *5345:A *5345:B 8.02763e-05
50 *5359:A *712:37 0
51 *5361:A *5361:B 0.00024205
52 *5375:A *712:31 0.000274638
53 *5377:A *5361:B 0
54 *5377:A *712:51 8.02763e-05
55 *5391:A *5391:B 0.000436385
56 *5393:A *712:43 0
57 *5693:D *5341:B 0
58 *5693:D *712:8 4.77425e-05
59 *5697:D *5345:B 0
60 *5711:D *712:37 0
61 *5713:D *5361:B 0
62 *5727:D *712:31 0
63 *5745:D *712:37 0
64 *5745:D *712:43 0
65 *5845:A *712:43 0
66 *5855:A *5391:B 0
67 *504:8 *712:71 0
68 *539:8 *5391:B 0.00023464
69 *539:8 *712:27 0.000128662
70 *605:313 *712:71 0
71 *617:26 *5361:B 0.000218905
72 *617:26 *712:51 0
73 *627:17 *712:27 0
74 *673:33 *5341:B 0
75 *673:33 *712:27 0
76 *690:39 *712:8 0.000144849
*RES
1 *5943:X *712:8 41.6171 
2 *712:8 *5341:B 41.5141 
3 *712:8 *712:27 15.6045 
4 *712:27 *712:31 26.1594 
5 *712:31 *712:37 8.343 
6 *712:37 *712:43 4.08 
7 *712:43 *712:51 44.841 
8 *712:51 *5361:B 27.107 
9 *712:51 *5377:B 20 
10 *712:43 *712:71 34.6878 
11 *712:71 *712:73 20 
12 *712:73 *5345:B 25.0882 
13 *712:73 *5343:B 20 
14 *712:37 *5359:B 20 
15 *712:31 *5375:B 20 
16 *712:27 *5391:B 44.9028 
*END

*D_NET *713 0.0203904
*CONN
*I *5943:A I *D sg13g2_buf_1
*I *5393:B I *D sg13g2_and2_1
*I *5399:B I *D sg13g2_and2_1
*I *5942:A I *D sg13g2_buf_1
*I *5944:X O *D sg13g2_buf_1
*CAP
1 *5943:A 0
2 *5393:B 0
3 *5399:B 0.00229784
4 *5942:A 0.000808056
5 *5944:X 0.000465106
6 *713:60 0.000836927
7 *713:37 0.00313476
8 *713:35 0.00128658
9 *713:22 0.00299429
10 *713:18 0.00221042
11 *713:12 0.00131076
12 *713:10 0.000465106
13 *5399:B *5360:S 0
14 *5399:B *5394:A0 0
15 *5399:B *5394:S 0
16 *5399:B *5398:A1 0
17 *5399:B *5747:RESET_B 0
18 *5399:B *5986:A 0
19 *5399:B *964:12 0
20 *5399:B *964:25 0
21 *5399:B *1030:84 0
22 *5399:B *1070:15 0.000468896
23 *5399:B *1078:8 0
24 *5942:A *5976:A 0
25 *5942:A *6009:A 0
26 *5942:A *1060:24 0
27 *713:10 *987:14 0
28 *713:10 *1032:49 0
29 *713:18 *5342:A0 0
30 *713:18 *1032:23 0
31 *713:18 *1033:57 8.02269e-05
32 *713:35 *5344:A0 0
33 *713:35 *5360:A1 0
34 *713:35 *930:8 0
35 *713:35 *992:23 0
36 *713:60 *5360:S 0
37 *713:60 *5376:A0 0
38 *713:60 *764:16 0
39 *713:60 *1032:70 0
40 *5269:A2 *713:10 0.000241374
41 *5272:A1 *713:18 0
42 *5323:A1 *713:35 0
43 *5361:A *5399:B 0.000306963
44 *5361:B *5399:B 0
45 *5361:B *713:60 6.15385e-06
46 *5377:A *713:60 0
47 *5379:B *5399:B 0
48 *5393:A *713:60 8.01773e-05
49 *5399:A *5399:B 0.000242313
50 *5643:CLK *713:18 0
51 *5645:CLK *5942:A 0.000728089
52 *5645:CLK *713:22 0.000453661
53 *5693:CLK *713:10 0
54 *5695:D *713:22 0
55 *5699:D *5942:A 0
56 *5845:A *713:60 0
57 *5851:A *5399:B 0
58 *469:10 *713:18 0.000371316
59 *533:10 *5399:B 0
60 *617:26 *5399:B 0
61 *623:23 *5399:B 0
62 *652:51 *713:22 0
63 *673:39 *713:10 0.000306794
64 *684:40 *713:35 0
65 *690:39 *713:18 0.000598734
66 *712:43 *713:60 9.70197e-05
67 *712:51 *713:60 0.000598805
*RES
1 *5944:X *713:10 45.15 
2 *713:10 *713:12 20 
3 *713:12 *713:18 33.1222 
4 *713:18 *713:22 28.9713 
5 *713:22 *5942:A 29.1361 
6 *713:22 *713:35 32.9574 
7 *713:35 *713:37 20 
8 *713:37 *5399:B 44.7818 
9 *713:37 *713:60 48.8168 
10 *713:60 *5393:B 20 
11 *713:12 *5943:A 20 
*END

*D_NET *714 0.0207691
*CONN
*I *5423:D I *D sg13g2_and4_1
*I *5437:B I *D sg13g2_nand3_1
*I *5438:B I *D sg13g2_nand3_1
*I *5487:D I *D sg13g2_and4_1
*I *5349:B I *D sg13g2_and2_1
*I *5365:B I *D sg13g2_and2_1
*I *5381:B I *D sg13g2_and2_1
*I *5416:B I *D sg13g2_nand2_1
*I *5945:X O *D sg13g2_buf_1
*CAP
1 *5423:D 0.000267517
2 *5437:B 0.000483414
3 *5438:B 0
4 *5487:D 0
5 *5349:B 0
6 *5365:B 0
7 *5381:B 4.4364e-05
8 *5416:B 9.71684e-05
9 *5945:X 0
10 *714:104 0.00118166
11 *714:95 0.000744495
12 *714:80 0.00118148
13 *714:55 0.00107035
14 *714:49 0.00129639
15 *714:45 0.00141812
16 *714:39 0.00271514
17 *714:33 0.00162271
18 *714:27 0.00145228
19 *714:19 0.00255723
20 *714:4 0.000389692
21 *5381:B *978:27 7.9841e-05
22 *5416:B *1121:25 0
23 *5423:D *5765:RESET_B 0
24 *5437:B *5437:C 1.54556e-05
25 *5437:B *5775:RESET_B 0
26 *714:19 *1012:72 0
27 *714:19 *1121:12 0
28 *714:19 *1121:25 0
29 *714:27 *5453:A 0.000110829
30 *714:27 *5777:RESET_B 0
31 *714:27 *1011:25 0.000858185
32 *714:27 *1011:29 0.000112733
33 *714:33 *1009:58 0.000287672
34 *714:39 *5453:A 0
35 *714:39 *5701:RESET_B 6.18224e-06
36 *714:39 *1004:14 0.000144765
37 *714:39 *1004:18 0.000274545
38 *714:49 *1031:48 0
39 *714:49 *1062:18 0
40 *714:55 *5364:A0 0
41 *714:55 *1031:31 0
42 *714:80 *5959:A 0.000144253
43 *714:80 *1012:72 0
44 *714:95 *5807:RESET_B 0
45 *714:95 *5959:A 4.79124e-05
46 *714:104 *1014:8 0
47 *5349:A *714:39 8.03692e-05
48 *5349:A *714:45 8.03692e-05
49 *5365:A *714:49 6.47823e-05
50 *5365:A *714:55 8.03692e-05
51 *5381:A *5381:B 1.54008e-05
52 *5416:A *5416:B 0
53 *5423:B *5423:D 0
54 *5423:B *714:104 0
55 *5423:C *5423:D 4.77702e-05
56 *5434:B1 *714:19 0
57 *5487:B *714:80 0
58 *5487:B *714:95 0
59 *5487:C *714:80 0.000144253
60 *5701:D *714:39 0
61 *5777:D *714:27 4.79124e-05
62 *5876:A *714:27 0
63 *5876:A *714:39 0
64 *5879:A *714:95 0.000274452
65 *5879:A *714:104 0.000583339
66 *69:39 *714:27 0
67 *199:8 *714:55 0
68 *551:28 *714:19 0
69 *551:28 *714:27 0
70 *552:12 *5437:B 0.000145162
71 *556:23 *714:80 0
72 *644:24 *714:49 0
73 *644:24 *714:55 0
74 *644:31 *714:49 0
75 *648:10 *714:39 0
76 *648:66 *714:39 0
77 *650:18 *714:95 0.000234224
78 *680:55 *714:27 7.85932e-05
79 *680:55 *714:39 0
80 *693:87 *714:33 0.000287672
*RES
1 *5945:X *714:4 20 
2 *714:4 *5416:B 21.133 
3 *714:4 *714:19 23.1106 
4 *714:19 *714:27 34.3994 
5 *714:27 *714:33 41.339 
6 *714:33 *714:39 15.5534 
7 *714:39 *714:45 33.3385 
8 *714:45 *714:49 22.4823 
9 *714:49 *714:55 32.1334 
10 *714:55 *5381:B 40.5356 
11 *714:49 *5365:B 20 
12 *714:39 *5349:B 20 
13 *714:19 *714:80 29.7232 
14 *714:80 *5487:D 20 
15 *714:80 *714:95 43.708 
16 *714:95 *5438:B 20 
17 *714:95 *714:104 24.8616 
18 *714:104 *5437:B 44.7792 
19 *714:104 *5423:D 42.5544 
*END

*D_NET *715 0.017189
*CONN
*I *5232:B1 I *D sg13g2_o21ai_1
*I *5339:B I *D sg13g2_and2_1
*I *4981:C I *D sg13g2_nand3_1
*I *5236:B1 I *D sg13g2_o21ai_1
*I *4988:A I *D sg13g2_and3_1
*I *5021:A I *D sg13g2_and3_1
*I *4985:A I *D sg13g2_and3_1
*I *5019:A1 I *D sg13g2_a22oi_1
*I *5946:X O *D sg13g2_buf_1
*CAP
1 *5232:B1 0
2 *5339:B 0
3 *4981:C 3.32229e-05
4 *5236:B1 0.00019012
5 *4988:A 0
6 *5021:A 2.70354e-05
7 *4985:A 0.000436653
8 *5019:A1 0.000423145
9 *5946:X 4.50804e-05
10 *715:123 0.000277596
11 *715:108 0.00121166
12 *715:93 0.0015211
13 *715:82 0.00067468
14 *715:78 0.000708809
15 *715:74 0.00129423
16 *715:57 0.000146677
17 *715:31 0.00103497
18 *715:25 0.000899983
19 *715:23 0.00156004
20 *715:8 0.000774879
21 *4981:C *1046:8 1.54008e-05
22 *4985:A *1050:34 0
23 *4985:A *1050:44 0
24 *4985:A *1051:27 0
25 *4985:A *1051:33 0
26 *5236:B1 *5236:A2 4.77425e-05
27 *5236:B1 *1046:16 0.000259051
28 *715:8 *5019:A2 7.9703e-05
29 *715:25 *4988:C 0
30 *715:25 *1054:24 0
31 *715:31 *4988:C 0
32 *715:31 *5022:A1 0
33 *715:74 *5016:A 0.000181695
34 *715:74 *1054:8 0
35 *715:74 *1054:14 0
36 *715:78 *1017:26 0
37 *715:78 *1046:38 0
38 *715:82 *5016:A 0
39 *715:82 *1023:39 0
40 *715:82 *1046:44 0.000181608
41 *715:93 *1046:16 0.000874758
42 *715:93 *1047:10 0
43 *715:108 *5338:A1 0
44 *715:108 *6023:A 4.77425e-05
45 *715:108 *957:8 0.000288588
46 *715:108 *1023:84 0
47 *715:108 *1046:16 7.52158e-05
48 *715:108 *1047:10 0
49 *715:123 *5232:A1 0
50 *715:123 *5233:A1 0
51 *715:123 *1017:26 0.000144261
52 *4986:A *715:57 0
53 *4989:B1 *715:25 0
54 *4989:B1 *715:74 0.000176789
55 *5022:A2 *715:31 5.68051e-05
56 *5022:B1 *4985:A 0
57 *5022:B1 *715:31 0
58 *5235:B2 *5236:B1 0
59 *5339:A *715:108 0.000658084
60 *5685:CLK *5019:A1 0
61 *5817:CLK *5019:A1 0
62 *5827:CLK *5019:A1 0
63 *79:8 *715:108 0.00179757
64 *266:66 *715:23 0.000234224
65 *293:8 *715:74 0
66 *295:10 *5019:A1 0
67 *295:10 *715:8 7.9703e-05
68 *442:10 *715:123 0.000181608
69 *443:10 *715:123 1.54008e-05
70 *605:25 *715:25 0
71 *605:25 *715:31 0
72 *605:29 *715:23 0
73 *605:114 *715:25 0
74 *605:114 *715:74 0
75 *638:10 *715:78 0
76 *638:16 *715:74 0
77 *638:29 *715:57 0
78 *638:59 *715:108 0
79 *668:23 *715:108 0.000208179
80 *672:33 *715:123 0
81 *686:22 *4985:A 3.58069e-05
82 *686:60 *715:74 0
83 *686:73 *715:74 0
84 *690:10 *715:31 4.74263e-05
85 *700:48 *4985:A 0.00024173
86 *700:48 *715:31 0
87 *700:52 *4985:A 0
*RES
1 *5946:X *715:8 40.5356 
2 *715:8 *5019:A1 43.7595 
3 *715:8 *715:23 23.5638 
4 *715:23 *715:25 1.6171 
5 *715:25 *715:31 5.3148 
6 *715:31 *4985:A 24.5371 
7 *715:31 *5021:A 20.3502 
8 *715:25 *715:57 41.0918 
9 *715:57 *4988:A 20 
10 *715:23 *715:74 31.948 
11 *715:74 *715:78 21.8334 
12 *715:78 *715:82 22.3278 
13 *715:82 *5236:B1 42.0497 
14 *715:82 *715:93 4.3054 
15 *715:93 *4981:C 40.3193 
16 *715:93 *715:108 34.5745 
17 *715:108 *5339:B 20 
18 *715:78 *715:123 42.9973 
19 *715:123 *5232:B1 20 
*END

*D_NET *716 0.0166814
*CONN
*I *5027:B1 I *D sg13g2_o21ai_1
*I *5046:B1 I *D sg13g2_o21ai_1
*I *4979:A I *D sg13g2_inv_1
*I *5043:B1 I *D sg13g2_o21ai_1
*I *5040:B1 I *D sg13g2_o21ai_1
*I *5402:C I *D sg13g2_nand3_1
*I *5947:X O *D sg13g2_buf_1
*CAP
1 *5027:B1 0
2 *5046:B1 0
3 *4979:A 0
4 *5043:B1 3.71181e-05
5 *5040:B1 0
6 *5402:C 0
7 *5947:X 0.000410147
8 *716:75 0.00155056
9 *716:60 0.0021272
10 *716:44 0.00128609
11 *716:34 0.0016423
12 *716:28 0.00165059
13 *716:20 0.00152002
14 *716:18 0.00102005
15 *716:10 0.000665026
16 *5043:B1 *5043:A2 1.54556e-05
17 *716:10 *5493:RESET_B 0
18 *716:10 *5947:A 0
19 *716:10 *798:18 0
20 *716:18 *798:18 0.000341119
21 *716:20 *5046:A2 0.00037208
22 *716:20 *864:36 0
23 *716:20 *887:25 0.000680578
24 *716:20 *1000:28 0
25 *716:28 *5046:A2 1.54008e-05
26 *716:28 *864:36 0.000329402
27 *716:34 *5040:A2 0.000176175
28 *716:34 *864:8 0.000718252
29 *716:44 *5040:A2 1.54556e-05
30 *716:44 *5401:B 0.000209676
31 *716:44 *5753:RESET_B 0
32 *716:44 *718:14 0
33 *716:44 *718:22 0
34 *716:44 *1017:52 0
35 *716:44 *1048:36 0
36 *716:75 *975:27 0
37 *5014:A2 *716:44 0
38 *5014:B1 *716:44 6.47875e-05
39 *5039:B_N *716:34 0
40 *5041:B *716:44 0
41 *5043:A1 *5043:B1 0
42 *5493:D *716:10 0
43 *5501:D *716:34 0
44 *5505:CLK *716:28 0
45 *5823:D *716:44 2.21754e-05
46 *5871:A *716:28 0
47 *5874:A *716:44 0
48 *79:27 *716:75 0.000890691
49 *310:8 *716:34 0
50 *310:8 *716:60 0
51 *311:8 *716:60 0
52 *611:12 *716:75 0
53 *612:25 *716:44 0
54 *642:8 *716:75 0
55 *642:23 *716:75 0
56 *642:29 *716:60 0
57 *642:35 *716:28 0
58 *642:35 *716:60 0
59 *642:68 *5043:B1 0
60 *665:30 *716:60 0
61 *665:30 *716:75 0
62 *665:40 *716:34 0
63 *665:40 *716:44 0
64 *665:51 *716:34 0.00012816
65 *665:66 *716:34 0
66 *665:85 *716:10 0
67 *665:85 *716:18 0
68 *700:16 *716:44 0.000792883
*RES
1 *5947:X *716:10 24.0479 
2 *716:10 *716:18 43.1415 
3 *716:18 *716:20 7.6735 
4 *716:20 *716:28 27.2615 
5 *716:28 *716:34 24.9955 
6 *716:34 *716:44 34.317 
7 *716:44 *5402:C 40 
8 *716:34 *5040:B1 20 
9 *716:28 *716:60 5.5826 
10 *716:60 *5043:B1 40.3193 
11 *716:60 *716:75 38.6533 
12 *716:75 *4979:A 20 
13 *716:20 *5046:B1 20 
14 *716:10 *5027:B1 20 
*END

*D_NET *717 0.0175036
*CONN
*I *5385:B I *D sg13g2_and2_1
*I *5369:B I *D sg13g2_and2_1
*I *5389:B I *D sg13g2_and2_1
*I *5373:B I *D sg13g2_and2_1
*I *5357:B I *D sg13g2_and2_1
*I *5353:B I *D sg13g2_and2_1
*I *5355:B I *D sg13g2_and2_1
*I *5337:B I *D sg13g2_and2_1
*I *5948:X O *D sg13g2_buf_1
*CAP
1 *5385:B 0.000788489
2 *5369:B 0
3 *5389:B 0
4 *5373:B 0
5 *5357:B 0.000881645
6 *5353:B 0.000376076
7 *5355:B 0
8 *5337:B 0.0013114
9 *5948:X 0.000433154
10 *717:88 0.000908659
11 *717:81 0.00015611
12 *717:55 0.00128622
13 *717:53 0.000999225
14 *717:51 0.00250869
15 *717:22 0.00175039
16 *717:14 0.00112591
17 *717:10 0.00269398
18 *5337:B *5262:A 0
19 *5337:B *5637:RESET_B 0
20 *5337:B *1026:122 0.000200463
21 *5337:B *1057:10 0
22 *5353:B *6014:A 0
23 *5353:B *6029:A 0.000339683
24 *5353:B *1023:127 0
25 *5357:B *5372:A1 0
26 *5357:B *973:23 0
27 *5385:B *5384:A1 0
28 *5385:B *5721:RESET_B 0
29 *5385:B *5737:RESET_B 0
30 *5385:B *5990:A 0
31 *717:10 *5354:A0 0
32 *717:10 *5707:RESET_B 0
33 *717:10 *1026:122 0
34 *717:14 *5707:RESET_B 0
35 *717:22 *5354:A0 0
36 *717:51 *5354:A0 0
37 *717:51 *5368:A0 0
38 *717:51 *997:25 0
39 *717:53 *5388:A1 0.000112179
40 *717:53 *1075:12 0
41 *717:53 *1075:24 0
42 *717:55 *913:10 0
43 *717:81 *996:32 0
44 *717:81 *1075:24 0
45 *5311:A1 *717:51 0
46 *5336:S *5337:B 0
47 *5337:A *5337:B 0
48 *5355:A *5337:B 8.03692e-05
49 *5356:S *5357:B 0
50 *5357:A *5357:B 0.000274638
51 *5369:A *5385:B 6.49083e-05
52 *5369:A *717:88 8.02431e-05
53 *5373:A *5357:B 8.03692e-05
54 *5373:A *717:55 6.49135e-05
55 *5385:A *5385:B 0.000274507
56 *5389:A *717:53 0
57 *5707:CLK *5353:B 0
58 *5707:CLK *717:14 0
59 *5721:D *5385:B 0
60 *5741:D *717:53 0
61 *6015:A *5337:B 8.00842e-05
62 *211:10 *717:81 0
63 *480:8 *717:51 0
64 *619:14 *5357:B 0.000290094
65 *619:14 *717:55 0
66 *626:47 *717:22 0
67 *626:55 *717:22 0
68 *628:6 *717:55 0
69 *628:12 *717:55 0
70 *628:61 *717:55 0
71 *663:21 *5337:B 0
72 *663:78 *5385:B 0
73 *663:89 *5385:B 0
74 *663:95 *717:53 0
75 *663:95 *717:55 0
76 *664:8 *717:10 0
77 *664:59 *717:10 0
78 *664:59 *717:51 0
79 *664:59 *717:53 0
80 *668:48 *5353:B 0
81 *668:48 *717:14 0
82 *673:18 *5337:B 0
83 *689:48 *717:51 0.000341205
*RES
1 *5948:X *717:10 43.5741 
2 *717:10 *717:14 22.9149 
3 *717:14 *717:22 45.15 
4 *717:22 *5337:B 31.1458 
5 *717:22 *5355:B 20 
6 *717:14 *5353:B 23.9964 
7 *717:10 *717:51 36.4182 
8 *717:51 *717:53 4.6453 
9 *717:53 *717:55 3.9964 
10 *717:55 *5357:B 29.0434 
11 *717:55 *5373:B 20 
12 *717:53 *717:81 41.8334 
13 *717:81 *5389:B 20 
14 *717:51 *717:88 1.1845 
15 *717:88 *5369:B 20 
16 *717:88 *5385:B 27.8898 
*END

*D_NET *718 0.0299571
*CONN
*I *5947:A I *D sg13g2_buf_1
*I *5371:B I *D sg13g2_and2_1
*I *5387:B I *D sg13g2_and2_1
*I *5490:B I *D sg13g2_and2_1
*I *5948:A I *D sg13g2_buf_1
*I *5946:A I *D sg13g2_buf_1
*I *5949:X O *D sg13g2_buf_1
*CAP
1 *5947:A 0.000362437
2 *5371:B 2.59715e-05
3 *5387:B 0
4 *5490:B 0.000343409
5 *5948:A 0
6 *5946:A 0.000660435
7 *5949:X 0.00214294
8 *718:68 0.000656386
9 *718:62 0.000543215
10 *718:60 0.000903245
11 *718:54 0.00175137
12 *718:41 0.00367582
13 *718:39 0.00322446
14 *718:22 0.00310383
15 *718:20 0.00206537
16 *718:14 0.00200351
17 *5490:B *5687:RESET_B 0
18 *5946:A *5019:A2 0.000122099
19 *5947:A *5493:RESET_B 0
20 *5947:A *6048:A 0
21 *5947:A *798:18 0
22 *718:14 *5505:RESET_B 0.000154216
23 *718:14 *5823:RESET_B 0
24 *718:14 *5949:A 0.000404561
25 *718:14 *719:73 0
26 *718:14 *864:36 0
27 *718:14 *1116:97 0
28 *718:22 *5400:A_N 0
29 *718:22 *1049:10 0
30 *718:41 *5289:A 0
31 *718:41 *5997:A 0
32 *718:41 *928:8 0
33 *718:41 *1023:39 0
34 *718:41 *1046:16 0
35 *718:54 *5370:A1 0
36 *718:54 *5671:RESET_B 0
37 *718:54 *5707:RESET_B 0
38 *718:54 *6028:A 0
39 *718:60 *5370:A0 0
40 *718:60 *5386:A0 0
41 *718:60 *972:23 0
42 *718:62 *5386:A0 0
43 *718:68 *972:23 0.00173041
44 spi_cs_n *5947:A 4.79124e-05
45 *5014:A2 *718:22 0
46 *5017:B1 *718:41 0
47 *5047:A *718:14 0
48 *5047:B *718:14 0
49 *5315:A *718:54 0.000112426
50 *5315:C *718:54 0
51 *5371:A *5371:B 3.23965e-05
52 *5371:A *718:54 4.79124e-05
53 *5386:S *718:62 0
54 *5387:A *718:62 0.000241847
55 *5493:CLK *718:14 0
56 *5505:D *718:14 0.000177399
57 *5671:D *718:54 0
58 *5753:D *718:22 0
59 *5813:CLK *718:22 0
60 *5868:A *718:54 0
61 *5874:A *718:14 0.000921166
62 *5874:A *718:20 0
63 *291:12 *718:22 0
64 *294:8 *718:39 0.000830681
65 *442:10 *718:41 0.000605863
66 *466:8 *718:41 0
67 *605:114 *718:22 0
68 *612:25 *718:14 0
69 *638:59 *718:41 0
70 *641:50 *718:60 0.000822643
71 *643:8 *718:14 0
72 *643:32 *718:14 0
73 *663:78 *718:60 0
74 *664:14 *718:41 0
75 *664:37 *718:41 0
76 *664:59 *718:41 0
77 *664:59 *718:54 0
78 *665:40 *718:20 0
79 *665:66 *718:14 0
80 *665:77 *718:14 0
81 *665:85 *718:14 0
82 *666:10 *718:22 0
83 *666:30 *718:22 0
84 *667:25 *5490:B 0.000566273
85 *667:25 *718:68 0.00167688
86 *668:23 *718:41 0
87 *668:31 *718:39 0
88 *668:31 *718:41 0
89 *668:48 *718:41 0
90 *668:48 *718:54 0
91 *700:28 *5946:A 0
92 *700:28 *718:22 0
93 *702:24 *718:41 0
94 *716:10 *5947:A 0
95 *716:44 *718:14 0
96 *716:44 *718:22 0
*RES
1 *5949:X *718:14 37.9733 
2 *718:14 *718:20 42.575 
3 *718:20 *718:22 18.4885 
4 *718:22 *5946:A 25.102 
5 *718:22 *718:39 27.313 
6 *718:39 *718:41 27.7894 
7 *718:41 *5948:A 40 
8 *718:41 *718:54 29.9978 
9 *718:54 *718:60 49.0022 
10 *718:60 *718:62 2.4823 
11 *718:62 *718:68 48.0134 
12 *718:68 *5490:B 23.9964 
13 *718:62 *5387:B 20 
14 *718:54 *5371:B 20.3193 
15 *5949:X *5947:A 43.3475 
*END

*D_NET *719 0.0387283
*CONN
*I *5949:A I *D sg13g2_buf_1
*I *5944:A I *D sg13g2_buf_1
*I *5945:A I *D sg13g2_buf_1
*I *5941:A I *D sg13g2_buf_1
*I *5950:X O *D sg13g2_buf_1
*CAP
1 *5949:A 0.000391584
2 *5944:A 0
3 *5945:A 0
4 *5941:A 0.000299101
5 *5950:X 3.30546e-05
6 *719:73 0.00118288
7 *719:54 0.0037778
8 *719:43 0.00227509
9 *719:31 0.00605289
10 *719:29 0.0036256
11 *719:27 0.00441689
12 *719:25 0.00563453
13 *719:8 0.00596669
14 *719:25 *5045:A 0
15 *719:25 *799:8 0
16 *719:25 *1008:19 0
17 *719:25 *1117:12 0
18 *719:43 *5420:A 0
19 *719:43 *5424:A 0
20 *719:43 *5757:RESET_B 0.000339426
21 *719:43 *5761:RESET_B 0
22 *719:43 *5771:RESET_B 0
23 *719:43 *5911:A 0
24 *719:43 *1010:6 0.00069482
25 *719:43 *1010:12 0
26 *719:43 *1033:12 0
27 *719:43 *1121:25 0
28 *719:43 *1121:33 4.77425e-05
29 *719:43 *1121:51 0
30 *719:54 *5245:B1 0
31 *719:54 *5268:A 0
32 *719:54 *722:8 0.000181192
33 *719:54 *1026:31 0
34 *719:54 *1026:44 0
35 *719:54 *1033:10 0
36 *719:54 *1033:12 0
37 *719:73 *5505:RESET_B 0.000177164
38 *719:73 *794:8 0
39 *5416:A *719:43 0
40 *5420:C *719:43 0
41 *5433:C *719:43 4.77425e-05
42 *5434:B1 *719:43 0
43 *5493:CLK *5949:A 0
44 *5493:CLK *719:73 0
45 *5561:CLK *719:25 0
46 *5573:CLK *719:25 0
47 *5771:D *719:43 0
48 *5956:A *719:43 0.000318373
49 *5956:A *719:54 0.00118982
50 *221:10 *719:43 0
51 *313:8 *719:73 0
52 *349:10 *719:25 0
53 *349:25 *719:25 0
54 *357:8 *719:25 0.000882874
55 *358:80 *719:25 0
56 *551:28 *719:43 0
57 *555:10 *719:43 0.00018211
58 *556:8 *719:43 0
59 *605:19 *719:29 0
60 *605:269 *719:54 0
61 *618:10 *719:54 0
62 *625:19 *719:54 0
63 *625:25 *719:54 0
64 *637:25 *719:25 0
65 *642:35 *719:25 0
66 *651:14 *719:43 0
67 *651:21 *719:43 0
68 *659:21 *719:25 0.000559108
69 *662:40 *719:25 0
70 *665:85 *5949:A 0
71 *676:8 *719:43 0
72 *676:28 *719:43 0
73 *700:60 *719:43 0
74 *706:43 *5941:A 0
75 *706:43 *719:8 4.73096e-05
76 *706:45 *719:25 0
77 *706:64 *719:25 0
78 *709:10 *5941:A 0
79 *709:99 *5941:A 0
80 *709:99 *719:25 0
81 *718:14 *5949:A 0.000404561
82 *718:14 *719:73 0
*RES
1 *5950:X *719:8 40.3193 
2 *719:8 *5941:A 43.2239 
3 *719:8 *719:25 62.3974 
4 *719:25 *719:27 20 
5 *719:27 *719:29 46.3912 
6 *719:29 *719:31 20 
7 *719:31 *719:43 44.4625 
8 *719:43 *5945:A 20 
9 *719:31 *719:54 37.6053 
10 *719:54 *5944:A 40 
11 *719:27 *719:73 49.5584 
12 *719:73 *5949:A 24.1766 
*END

*D_NET *720 0.0107267
*CONN
*I *5085:A2 I *D sg13g2_o21ai_1
*I *6041:A I *D sg13g2_buf_1
*I *5535:Q O *D sg13g2_dfrbpq_1
*CAP
1 *5085:A2 0
2 *6041:A 0.00222545
3 *5535:Q 0.000172187
4 *720:27 0.00017245
5 *720:12 0.00471412
6 *720:8 0.00283331
7 *6041:A *844:10 0
8 *6041:A *1001:12 0
9 *720:8 *1029:16 0
10 *720:12 *5767:RESET_B 0
11 *720:12 *5773:RESET_B 0
12 *720:27 *1028:16 0
13 *5429:B *720:12 0
14 *5789:CLK *6041:A 0
15 *649:34 *720:12 0
16 *704:72 *720:8 0
17 *704:72 *720:12 0
18 *704:72 *720:27 0.000609155
*RES
1 *5535:Q *720:8 21.9055 
2 *720:8 *720:12 27.31 
3 *720:12 *6041:A 44.6067 
4 *720:8 *720:27 42.8222 
5 *720:27 *5085:A2 20 
*END

*D_NET *721 0.00135878
*CONN
*I *5571:RESET_B I *D sg13g2_dfrbpq_1
*I *5572:L_HI O *D sg13g2_tiehi
*CAP
1 *5571:RESET_B 0.000465677
2 *5572:L_HI 0.000465677
3 *5571:CLK *5571:RESET_B 0
4 *636:20 *5571:RESET_B 0.000427422
5 *637:8 *5571:RESET_B 0
*RES
1 *5572:L_HI *5571:RESET_B 44.143 
*END

*D_NET *722 0.00105559
*CONN
*I *5693:RESET_B I *D sg13g2_dfrbpq_1
*I *5694:L_HI O *D sg13g2_tiehi
*CAP
1 *5693:RESET_B 0.000207116
2 *5694:L_HI 0.000206428
3 *722:8 0.000413545
4 *5693:RESET_B *1032:8 0
5 *5693:RESET_B *1033:8 4.73096e-05
6 *722:8 *1033:72 0
7 *5693:D *5693:RESET_B 0
8 *618:10 *722:8 0
9 *690:39 *5693:RESET_B 0
10 *719:54 *722:8 0.000181192
*RES
1 *5694:L_HI *722:8 41.8334 
2 *722:8 *5693:RESET_B 41.8334 
*END

*D_NET *723 0.00128585
*CONN
*I *5569:RESET_B I *D sg13g2_dfrbpq_1
*I *5570:L_HI O *D sg13g2_tiehi
*CAP
1 *5569:RESET_B 0
2 *5570:L_HI 0.000538756
3 *723:10 0.000538756
4 *723:10 *5133:A1 0
5 *723:10 *1119:90 0.00012816
6 *723:10 *1119:105 0
7 *723:10 *1120:8 0
8 *5569:CLK *723:10 0
9 *125:10 *723:10 0
10 *636:42 *723:10 8.01776e-05
*RES
1 *5570:L_HI *723:10 45.3972 
2 *723:10 *5569:RESET_B 40 
*END

*D_NET *724 0.00042095
*CONN
*I *5783:RESET_B I *D sg13g2_dfrbpq_1
*I *5784:L_HI O *D sg13g2_tiehi
*CAP
1 *5783:RESET_B 0.000210475
2 *5784:L_HI 0.000210475
3 *5783:CLK *5783:RESET_B 0
4 *5876:A *5783:RESET_B 0
*RES
1 *5784:L_HI *5783:RESET_B 42.1836 
*END

*D_NET *725 0.00106703
*CONN
*I *5567:RESET_B I *D sg13g2_dfrbpq_1
*I *5568:L_HI O *D sg13g2_tiehi
*CAP
1 *5567:RESET_B 0.000226467
2 *5568:L_HI 0.000137208
3 *725:8 0.000363675
4 *5567:RESET_B *5110:A1 0
5 *661:20 *725:8 0
6 *661:59 *5567:RESET_B 0.000339683
*RES
1 *5568:L_HI *725:8 41.5862 
2 *725:8 *5567:RESET_B 42.266 
*END

*D_NET *726 0.000319247
*CONN
*I *5691:RESET_B I *D sg13g2_dfrbpq_1
*I *5692:L_HI O *D sg13g2_tiehi
*CAP
1 *5691:RESET_B 0.000159623
2 *5692:L_HI 0.000159623
3 *5691:D *5691:RESET_B 0
4 *79:8 *5691:RESET_B 0
*RES
1 *5692:L_HI *5691:RESET_B 41.6325 
*END

*D_NET *727 0.000468777
*CONN
*I *5565:RESET_B I *D sg13g2_dfrbpq_1
*I *5566:L_HI O *D sg13g2_tiehi
*CAP
1 *5565:RESET_B 0.000234389
2 *5566:L_HI 0.000234389
3 *5565:RESET_B *5110:A1 0
4 *5565:CLK *5565:RESET_B 0
*RES
1 *5566:L_HI *5565:RESET_B 42.4308 
*END

*D_NET *728 0.000545143
*CONN
*I *5751:RESET_B I *D sg13g2_dfrbpq_1
*I *5752:L_HI O *D sg13g2_tiehi
*CAP
1 *5751:RESET_B 0.000272571
2 *5752:L_HI 0.000272571
3 *5751:RESET_B *5398:A1 0
4 *5751:CLK *5751:RESET_B 0
*RES
1 *5752:L_HI *5751:RESET_B 43.1724 
*END

*D_NET *729 0.00081529
*CONN
*I *5563:RESET_B I *D sg13g2_dfrbpq_1
*I *5564:L_HI O *D sg13g2_tiehi
*CAP
1 *5563:RESET_B 0.000237867
2 *5564:L_HI 0.000237867
3 *662:38 *5563:RESET_B 0.000339557
*RES
1 *5564:L_HI *5563:RESET_B 42.8634 
*END

*D_NET *730 0.000728254
*CONN
*I *5689:RESET_B I *D sg13g2_dfrbpq_1
*I *5690:L_HI O *D sg13g2_tiehi
*CAP
1 *5689:RESET_B 0.000284212
2 *5690:L_HI 0.000284212
3 *625:72 *5689:RESET_B 0
4 *673:18 *5689:RESET_B 0
5 *673:20 *5689:RESET_B 4.77699e-05
6 *687:73 *5689:RESET_B 0.000112059
*RES
1 *5690:L_HI *5689:RESET_B 42.6162 
*END

*D_NET *731 0.0104025
*CONN
*I *6042:A I *D sg13g2_buf_1
*I *5087:A2 I *D sg13g2_o21ai_1
*I *5537:Q O *D sg13g2_dfrbpq_1
*CAP
1 *6042:A 0
2 *5087:A2 0.000325572
3 *5537:Q 0.000106269
4 *731:27 0.00431756
5 *731:21 0.00431756
6 *731:8 0.000431841
7 *5087:A2 *5087:A1 0.00037174
8 *5087:B1 *5087:A2 1.54008e-05
9 *5088:A2 *731:27 0.000241847
10 *5088:B1 *5087:A2 0.000274742
11 *109:10 *731:27 0
*RES
1 *5537:Q *731:8 41.339 
2 *731:8 *5087:A2 43.8213 
3 *731:8 *731:21 20 
4 *731:21 *731:27 49.3164 
5 *731:27 *6042:A 20 
*END

*D_NET *732 0.00133037
*CONN
*I *5561:RESET_B I *D sg13g2_dfrbpq_1
*I *5562:L_HI O *D sg13g2_tiehi
*CAP
1 *5561:RESET_B 0.00018801
2 *5562:L_HI 0.000109673
3 *732:8 0.000297683
4 *5561:RESET_B *5048:A 0.000339524
5 *732:8 *5045:A 0.000106894
6 *732:8 *1115:16 0
7 *732:8 *1117:12 0.000288588
8 *5565:CLK *5561:RESET_B 0
*RES
1 *5562:L_HI *732:8 41.8334 
2 *732:8 *5561:RESET_B 42.266 
*END

*D_NET *733 0.000487923
*CONN
*I *5687:RESET_B I *D sg13g2_dfrbpq_1
*I *5688:L_HI O *D sg13g2_tiehi
*CAP
1 *5687:RESET_B 0.000243962
2 *5688:L_HI 0.000243962
3 *5490:B *5687:RESET_B 0
4 *5687:CLK *5687:RESET_B 0
*RES
1 *5688:L_HI *5687:RESET_B 42.8634 
*END

*D_NET *734 0.000533146
*CONN
*I *5559:RESET_B I *D sg13g2_dfrbpq_1
*I *5560:L_HI O *D sg13g2_tiehi
*CAP
1 *5559:RESET_B 0.000266573
2 *5560:L_HI 0.000266573
3 *5559:D *5559:RESET_B 0
4 *5940:A *5559:RESET_B 0
5 *637:25 *5559:RESET_B 0
*RES
1 *5560:L_HI *5559:RESET_B 42.8634 
*END

*D_NET *735 0.0011445
*CONN
*I *5685:RESET_B I *D sg13g2_dfrbpq_1
*I *5686:L_HI O *D sg13g2_tiehi
*CAP
1 *5685:RESET_B 0
2 *5686:L_HI 0.000572249
3 *735:10 0.000572249
4 *735:10 *1044:14 0
5 *555:10 *735:10 0
6 *700:92 *735:10 0
*RES
1 *5686:L_HI *735:10 45.8298 
2 *735:10 *5685:RESET_B 40 
*END

*D_NET *736 0.000648062
*CONN
*I *5557:RESET_B I *D sg13g2_dfrbpq_1
*I *5558:L_HI O *D sg13g2_tiehi
*CAP
1 *5557:RESET_B 0.000186646
2 *5558:L_HI 0.000186646
3 *5557:D *5557:RESET_B 0.000274769
4 *5557:CLK *5557:RESET_B 0
*RES
1 *5558:L_HI *5557:RESET_B 42.1836 
*END

*D_NET *737 0.000419208
*CONN
*I *5797:RESET_B I *D sg13g2_dfrbpq_1
*I *5798:L_HI O *D sg13g2_tiehi
*CAP
1 *5797:RESET_B 0.000209604
2 *5798:L_HI 0.000209604
3 *5797:CLK *5797:RESET_B 0
4 *679:81 *5797:RESET_B 0
*RES
1 *5798:L_HI *5797:RESET_B 42.1836 
*END

*D_NET *738 0.000491939
*CONN
*I *5555:RESET_B I *D sg13g2_dfrbpq_1
*I *5556:L_HI O *D sg13g2_tiehi
*CAP
1 *5555:RESET_B 0.00024597
2 *5556:L_HI 0.00024597
*RES
1 *5556:L_HI *5555:RESET_B 42.6162 
*END

*D_NET *739 0.000432369
*CONN
*I *5683:RESET_B I *D sg13g2_dfrbpq_1
*I *5684:L_HI O *D sg13g2_tiehi
*CAP
1 *5683:RESET_B 0.000216184
2 *5684:L_HI 0.000216184
3 *5735:CLK *5683:RESET_B 0
*RES
1 *5684:L_HI *5683:RESET_B 42.2866 
*END

*D_NET *740 0.000555916
*CONN
*I *5553:RESET_B I *D sg13g2_dfrbpq_1
*I *5554:L_HI O *D sg13g2_tiehi
*CAP
1 *5553:RESET_B 0.000237853
2 *5554:L_HI 0.000237853
3 *5110:A2 *5553:RESET_B 8.02105e-05
4 *5553:D *5553:RESET_B 0
5 *5565:CLK *5553:RESET_B 0
*RES
1 *5554:L_HI *5553:RESET_B 41.6042 
*END

*D_NET *741 0.000428341
*CONN
*I *5749:RESET_B I *D sg13g2_dfrbpq_1
*I *5750:L_HI O *D sg13g2_tiehi
*CAP
1 *5749:RESET_B 0.00021417
2 *5750:L_HI 0.00021417
3 *5397:A *5749:RESET_B 0
4 *5749:D *5749:RESET_B 0
5 *5749:CLK *5749:RESET_B 0
*RES
1 *5750:L_HI *5749:RESET_B 42.2866 
*END

*D_NET *742 0.00574091
*CONN
*I *5089:A2 I *D sg13g2_o21ai_1
*I *6043:A I *D sg13g2_buf_1
*I *5539:Q O *D sg13g2_dfrbpq_1
*CAP
1 *5089:A2 0
2 *6043:A 0
3 *5539:Q 0
4 *742:29 0.00061284
5 *742:10 0.00224222
6 *742:4 0.00285506
7 *742:10 *753:18 0
8 *742:10 *756:10 0
9 *742:29 *1028:91 1.54008e-05
10 *5089:B1 *742:29 1.54008e-05
11 *5090:B1 *742:29 0
*RES
1 *5539:Q *742:4 20 
2 *742:4 *742:10 48.6649 
3 *742:10 *6043:A 40 
4 *742:4 *742:29 45.974 
5 *742:29 *5089:A2 20 
*END

*D_NET *743 0.00167971
*CONN
*I *5551:RESET_B I *D sg13g2_dfrbpq_1
*I *5552:L_HI O *D sg13g2_tiehi
*CAP
1 *5551:RESET_B 0
2 *5552:L_HI 0.000553738
3 *743:10 0.000553738
4 *5551:CLK *743:10 0
5 *116:12 *743:10 0.000235401
6 *705:43 *743:10 0
7 *709:41 *743:10 0.00033683
*RES
1 *5552:L_HI *743:10 45.8298 
2 *743:10 *5551:RESET_B 40 
*END

*D_NET *744 0.0005292
*CONN
*I *5681:RESET_B I *D sg13g2_dfrbpq_1
*I *5682:L_HI O *D sg13g2_tiehi
*CAP
1 *5681:RESET_B 0.0002646
2 *5682:L_HI 0.0002646
*RES
1 *5682:L_HI *5681:RESET_B 42.6162 
*END

*D_NET *745 0.000455982
*CONN
*I *5549:RESET_B I *D sg13g2_dfrbpq_1
*I *5550:L_HI O *D sg13g2_tiehi
*CAP
1 *5549:RESET_B 0.000227991
2 *5550:L_HI 0.000227991
3 *5101:A *5549:RESET_B 0
4 *5529:CLK *5549:RESET_B 0
5 *5547:CLK *5549:RESET_B 0
6 *630:23 *5549:RESET_B 0
7 *705:53 *5549:RESET_B 0
*RES
1 *5550:L_HI *5549:RESET_B 42.6162 
*END

*D_NET *746 0.000451579
*CONN
*I *5781:RESET_B I *D sg13g2_dfrbpq_1
*I *5782:L_HI O *D sg13g2_tiehi
*CAP
1 *5781:RESET_B 0.00022579
2 *5782:L_HI 0.00022579
3 *5448:C *5781:RESET_B 0
4 *5781:D *5781:RESET_B 0
5 *650:64 *5781:RESET_B 0
*RES
1 *5782:L_HI *5781:RESET_B 42.2866 
*END

*D_NET *747 0.00038922
*CONN
*I *5547:RESET_B I *D sg13g2_dfrbpq_1
*I *5548:L_HI O *D sg13g2_tiehi
*CAP
1 *5547:RESET_B 0.00019461
2 *5548:L_HI 0.00019461
3 *5547:RESET_B *6047:A 0
4 *5098:B1 *5547:RESET_B 0
5 *5547:D *5547:RESET_B 0
*RES
1 *5548:L_HI *5547:RESET_B 42.2248 
*END

*D_NET *748 0.000493201
*CONN
*I *5679:RESET_B I *D sg13g2_dfrbpq_1
*I *5680:L_HI O *D sg13g2_tiehi
*CAP
1 *5679:RESET_B 0.000246601
2 *5680:L_HI 0.000246601
3 *5679:RESET_B *1022:66 0
4 *623:27 *5679:RESET_B 0
*RES
1 *5680:L_HI *5679:RESET_B 41.1378 
*END

*D_NET *749 0.00149659
*CONN
*I *5545:RESET_B I *D sg13g2_dfrbpq_1
*I *5546:L_HI O *D sg13g2_tiehi
*CAP
1 *5545:RESET_B 0.000186389
2 *5546:L_HI 0.000283852
3 *749:8 0.000470242
4 *5545:RESET_B *1028:58 0
5 *749:8 *1028:37 0
6 *5545:D *5545:RESET_B 0
7 *113:8 *749:8 0.000556104
*RES
1 *5546:L_HI *749:8 43.3166 
2 *749:8 *5545:RESET_B 41.8334 
*END

*D_NET *750 0.00075288
*CONN
*I *5747:RESET_B I *D sg13g2_dfrbpq_1
*I *5748:L_HI O *D sg13g2_tiehi
*CAP
1 *5747:RESET_B 0.000153072
2 *5748:L_HI 8.6014e-05
3 *750:8 0.000239086
4 *750:8 *964:25 0
5 *5399:B *5747:RESET_B 0
6 *5851:A *5747:RESET_B 0.000274709
7 *214:12 *750:8 0
*RES
1 *5748:L_HI *750:8 41.0918 
2 *750:8 *5747:RESET_B 41.8334 
*END

*D_NET *751 0.000422739
*CONN
*I *5543:RESET_B I *D sg13g2_dfrbpq_1
*I *5544:L_HI O *D sg13g2_tiehi
*CAP
1 *5543:RESET_B 0.00021137
2 *5544:L_HI 0.00021137
3 *5543:D *5543:RESET_B 0
4 *5543:CLK *5543:RESET_B 0
*RES
1 *5544:L_HI *5543:RESET_B 42.1836 
*END

*D_NET *752 0.000785424
*CONN
*I *5677:RESET_B I *D sg13g2_dfrbpq_1
*I *5678:L_HI O *D sg13g2_tiehi
*CAP
1 *5677:RESET_B 0.000222785
2 *5678:L_HI 0.000222785
3 *5659:CLK *5677:RESET_B 0.000339853
4 *605:296 *5677:RESET_B 0
*RES
1 *5678:L_HI *5677:RESET_B 42.266 
*END

*D_NET *753 0.00370555
*CONN
*I *5091:A0 I *D sg13g2_mux2_1
*I *6044:A I *D sg13g2_buf_1
*I *5541:Q O *D sg13g2_dfrbpq_1
*CAP
1 *5091:A0 0
2 *6044:A 0
3 *5541:Q 0.000252051
4 *753:18 0.0011605
5 *753:12 0.00128479
6 *753:8 0.000376339
7 *753:12 *5091:S 0
8 *753:12 *1105:38 0.000177526
9 *753:18 *765:16 0
10 *704:89 *753:18 0.000454344
11 *742:10 *753:18 0
*RES
1 *5541:Q *753:8 42.3278 
2 *753:8 *753:12 21.4008 
3 *753:12 *753:18 35.5015 
4 *753:18 *6044:A 40 
5 *753:12 *5091:A0 20 
*END

*D_NET *754 0.000410911
*CONN
*I *5541:RESET_B I *D sg13g2_dfrbpq_1
*I *5542:L_HI O *D sg13g2_tiehi
*CAP
1 *5541:RESET_B 0.000205455
2 *5542:L_HI 0.000205455
3 *5541:RESET_B *1105:38 0
4 *5541:D *5541:RESET_B 0
*RES
1 *5542:L_HI *5541:RESET_B 42.1836 
*END

*D_NET *755 0.000386865
*CONN
*I *5827:RESET_B I *D sg13g2_dfrbpq_1
*I *5828:L_HI O *D sg13g2_tiehi
*CAP
1 *5827:RESET_B 0.000193432
2 *5828:L_HI 0.000193432
3 *5685:CLK *5827:RESET_B 0
*RES
1 *5828:L_HI *5827:RESET_B 42.1836 
*END

*D_NET *756 0.00161168
*CONN
*I *5539:RESET_B I *D sg13g2_dfrbpq_1
*I *5540:L_HI O *D sg13g2_tiehi
*CAP
1 *5539:RESET_B 0.000192917
2 *5540:L_HI 0.000238655
3 *756:10 0.000431573
4 *5539:RESET_B *1028:99 0
5 *5539:D *5539:RESET_B 0
6 *110:8 *756:10 0.000455749
7 *255:14 *756:10 0.000292789
8 *742:10 *756:10 0
*RES
1 *5540:L_HI *756:10 43.8831 
2 *756:10 *5539:RESET_B 42.0497 
*END

*D_NET *757 0.00103449
*CONN
*I *5675:RESET_B I *D sg13g2_dfrbpq_1
*I *5676:L_HI O *D sg13g2_tiehi
*CAP
1 *5675:RESET_B 0.000213884
2 *5676:L_HI 0.000166035
3 *757:8 0.000379918
4 *5675:RESET_B *5292:B 0
5 *5675:RESET_B *5675:D 0
6 *5988:A *5675:RESET_B 0.00027465
7 *605:269 *757:8 0
8 *605:335 *757:8 0
*RES
1 *5676:L_HI *757:8 41.8334 
2 *757:8 *5675:RESET_B 42.266 
*END

*D_NET *758 0.000405228
*CONN
*I *5537:RESET_B I *D sg13g2_dfrbpq_1
*I *5538:L_HI O *D sg13g2_tiehi
*CAP
1 *5537:RESET_B 0.000202614
2 *5538:L_HI 0.000202614
3 *5537:D *5537:RESET_B 0
4 *255:8 *5537:RESET_B 0
*RES
1 *5538:L_HI *5537:RESET_B 40.802 
*END

*D_NET *759 0.000437737
*CONN
*I *5745:RESET_B I *D sg13g2_dfrbpq_1
*I *5746:L_HI O *D sg13g2_tiehi
*CAP
1 *5745:RESET_B 0.000218868
2 *5746:L_HI 0.000218868
3 *5745:RESET_B *6082:A 0
4 *5393:A *5745:RESET_B 0
5 *5745:D *5745:RESET_B 0
6 *5745:CLK *5745:RESET_B 0
7 *712:43 *5745:RESET_B 0
*RES
1 *5746:L_HI *5745:RESET_B 41.1372 
*END

*D_NET *760 0.000559195
*CONN
*I *5535:RESET_B I *D sg13g2_dfrbpq_1
*I *5536:L_HI O *D sg13g2_tiehi
*CAP
1 *5535:RESET_B 0.000279597
2 *5536:L_HI 0.000279597
3 *5535:RESET_B *1029:16 0
4 *337:18 *5535:RESET_B 0
*RES
1 *5536:L_HI *5535:RESET_B 43.0226 
*END

*D_NET *761 0.000714451
*CONN
*I *5673:RESET_B I *D sg13g2_dfrbpq_1
*I *5674:L_HI O *D sg13g2_tiehi
*CAP
1 *5673:RESET_B 0.000224392
2 *5674:L_HI 0.000224392
3 *5673:RESET_B *5316:B 0
4 *5673:D *5673:RESET_B 0
5 *674:40 *5673:RESET_B 0.000265666
*RES
1 *5674:L_HI *5673:RESET_B 42.7192 
*END

*D_NET *762 0.000733056
*CONN
*I *5533:RESET_B I *D sg13g2_dfrbpq_1
*I *5534:L_HI O *D sg13g2_tiehi
*CAP
1 *5533:RESET_B 0.000196848
2 *5534:L_HI 0.000196848
3 *5084:A2 *5533:RESET_B 0.00033936
*RES
1 *5534:L_HI *5533:RESET_B 42.266 
*END

*D_NET *763 0.000498486
*CONN
*I *5779:RESET_B I *D sg13g2_dfrbpq_1
*I *5780:L_HI O *D sg13g2_tiehi
*CAP
1 *5779:RESET_B 0.000249243
2 *5780:L_HI 0.000249243
3 *650:64 *5779:RESET_B 0
*RES
1 *5780:L_HI *5779:RESET_B 42.6162 
*END

*D_NET *764 0.0109473
*CONN
*I *5462:B I *D sg13g2_nor4_1
*I *6034:X O *D sg13g2_buf_1
*CAP
1 *5462:B 0
2 *6034:X 0.000536956
3 *764:24 0.000838853
4 *764:16 0.00346028
5 *764:10 0.00315839
6 *764:10 *5392:A0 0
7 *764:16 *5392:A0 0.000501218
8 *764:16 *990:25 0
9 *764:16 *1039:10 0
10 *764:24 *1052:20 0
11 *5462:A *764:24 7.49633e-05
12 *5797:CLK *764:16 0
13 *5880:A *764:16 0.000820983
14 *5881:A *764:16 0.000587173
15 *454:8 *764:16 0.000501548
16 *586:50 *764:24 0.000124824
17 *605:313 *764:16 0
18 *652:8 *764:16 0
19 *652:30 *764:16 0
20 *652:45 *764:16 0
21 *684:10 *764:16 0.000342145
22 *696:74 *764:16 0
23 *712:71 *764:16 0
24 *713:60 *764:16 0
*RES
1 *6034:X *764:10 45.3663 
2 *764:10 *764:16 30.1893 
3 *764:16 *764:24 48.6726 
4 *764:24 *5462:B 40 
*END

*D_NET *765 0.00755683
*CONN
*I *5093:A2 I *D sg13g2_o21ai_1
*I *6045:A I *D sg13g2_buf_1
*I *5543:Q O *D sg13g2_dfrbpq_1
*CAP
1 *5093:A2 5.74212e-05
2 *6045:A 0.000195843
3 *5543:Q 0.000883643
4 *765:16 0.00202545
5 *765:10 0.00188702
6 *765:8 0.000883643
7 *5093:A2 *5091:S 0
8 *5093:A2 *5093:A1 4.78359e-05
9 *765:8 *1028:18 0
10 *765:8 *1028:20 0
11 *765:16 *5091:S 0
12 *5093:B1 *5093:A2 0.000112519
13 *5093:B1 *765:16 0.000194258
14 *649:42 *765:16 0.00067038
15 *704:83 *765:8 0
16 *704:89 *765:16 0.000598822
17 *753:18 *765:16 0
*RES
1 *5543:Q *765:8 48.5078 
2 *765:8 *765:10 20 
3 *765:10 *765:16 43.69 
4 *765:16 *6045:A 42.266 
5 *765:10 *5093:A2 20.7519 
*END

*D_NET *766 0.000543793
*CONN
*I *5531:RESET_B I *D sg13g2_dfrbpq_1
*I *5532:L_HI O *D sg13g2_tiehi
*CAP
1 *5531:RESET_B 0.000271896
2 *5532:L_HI 0.000271896
3 *5531:RESET_B *5974:A 0
4 *631:62 *5531:RESET_B 0
5 *632:50 *5531:RESET_B 0
*RES
1 *5532:L_HI *5531:RESET_B 42.9252 
*END

*D_NET *767 0.000910337
*CONN
*I *5671:RESET_B I *D sg13g2_dfrbpq_1
*I *5672:L_HI O *D sg13g2_tiehi
*CAP
1 *5671:RESET_B 0.000455169
2 *5672:L_HI 0.000455169
3 *5671:D *5671:RESET_B 0
4 *5671:CLK *5671:RESET_B 0
5 *5868:A *5671:RESET_B 0
6 *718:54 *5671:RESET_B 0
*RES
1 *5672:L_HI *5671:RESET_B 44.7792 
*END

*D_NET *768 0.000402066
*CONN
*I *5529:RESET_B I *D sg13g2_dfrbpq_1
*I *5530:L_HI O *D sg13g2_tiehi
*CAP
1 *5529:RESET_B 0.000201033
2 *5530:L_HI 0.000201033
3 *5529:D *5529:RESET_B 0
4 *6038:A *5529:RESET_B 0
*RES
1 *5530:L_HI *5529:RESET_B 42.2248 
*END

*D_NET *769 0.00049963
*CONN
*I *5743:RESET_B I *D sg13g2_dfrbpq_1
*I *5744:L_HI O *D sg13g2_tiehi
*CAP
1 *5743:RESET_B 0.000249815
2 *5744:L_HI 0.000249815
3 *5391:B *5743:RESET_B 0
4 *5709:CLK *5743:RESET_B 0
5 *5855:A *5743:RESET_B 0
6 *619:14 *5743:RESET_B 0
*RES
1 *5744:L_HI *5743:RESET_B 41.385 
*END

*D_NET *770 0.00048165
*CONN
*I *5527:RESET_B I *D sg13g2_dfrbpq_1
*I *5528:L_HI O *D sg13g2_tiehi
*CAP
1 *5527:RESET_B 0.000240825
2 *5528:L_HI 0.000240825
3 *5078:A1 *5527:RESET_B 0
4 *5527:D *5527:RESET_B 0
5 *646:58 *5527:RESET_B 0
*RES
1 *5528:L_HI *5527:RESET_B 42.6162 
*END

*D_NET *771 0.000390473
*CONN
*I *5669:RESET_B I *D sg13g2_dfrbpq_1
*I *5670:L_HI O *D sg13g2_tiehi
*CAP
1 *5669:RESET_B 0.000195236
2 *5670:L_HI 0.000195236
3 *5312:B *5669:RESET_B 0
*RES
1 *5670:L_HI *5669:RESET_B 42.1836 
*END

*D_NET *772 0.000454795
*CONN
*I *5525:RESET_B I *D sg13g2_dfrbpq_1
*I *5526:L_HI O *D sg13g2_tiehi
*CAP
1 *5525:RESET_B 0.000227397
2 *5526:L_HI 0.000227397
3 *5525:D *5525:RESET_B 0
4 *662:25 *5525:RESET_B 0
*RES
1 *5526:L_HI *5525:RESET_B 42.4308 
*END

*D_NET *773 0.000508765
*CONN
*I *5795:RESET_B I *D sg13g2_dfrbpq_1
*I *5796:L_HI O *D sg13g2_tiehi
*CAP
1 *5795:RESET_B 0.000254383
2 *5796:L_HI 0.000254383
3 *625:42 *5795:RESET_B 0
4 *696:8 *5795:RESET_B 0
*RES
1 *5796:L_HI *5795:RESET_B 42.6162 
*END

*D_NET *774 0.000633165
*CONN
*I *5523:RESET_B I *D sg13g2_dfrbpq_1
*I *5524:L_HI O *D sg13g2_tiehi
*CAP
1 *5523:RESET_B 0.000195492
2 *5524:L_HI 0.000195492
3 *5072:A1 *5523:RESET_B 0
4 *5072:A2 *5523:RESET_B 0
5 *5073:B1 *5523:RESET_B 0
6 *5523:D *5523:RESET_B 0.000242181
7 *656:46 *5523:RESET_B 0
*RES
1 *5524:L_HI *5523:RESET_B 42.1836 
*END

*D_NET *775 0.000677267
*CONN
*I *5667:RESET_B I *D sg13g2_dfrbpq_1
*I *5668:L_HI O *D sg13g2_tiehi
*CAP
1 *5667:RESET_B 0.000338634
2 *5668:L_HI 0.000338634
3 *5667:RESET_B *5667:D 0
4 *5667:RESET_B *6020:A 0
5 *683:52 *5667:RESET_B 0
*RES
1 *5668:L_HI *5667:RESET_B 43.3578 
*END

*D_NET *776 0.00257399
*CONN
*I *5095:A2 I *D sg13g2_o21ai_1
*I *6046:A I *D sg13g2_buf_1
*I *5545:Q O *D sg13g2_dfrbpq_1
*CAP
1 *5095:A2 5.63964e-05
2 *6046:A 0.000320882
3 *5545:Q 0.000902032
4 *776:32 0.000413639
5 *776:8 0.000865672
6 *5095:A2 *5095:A1 0
7 *776:32 *1028:58 0
8 *5095:B1 *5095:A2 1.53666e-05
9 *5096:B1 *776:32 0
10 *252:12 *776:8 0
11 *709:45 *776:32 0
*RES
1 *5545:Q *776:8 46.5302 
2 *776:8 *6046:A 43.5638 
3 *5545:Q *776:32 43.9964 
4 *776:32 *5095:A2 40.5356 
*END

*D_NET *777 0.000644215
*CONN
*I *5521:RESET_B I *D sg13g2_dfrbpq_1
*I *5522:L_HI O *D sg13g2_tiehi
*CAP
1 *5521:RESET_B 0.000322108
2 *5522:L_HI 0.000322108
3 *5521:RESET_B *1024:12 0
4 *5070:B1 *5521:RESET_B 0
5 *5521:CLK *5521:RESET_B 0
6 *656:55 *5521:RESET_B 0
*RES
1 *5522:L_HI *5521:RESET_B 43.3578 
*END

*D_NET *778 0.000563774
*CONN
*I *5741:RESET_B I *D sg13g2_dfrbpq_1
*I *5742:L_HI O *D sg13g2_tiehi
*CAP
1 *5741:RESET_B 0.000281887
2 *5742:L_HI 0.000281887
3 *5741:RESET_B *1075:24 0
4 *5389:A *5741:RESET_B 0
5 *5741:CLK *5741:RESET_B 0
6 *211:10 *5741:RESET_B 0
*RES
1 *5742:L_HI *5741:RESET_B 43.1106 
*END

*D_NET *779 0.000703481
*CONN
*I *5519:RESET_B I *D sg13g2_dfrbpq_1
*I *5520:L_HI O *D sg13g2_tiehi
*CAP
1 *5519:RESET_B 0.00035174
2 *5520:L_HI 0.00035174
3 *5519:RESET_B *6101:A 0
4 *5068:A *5519:RESET_B 0
5 *709:10 *5519:RESET_B 0
6 *709:24 *5519:RESET_B 0
*RES
1 *5520:L_HI *5519:RESET_B 43.4608 
*END

*D_NET *780 0.00042213
*CONN
*I *5665:RESET_B I *D sg13g2_dfrbpq_1
*I *5666:L_HI O *D sg13g2_tiehi
*CAP
1 *5665:RESET_B 0.000211065
2 *5666:L_HI 0.000211065
*RES
1 *5666:L_HI *5665:RESET_B 42.1836 
*END

*D_NET *781 0.000399868
*CONN
*I *5517:RESET_B I *D sg13g2_dfrbpq_1
*I *5518:L_HI O *D sg13g2_tiehi
*CAP
1 *5517:RESET_B 0.000199934
2 *5518:L_HI 0.000199934
3 *5517:D *5517:RESET_B 0
*RES
1 *5518:L_HI *5517:RESET_B 42.3278 
*END

*D_NET *782 0.000464925
*CONN
*I *5777:RESET_B I *D sg13g2_dfrbpq_1
*I *5778:L_HI O *D sg13g2_tiehi
*CAP
1 *5777:RESET_B 0.000232463
2 *5778:L_HI 0.000232463
3 *69:39 *5777:RESET_B 0
4 *714:27 *5777:RESET_B 0
*RES
1 *5778:L_HI *5777:RESET_B 42.6162 
*END

*D_NET *783 0.000981719
*CONN
*I *5515:RESET_B I *D sg13g2_dfrbpq_1
*I *5516:L_HI O *D sg13g2_tiehi
*CAP
1 *5515:RESET_B 0.00018286
2 *5516:L_HI 0.000284128
3 *783:8 0.000466988
4 *5895:A *5515:RESET_B 4.77425e-05
5 *320:8 *783:8 0
6 *658:16 *783:8 0
7 *706:64 *5515:RESET_B 0
*RES
1 *5516:L_HI *783:8 43.5638 
2 *783:8 *5515:RESET_B 41.8334 
*END

*D_NET *784 0.000462285
*CONN
*I *5663:RESET_B I *D sg13g2_dfrbpq_1
*I *5664:L_HI O *D sg13g2_tiehi
*CAP
1 *5663:RESET_B 0.000231142
2 *5664:L_HI 0.000231142
3 *5663:RESET_B *5663:D 0
4 *623:27 *5663:RESET_B 0
5 *623:31 *5663:RESET_B 0
*RES
1 *5664:L_HI *5663:RESET_B 42.678 
*END

*D_NET *785 0.000458973
*CONN
*I *5513:RESET_B I *D sg13g2_dfrbpq_1
*I *5514:L_HI O *D sg13g2_tiehi
*CAP
1 *5513:RESET_B 0.000229487
2 *5514:L_HI 0.000229487
3 *637:48 *5513:RESET_B 0
*RES
1 *5514:L_HI *5513:RESET_B 42.6162 
*END

*D_NET *786 0.000506043
*CONN
*I *5739:RESET_B I *D sg13g2_dfrbpq_1
*I *5740:L_HI O *D sg13g2_tiehi
*CAP
1 *5739:RESET_B 0.000253022
2 *5740:L_HI 0.000253022
3 *5739:D *5739:RESET_B 0
*RES
1 *5740:L_HI *5739:RESET_B 42.6162 
*END

*D_NET *787 0.00202294
*CONN
*I *5097:A2 I *D sg13g2_o21ai_1
*I *6047:A I *D sg13g2_buf_1
*I *5547:Q O *D sg13g2_dfrbpq_1
*CAP
1 *5097:A2 0.000168954
2 *6047:A 0.000387784
3 *5547:Q 0.000439278
4 *787:8 0.000996017
5 *5097:A2 *5097:A1 1.54556e-05
6 boot_addr[29] *6047:A 0
7 *5097:B1 *5097:A2 1.54556e-05
8 *5098:B1 *5097:A2 0
9 *5098:B1 *6047:A 0
10 *5547:RESET_B *6047:A 0
11 *5547:D *6047:A 0
12 *252:12 *787:8 0
*RES
1 *5547:Q *787:8 45.2942 
2 *787:8 *6047:A 44.532 
3 *787:8 *5097:A2 41.6171 
*END

*D_NET *788 0.000394081
*CONN
*I *5511:RESET_B I *D sg13g2_dfrbpq_1
*I *5512:L_HI O *D sg13g2_tiehi
*CAP
1 *5511:RESET_B 0.000197041
2 *5512:L_HI 0.000197041
3 *5511:RESET_B *6055:A 0
*RES
1 *5512:L_HI *5511:RESET_B 42.1836 
*END

*D_NET *789 0.000509127
*CONN
*I *5661:RESET_B I *D sg13g2_dfrbpq_1
*I *5662:L_HI O *D sg13g2_tiehi
*CAP
1 *5661:RESET_B 0.000254564
2 *5662:L_HI 0.000254564
3 *5661:RESET_B *5322:B 0
4 *5323:A2 *5661:RESET_B 0
5 *5324:B *5661:RESET_B 0
6 *5661:D *5661:RESET_B 0
*RES
1 *5662:L_HI *5661:RESET_B 42.6162 
*END

*D_NET *790 0.000518078
*CONN
*I *5509:RESET_B I *D sg13g2_dfrbpq_1
*I *5510:L_HI O *D sg13g2_tiehi
*CAP
1 *5509:RESET_B 0.000259039
2 *5510:L_HI 0.000259039
3 *5509:RESET_B *6055:A 0
4 *658:86 *5509:RESET_B 0
*RES
1 *5510:L_HI *5509:RESET_B 42.1836 
*END

*D_NET *791 0.000394059
*CONN
*I *5803:RESET_B I *D sg13g2_dfrbpq_1
*I *5804:L_HI O *D sg13g2_tiehi
*CAP
1 *5803:RESET_B 0.000197029
2 *5804:L_HI 0.000197029
3 *5803:RESET_B *5256:A 0
4 *5803:D *5803:RESET_B 0
5 *694:33 *5803:RESET_B 0
*RES
1 *5804:L_HI *5803:RESET_B 42.178 
*END

*D_NET *792 0.000649418
*CONN
*I *5507:RESET_B I *D sg13g2_dfrbpq_1
*I *5508:L_HI O *D sg13g2_tiehi
*CAP
1 *5507:RESET_B 0.000252133
2 *5508:L_HI 0.000252133
3 *5049:B1 *5507:RESET_B 0
4 *261:31 *5507:RESET_B 0.000145151
5 *646:52 *5507:RESET_B 0
6 *667:54 *5507:RESET_B 0
*RES
1 *5508:L_HI *5507:RESET_B 42.6162 
*END

*D_NET *793 0.00081422
*CONN
*I *5659:RESET_B I *D sg13g2_dfrbpq_1
*I *5660:L_HI O *D sg13g2_tiehi
*CAP
1 *5659:RESET_B 0.000258684
2 *5660:L_HI 0.000258684
3 *5659:RESET_B *5295:B 0
4 *5296:A1 *5659:RESET_B 0.000296852
5 *605:296 *5659:RESET_B 0
*RES
1 *5660:L_HI *5659:RESET_B 42.6162 
*END

*D_NET *794 0.000763632
*CONN
*I *5505:RESET_B I *D sg13g2_dfrbpq_1
*I *5506:L_HI O *D sg13g2_tiehi
*CAP
1 *5505:RESET_B 0.000152342
2 *5506:L_HI 6.37844e-05
3 *794:8 0.000216126
4 *5493:CLK *5505:RESET_B 0
5 *718:14 *5505:RESET_B 0.000154216
6 *719:73 *5505:RESET_B 0.000177164
7 *719:73 *794:8 0
*RES
1 *5506:L_HI *794:8 40.5974 
2 *794:8 *5505:RESET_B 41.8334 
*END

*D_NET *795 0.000514084
*CONN
*I *5737:RESET_B I *D sg13g2_dfrbpq_1
*I *5738:L_HI O *D sg13g2_tiehi
*CAP
1 *5737:RESET_B 0.000257042
2 *5738:L_HI 0.000257042
3 *5737:RESET_B *5384:A1 0
4 *5385:B *5737:RESET_B 0
5 *5737:CLK *5737:RESET_B 0
*RES
1 *5738:L_HI *5737:RESET_B 42.8634 
*END

*D_NET *796 0.000655317
*CONN
*I *5503:RESET_B I *D sg13g2_dfrbpq_1
*I *5504:L_HI O *D sg13g2_tiehi
*CAP
1 *5503:RESET_B 0.000190614
2 *5504:L_HI 0.000190614
3 *5503:RESET_B *6059:A 0
4 *667:42 *5503:RESET_B 0.000274088
*RES
1 *5504:L_HI *5503:RESET_B 42.1836 
*END

*D_NET *797 0.000840318
*CONN
*I *5657:RESET_B I *D sg13g2_dfrbpq_1
*I *5658:L_HI O *D sg13g2_tiehi
*CAP
1 *5657:RESET_B 0.000250394
2 *5658:L_HI 0.000250394
3 *5657:RESET_B *5316:A 0.00033953
4 *5657:D *5657:RESET_B 0
5 *5922:A *5657:RESET_B 0
6 *484:12 *5657:RESET_B 0
*RES
1 *5658:L_HI *5657:RESET_B 42.8634 
*END

*D_NET *798 0.002209
*CONN
*I *6048:A I *D sg13g2_buf_1
*I *5027:A2 I *D sg13g2_o21ai_1
*I *5493:Q O *D sg13g2_dfrbpq_1
*CAP
1 *6048:A 0.000235082
2 *5027:A2 0
3 *5493:Q 0.00027675
4 *798:18 0.000284817
5 *798:10 0.000519899
6 *798:8 0.00027675
7 *6048:A *864:36 0
8 boot_addr[6] *6048:A 0
9 spi_cs_n *6048:A 0
10 *5493:CLK *798:18 0.000274583
11 *5947:A *6048:A 0
12 *5947:A *798:18 0
13 *72:8 *798:8 0
14 *716:10 *798:18 0
15 *716:18 *798:18 0.000341119
*RES
1 *5493:Q *798:8 43.3166 
2 *798:8 *798:10 20 
3 *798:10 *798:18 43.6359 
4 *798:18 *5027:A2 20 
5 *798:10 *6048:A 22.1836 
*END

*D_NET *799 0.00135502
*CONN
*I *5501:RESET_B I *D sg13g2_dfrbpq_1
*I *5502:L_HI O *D sg13g2_tiehi
*CAP
1 *5501:RESET_B 0.000183753
2 *5502:L_HI 0.000356805
3 *799:8 0.000540558
4 *5501:RESET_B *5045:A 0
5 *665:66 *5501:RESET_B 0.000273902
6 *666:30 *5501:RESET_B 0
7 *719:25 *799:8 0
*RES
1 *5502:L_HI *799:8 43.3166 
2 *799:8 *5501:RESET_B 41.8334 
*END

*D_NET *800 0.00105305
*CONN
*I *5775:RESET_B I *D sg13g2_dfrbpq_1
*I *5776:L_HI O *D sg13g2_tiehi
*CAP
1 *5775:RESET_B 0.000486338
2 *5776:L_HI 0.000486338
3 *5775:RESET_B *5437:C 8.03692e-05
4 *5775:RESET_B *1009:24 0
5 *5437:B *5775:RESET_B 0
6 *552:12 *5775:RESET_B 0
*RES
1 *5776:L_HI *5775:RESET_B 44.7792 
*END

*D_NET *801 0.000464688
*CONN
*I *5499:RESET_B I *D sg13g2_dfrbpq_1
*I *5500:L_HI O *D sg13g2_tiehi
*CAP
1 *5499:RESET_B 0.000232344
2 *5500:L_HI 0.000232344
3 *5038:A *5499:RESET_B 0
4 *5499:D *5499:RESET_B 0
*RES
1 *5500:L_HI *5499:RESET_B 42.6162 
*END

*D_NET *802 0.000400696
*CONN
*I *5655:RESET_B I *D sg13g2_dfrbpq_1
*I *5656:L_HI O *D sg13g2_tiehi
*CAP
1 *5655:RESET_B 0.000200348
2 *5656:L_HI 0.000200348
3 *610:8 *5655:RESET_B 0
4 *703:48 *5655:RESET_B 0
*RES
1 *5656:L_HI *5655:RESET_B 42.1836 
*END

*D_NET *803 0.00101536
*CONN
*I *5497:RESET_B I *D sg13g2_dfrbpq_1
*I *5498:L_HI O *D sg13g2_tiehi
*CAP
1 *5497:RESET_B 0.000219501
2 *5498:L_HI 0.000288181
3 *803:8 0.000507681
4 *5940:A *5497:RESET_B 0
5 *89:10 *803:8 0
6 *637:31 *803:8 0
*RES
1 *5498:L_HI *803:8 43.5638 
2 *803:8 *5497:RESET_B 42.266 
*END

*D_NET *804 0.000469783
*CONN
*I *5735:RESET_B I *D sg13g2_dfrbpq_1
*I *5736:L_HI O *D sg13g2_tiehi
*CAP
1 *5735:RESET_B 0.000234891
2 *5736:L_HI 0.000234891
3 *5735:RESET_B *5382:A0 0
4 *5735:RESET_B *5382:A1 0
5 *5735:CLK *5735:RESET_B 0
*RES
1 *5736:L_HI *5735:RESET_B 42.6162 
*END

*D_NET *805 0.000582914
*CONN
*I *5495:RESET_B I *D sg13g2_dfrbpq_1
*I *5496:L_HI O *D sg13g2_tiehi
*CAP
1 *5495:RESET_B 0.000291457
2 *5496:L_HI 0.000291457
3 *5495:RESET_B *5031:A2 0
4 *5031:B1 *5495:RESET_B 0
5 *5032:B *5495:RESET_B 0
6 *5495:D *5495:RESET_B 0
7 *707:89 *5495:RESET_B 0
*RES
1 *5496:L_HI *5495:RESET_B 43.3578 
*END

*D_NET *806 0.000541006
*CONN
*I *5653:RESET_B I *D sg13g2_dfrbpq_1
*I *5654:L_HI O *D sg13g2_tiehi
*CAP
1 *5653:RESET_B 0.000270503
2 *5654:L_HI 0.000270503
3 *5287:A1 *5653:RESET_B 0
4 *5653:D *5653:RESET_B 0
5 *689:61 *5653:RESET_B 0
6 *702:62 *5653:RESET_B 0
*RES
1 *5654:L_HI *5653:RESET_B 42.3434 
*END

*D_NET *807 0.000399874
*CONN
*I *5493:RESET_B I *D sg13g2_dfrbpq_1
*I *5494:L_HI O *D sg13g2_tiehi
*CAP
1 *5493:RESET_B 0.000199937
2 *5494:L_HI 0.000199937
3 *5947:A *5493:RESET_B 0
4 *6037:A *5493:RESET_B 0
5 *716:10 *5493:RESET_B 0
*RES
1 *5494:L_HI *5493:RESET_B 42.1836 
*END

*D_NET *808 0.000407428
*CONN
*I *5793:RESET_B I *D sg13g2_dfrbpq_1
*I *5794:L_HI O *D sg13g2_tiehi
*CAP
1 *5793:RESET_B 0.000203714
2 *5794:L_HI 0.000203714
3 *79:8 *5793:RESET_B 0
*RES
1 *5794:L_HI *5793:RESET_B 42.1836 
*END

*D_NET *809 0.00288083
*CONN
*I *6049:A I *D sg13g2_buf_1
*I *5100:A0 I *D sg13g2_mux2_1
*I *5549:Q O *D sg13g2_dfrbpq_1
*CAP
1 *6049:A 0
2 *5100:A0 3.04198e-05
3 *5549:Q 0.000259534
4 *809:25 0.000229441
5 *809:12 0.000385735
6 *809:8 0.000385408
7 *5100:A0 *1109:14 4.77425e-05
8 *809:8 *1034:69 0
9 *809:8 *1109:14 0.00093235
10 *809:12 *1034:65 0
11 *809:12 *1109:14 0.000194368
12 *809:25 *5097:A1 0.000287672
13 *809:25 *1034:69 0.00012816
14 *115:8 *809:25 0
*RES
1 *5549:Q *809:8 44.3054 
2 *809:8 *809:12 21.4008 
3 *809:12 *5100:A0 20.3193 
4 *809:12 *809:25 43.3166 
5 *809:25 *6049:A 20 
*END

*D_NET *810 0.000517553
*CONN
*I *5651:RESET_B I *D sg13g2_dfrbpq_1
*I *5652:L_HI O *D sg13g2_tiehi
*CAP
1 *5651:RESET_B 0.000258777
2 *5652:L_HI 0.000258777
3 *5651:RESET_B *1030:28 0
4 *5285:A *5651:RESET_B 0
5 *5285:B *5651:RESET_B 0
6 *5285:C *5651:RESET_B 0
7 *647:12 *5651:RESET_B 0
*RES
1 *5652:L_HI *5651:RESET_B 42.7192 
*END

*D_NET *811 0.000488703
*CONN
*I *5733:RESET_B I *D sg13g2_dfrbpq_1
*I *5734:L_HI O *D sg13g2_tiehi
*CAP
1 *5733:RESET_B 0.000244352
2 *5734:L_HI 0.000244352
3 *5733:RESET_B *5380:S 0
4 *5733:RESET_B *978:27 0
5 *5733:RESET_B *1031:20 0
6 *5733:CLK *5733:RESET_B 0
*RES
1 *5734:L_HI *5733:RESET_B 42.1586 
*END

*D_NET *812 0.00059756
*CONN
*I *5649:RESET_B I *D sg13g2_dfrbpq_1
*I *5650:L_HI O *D sg13g2_tiehi
*CAP
1 *5649:RESET_B 0.00029878
2 *5650:L_HI 0.00029878
3 *5649:RESET_B *1085:10 0
4 *5282:C *5649:RESET_B 0
5 *5633:CLK *5649:RESET_B 0
*RES
1 *5650:L_HI *5649:RESET_B 43.3578 
*END

*D_NET *813 0.000473177
*CONN
*I *5773:RESET_B I *D sg13g2_dfrbpq_1
*I *5774:L_HI O *D sg13g2_tiehi
*CAP
1 *5773:RESET_B 0.000236588
2 *5774:L_HI 0.000236588
3 *5773:D *5773:RESET_B 0
4 *720:12 *5773:RESET_B 0
*RES
1 *5774:L_HI *5773:RESET_B 41.6042 
*END

*D_NET *814 0.000806614
*CONN
*I *5647:RESET_B I *D sg13g2_dfrbpq_1
*I *5648:L_HI O *D sg13g2_tiehi
*CAP
1 *5647:RESET_B 0.000233597
2 *5648:L_HI 0.000233597
3 *5647:RESET_B *1030:10 0
4 *5647:RESET_B *1030:16 0.00033942
5 *5647:RESET_B *1031:14 0
*RES
1 *5648:L_HI *5647:RESET_B 42.6162 
*END

*D_NET *815 0.000436549
*CONN
*I *5731:RESET_B I *D sg13g2_dfrbpq_1
*I *5732:L_HI O *D sg13g2_tiehi
*CAP
1 *5731:RESET_B 0.000218274
2 *5732:L_HI 0.000218274
3 *5379:B *5731:RESET_B 0
4 *624:10 *5731:RESET_B 0
*RES
1 *5732:L_HI *5731:RESET_B 42.4308 
*END

*D_NET *816 0.000429634
*CONN
*I *5645:RESET_B I *D sg13g2_dfrbpq_1
*I *5646:L_HI O *D sg13g2_tiehi
*CAP
1 *5645:RESET_B 0.000214817
2 *5646:L_HI 0.000214817
3 *5275:A2 *5645:RESET_B 0
4 *5276:B *5645:RESET_B 0
5 *5276:C *5645:RESET_B 0
6 *670:31 *5645:RESET_B 0
*RES
1 *5646:L_HI *5645:RESET_B 42.1836 
*END

*D_NET *817 0.000740223
*CONN
*I *5807:RESET_B I *D sg13g2_dfrbpq_1
*I *5808:L_HI O *D sg13g2_tiehi
*CAP
1 *5807:RESET_B 0.000370111
2 *5808:L_HI 0.000370111
3 *5879:A *5807:RESET_B 0
4 *615:14 *5807:RESET_B 0
5 *650:40 *5807:RESET_B 0
6 *714:95 *5807:RESET_B 0
*RES
1 *5808:L_HI *5807:RESET_B 43.914 
*END

*D_NET *818 0.000639892
*CONN
*I *5643:RESET_B I *D sg13g2_dfrbpq_1
*I *5644:L_HI O *D sg13g2_tiehi
*CAP
1 *5643:RESET_B 0.000187211
2 *5644:L_HI 0.000187211
3 *5643:RESET_B *1032:23 0.000265469
*RES
1 *5644:L_HI *5643:RESET_B 42.2866 
*END

*D_NET *819 0.000517975
*CONN
*I *5729:RESET_B I *D sg13g2_dfrbpq_1
*I *5730:L_HI O *D sg13g2_tiehi
*CAP
1 *5729:RESET_B 0.000258988
2 *5730:L_HI 0.000258988
3 *5729:D *5729:RESET_B 0
4 *5729:CLK *5729:RESET_B 0
5 *617:26 *5729:RESET_B 0
*RES
1 *5730:L_HI *5729:RESET_B 42.221 
*END

*D_NET *820 0.00363732
*CONN
*I *5102:A2 I *D sg13g2_o21ai_1
*I *6050:A I *D sg13g2_buf_1
*I *5551:Q O *D sg13g2_dfrbpq_1
*CAP
1 *5102:A2 0.000458964
2 *6050:A 0
3 *5551:Q 0
4 *820:14 0.000972705
5 *820:6 0.00143167
6 *5102:A2 *5102:A1 1.53666e-05
7 *820:14 *5079:A1 0
8 boot_addr[31] *820:14 0.000371644
9 *5072:B1 *820:14 0
10 *5079:A2 *820:14 0
11 *5080:B1 *820:14 0
12 *5102:B1 *5102:A2 7.99179e-05
13 *5103:B1 *5102:A2 0
14 *6038:A *820:14 0.000307051
15 *260:14 *820:14 0
16 *705:45 *820:14 0
17 *705:53 *820:14 0
18 *709:41 *5102:A2 0
*RES
1 *5551:Q *820:6 40 
2 *820:6 *820:14 31.1858 
3 *820:14 *6050:A 20 
4 *820:6 *5102:A2 44.6865 
*END

*D_NET *821 0.000861663
*CONN
*I *5641:RESET_B I *D sg13g2_dfrbpq_1
*I *5642:L_HI O *D sg13g2_tiehi
*CAP
1 *5641:RESET_B 0.000261462
2 *5642:L_HI 0.000261462
3 *5854:A *5641:RESET_B 0
4 *690:39 *5641:RESET_B 0.000338739
*RES
1 *5642:L_HI *5641:RESET_B 42.6162 
*END

*D_NET *822 0.000396044
*CONN
*I *5771:RESET_B I *D sg13g2_dfrbpq_1
*I *5772:L_HI O *D sg13g2_tiehi
*CAP
1 *5771:RESET_B 0.000198022
2 *5772:L_HI 0.000198022
3 *551:28 *5771:RESET_B 0
4 *651:14 *5771:RESET_B 0
5 *719:43 *5771:RESET_B 0
*RES
1 *5772:L_HI *5771:RESET_B 42.1836 
*END

*D_NET *823 0.000531304
*CONN
*I *5639:RESET_B I *D sg13g2_dfrbpq_1
*I *5640:L_HI O *D sg13g2_tiehi
*CAP
1 *5639:RESET_B 0.000265652
2 *5640:L_HI 0.000265652
3 *5639:RESET_B *1068:23 0
4 *5267:C *5639:RESET_B 0
*RES
1 *5640:L_HI *5639:RESET_B 42.1836 
*END

*D_NET *824 0.000429616
*CONN
*I *5727:RESET_B I *D sg13g2_dfrbpq_1
*I *5728:L_HI O *D sg13g2_tiehi
*CAP
1 *5727:RESET_B 0.000214808
2 *5728:L_HI 0.000214808
3 *5727:CLK *5727:RESET_B 0
4 *712:31 *5727:RESET_B 0
*RES
1 *5728:L_HI *5727:RESET_B 42.4308 
*END

*D_NET *825 0.000961828
*CONN
*I *5637:RESET_B I *D sg13g2_dfrbpq_1
*I *5638:L_HI O *D sg13g2_tiehi
*CAP
1 *5637:RESET_B 0.000480914
2 *5638:L_HI 0.000480914
3 *5336:S *5637:RESET_B 0
4 *5337:B *5637:RESET_B 0
5 *663:21 *5637:RESET_B 0
*RES
1 *5638:L_HI *5637:RESET_B 43.914 
*END

*D_NET *826 0.000789146
*CONN
*I *5791:RESET_B I *D sg13g2_dfrbpq_1
*I *5792:L_HI O *D sg13g2_tiehi
*CAP
1 *5791:RESET_B 0.000226119
2 *5792:L_HI 0.000226119
3 *5791:D *5791:RESET_B 0
4 *701:33 *5791:RESET_B 0.000336907
*RES
1 *5792:L_HI *5791:RESET_B 42.6162 
*END

*D_NET *827 0.000422426
*CONN
*I *5635:RESET_B I *D sg13g2_dfrbpq_1
*I *5636:L_HI O *D sg13g2_tiehi
*CAP
1 *5635:RESET_B 0.000203513
2 *5636:L_HI 0.000203513
3 *5635:D *5635:RESET_B 0
4 *5635:CLK *5635:RESET_B 0
5 *462:12 *5635:RESET_B 0
6 *683:24 *5635:RESET_B 0
7 *695:18 *5635:RESET_B 1.54008e-05
*RES
1 *5636:L_HI *5635:RESET_B 42.1836 
*END

*D_NET *828 0.000436532
*CONN
*I *5725:RESET_B I *D sg13g2_dfrbpq_1
*I *5726:L_HI O *D sg13g2_tiehi
*CAP
1 *5725:RESET_B 0.000218266
2 *5726:L_HI 0.000218266
3 *5725:CLK *5725:RESET_B 0
4 *619:14 *5725:RESET_B 0
*RES
1 *5726:L_HI *5725:RESET_B 42.4308 
*END

*D_NET *829 0.00115722
*CONN
*I *5633:RESET_B I *D sg13g2_dfrbpq_1
*I *5634:L_HI O *D sg13g2_tiehi
*CAP
1 *5633:RESET_B 0.000162937
2 *5634:L_HI 0.000278445
3 *829:8 0.000441382
4 *829:8 *1085:36 0
5 *5258:B *5633:RESET_B 0.000274452
*RES
1 *5634:L_HI *829:8 43.5638 
2 *829:8 *5633:RESET_B 41.8334 
*END

*D_NET *830 0.000689729
*CONN
*I *5769:RESET_B I *D sg13g2_dfrbpq_1
*I *5770:L_HI O *D sg13g2_tiehi
*CAP
1 *5769:RESET_B 0.000112657
2 *5770:L_HI 0.000232208
3 *830:10 0.000344864
4 *830:10 *1004:116 0
5 *5431:A2 *830:10 0
6 *5769:D *5769:RESET_B 0
7 *5769:CLK *5769:RESET_B 0
8 *557:18 *830:10 0
9 *561:8 *830:10 0
*RES
1 *5770:L_HI *830:10 42.5853 
2 *830:10 *5769:RESET_B 41.1845 
*END

*D_NET *831 0.00191566
*CONN
*I *6051:A I *D sg13g2_buf_1
*I *5031:A2 I *D sg13g2_o21ai_1
*I *5495:Q O *D sg13g2_dfrbpq_1
*CAP
1 *6051:A 0.000438971
2 *5031:A2 0.000503403
3 *5495:Q 0
4 *831:6 0.000942374
5 *5031:B1 *5031:A2 1.54556e-05
6 *5031:A1 *5031:A2 1.54556e-05
7 *5495:RESET_B *5031:A2 0
8 *646:64 *5031:A2 0
9 *646:64 *6051:A 0
10 *666:38 *6051:A 0
*RES
1 *5495:Q *831:6 40 
2 *831:6 *5031:A2 45.0882 
3 *831:6 *6051:A 44.4393 
*END

*D_NET *832 0.00105938
*CONN
*I *5631:RESET_B I *D sg13g2_dfrbpq_1
*I *5632:L_HI O *D sg13g2_tiehi
*CAP
1 *5631:RESET_B 0.000461734
2 *5632:L_HI 0.000461734
3 *5631:RESET_B *5989:A 0
4 *5850:A *5631:RESET_B 0
5 *458:16 *5631:RESET_B 0
6 *695:10 *5631:RESET_B 0.000135914
7 *695:18 *5631:RESET_B 0
*RES
1 *5632:L_HI *5631:RESET_B 44.8822 
*END

*D_NET *833 0.000765608
*CONN
*I *5723:RESET_B I *D sg13g2_dfrbpq_1
*I *5724:L_HI O *D sg13g2_tiehi
*CAP
1 *5723:RESET_B 0.000382804
2 *5724:L_HI 0.000382804
3 *5723:D *5723:RESET_B 0
4 *5868:A *5723:RESET_B 0
5 *641:10 *5723:RESET_B 0
6 *641:50 *5723:RESET_B 0
*RES
1 *5724:L_HI *5723:RESET_B 42.6204 
*END

*D_NET *834 0.000413428
*CONN
*I *5629:RESET_B I *D sg13g2_dfrbpq_1
*I *5630:L_HI O *D sg13g2_tiehi
*CAP
1 *5629:RESET_B 0.000206714
2 *5630:L_HI 0.000206714
3 *5629:RESET_B *1022:8 0
4 *5629:D *5629:RESET_B 0
*RES
1 *5630:L_HI *5629:RESET_B 40.7052 
*END

*D_NET *835 0.000497111
*CONN
*I *5801:RESET_B I *D sg13g2_dfrbpq_1
*I *5802:L_HI O *D sg13g2_tiehi
*CAP
1 *5801:RESET_B 0.000248555
2 *5802:L_HI 0.000248555
3 *5479:A *5801:RESET_B 0
4 *5801:CLK *5801:RESET_B 0
5 *694:10 *5801:RESET_B 0
*RES
1 *5802:L_HI *5801:RESET_B 41.4194 
*END

*D_NET *836 0.000423375
*CONN
*I *5627:RESET_B I *D sg13g2_dfrbpq_1
*I *5628:L_HI O *D sg13g2_tiehi
*CAP
1 *5627:RESET_B 0.000211688
2 *5628:L_HI 0.000211688
3 *5627:RESET_B *1022:87 0
4 *670:6 *5627:RESET_B 0
5 *670:10 *5627:RESET_B 0
*RES
1 *5628:L_HI *5627:RESET_B 42.1836 
*END

*D_NET *837 0.000419423
*CONN
*I *5721:RESET_B I *D sg13g2_dfrbpq_1
*I *5722:L_HI O *D sg13g2_tiehi
*CAP
1 *5721:RESET_B 0.000209711
2 *5722:L_HI 0.000209711
3 *5385:B *5721:RESET_B 0
4 *5721:D *5721:RESET_B 0
5 *5721:CLK *5721:RESET_B 0
*RES
1 *5722:L_HI *5721:RESET_B 42.4308 
*END

*D_NET *838 0.000419766
*CONN
*I *5625:RESET_B I *D sg13g2_dfrbpq_1
*I *5626:L_HI O *D sg13g2_tiehi
*CAP
1 *5625:RESET_B 0.000209883
2 *5626:L_HI 0.000209883
3 *5625:RESET_B *5244:B 0
4 *5968:A *5625:RESET_B 0
*RES
1 *5626:L_HI *5625:RESET_B 41.8334 
*END

*D_NET *839 0.000485396
*CONN
*I *5767:RESET_B I *D sg13g2_dfrbpq_1
*I *5768:L_HI O *D sg13g2_tiehi
*CAP
1 *5767:RESET_B 0.000242698
2 *5768:L_HI 0.000242698
3 *5767:D *5767:RESET_B 0
4 *720:12 *5767:RESET_B 0
*RES
1 *5768:L_HI *5767:RESET_B 41.6042 
*END

*D_NET *840 0.000434807
*CONN
*I *5623:RESET_B I *D sg13g2_dfrbpq_1
*I *5624:L_HI O *D sg13g2_tiehi
*CAP
1 *5623:RESET_B 0.000217403
2 *5624:L_HI 0.000217403
*RES
1 *5624:L_HI *5623:RESET_B 42.4308 
*END

*D_NET *841 0.00108988
*CONN
*I *5719:RESET_B I *D sg13g2_dfrbpq_1
*I *5720:L_HI O *D sg13g2_tiehi
*CAP
1 *5719:RESET_B 0.000118415
2 *5720:L_HI 0.000227546
3 *841:10 0.000345961
4 *5719:RESET_B *995:23 0
5 *841:10 *5366:A1 0
6 *841:10 *1030:16 0
7 *5383:B *841:10 0.000397963
8 *5719:D *5719:RESET_B 0
9 *5719:CLK *841:10 0
*RES
1 *5720:L_HI *841:10 43.0179 
2 *841:10 *5719:RESET_B 41.1845 
*END

*D_NET *842 0.00169337
*CONN
*I *6052:A I *D sg13g2_buf_1
*I *5034:A2 I *D sg13g2_o21ai_1
*I *5497:Q O *D sg13g2_dfrbpq_1
*CAP
1 *6052:A 0.000327352
2 *5034:A2 0.000176307
3 *5497:Q 0.000335297
4 *842:26 0.000469637
5 *842:8 0.000369319
6 *6052:A *5055:A2 0
7 *6052:A *6066:A 0
8 *5034:B1 *5034:A2 1.54556e-05
9 *5034:B1 *842:8 0
10 *5035:A *5034:A2 0
11 *5035:B *5034:A2 0
12 *5940:A *5034:A2 0
13 *637:31 *842:8 0
14 *637:42 *6052:A 0
15 *637:42 *842:8 0
16 *637:42 *842:26 0
17 *708:6 *5034:A2 0
*RES
1 *5497:Q *842:8 42.0806 
2 *842:8 *5034:A2 41.6171 
3 *5497:Q *842:26 41.8334 
4 *842:26 *6052:A 42.7051 
*END

*D_NET *843 0.00045224
*CONN
*I *5621:RESET_B I *D sg13g2_dfrbpq_1
*I *5622:L_HI O *D sg13g2_tiehi
*CAP
1 *5621:RESET_B 0.00022612
2 *5622:L_HI 0.00022612
*RES
1 *5622:L_HI *5621:RESET_B 42.1836 
*END

*D_NET *844 0.00104042
*CONN
*I *5789:RESET_B I *D sg13g2_dfrbpq_1
*I *5790:L_HI O *D sg13g2_tiehi
*CAP
1 *5789:RESET_B 0
2 *5790:L_HI 0.00052021
3 *844:10 0.00052021
4 *844:10 *1001:6 0
5 *844:10 *1001:12 0
6 *844:10 *1001:25 0
7 *6041:A *844:10 0
*RES
1 *5790:L_HI *844:10 45.8298 
2 *844:10 *5789:RESET_B 40 
*END

*D_NET *845 0.00073951
*CONN
*I *5619:RESET_B I *D sg13g2_dfrbpq_1
*I *5620:L_HI O *D sg13g2_tiehi
*CAP
1 *5619:RESET_B 0.000237133
2 *5620:L_HI 0.000237133
3 *5619:RESET_B *5235:A1 0
4 *5619:RESET_B *1023:39 0
5 *5619:CLK *5619:RESET_B 0
6 *638:51 *5619:RESET_B 0.000265245
*RES
1 *5620:L_HI *5619:RESET_B 42.7192 
*END

*D_NET *846 0.00134018
*CONN
*I *5717:RESET_B I *D sg13g2_dfrbpq_1
*I *5718:L_HI O *D sg13g2_tiehi
*CAP
1 *5717:RESET_B 0.000232774
2 *5718:L_HI 0.000155551
3 *846:8 0.000388325
4 *846:8 *1031:31 0.000563531
5 *5717:D *5717:RESET_B 0
6 *644:24 *5717:RESET_B 0
*RES
1 *5718:L_HI *846:8 42.575 
2 *846:8 *5717:RESET_B 42.266 
*END

*D_NET *847 0.000635825
*CONN
*I *5617:RESET_B I *D sg13g2_dfrbpq_1
*I *5618:L_HI O *D sg13g2_tiehi
*CAP
1 *5617:RESET_B 0.000180528
2 *5618:L_HI 0.000180528
3 *5617:RESET_B *5231:B 0.000274769
4 *5617:CLK *5617:RESET_B 0
*RES
1 *5618:L_HI *5617:RESET_B 42.1836 
*END

*D_NET *848 0.000466504
*CONN
*I *5765:RESET_B I *D sg13g2_dfrbpq_1
*I *5766:L_HI O *D sg13g2_tiehi
*CAP
1 *5765:RESET_B 0.000233252
2 *5766:L_HI 0.000233252
3 *5423:D *5765:RESET_B 0
4 *633:45 *5765:RESET_B 0
*RES
1 *5766:L_HI *5765:RESET_B 42.6162 
*END

*D_NET *849 0.000550873
*CONN
*I *5615:RESET_B I *D sg13g2_dfrbpq_1
*I *5616:L_HI O *D sg13g2_tiehi
*CAP
1 *5615:RESET_B 0.000275436
2 *5616:L_HI 0.000275436
3 *5189:A *5615:RESET_B 0
4 *387:14 *5615:RESET_B 0
*RES
1 *5616:L_HI *5615:RESET_B 42.7192 
*END

*D_NET *850 0.000564614
*CONN
*I *5715:RESET_B I *D sg13g2_dfrbpq_1
*I *5716:L_HI O *D sg13g2_tiehi
*CAP
1 *5715:RESET_B 0.000282307
2 *5716:L_HI 0.000282307
3 *5715:RESET_B *1022:66 0
*RES
1 *5716:L_HI *5715:RESET_B 42.8634 
*END

*D_NET *851 0.000500513
*CONN
*I *5613:RESET_B I *D sg13g2_dfrbpq_1
*I *5614:L_HI O *D sg13g2_tiehi
*CAP
1 *5613:RESET_B 0.000250256
2 *5614:L_HI 0.000250256
3 *5613:D *5613:RESET_B 0
4 *388:8 *5613:RESET_B 0
*RES
1 *5614:L_HI *5613:RESET_B 42.1836 
*END

*D_NET *852 0.000651991
*CONN
*I *5829:RESET_B I *D sg13g2_dfrbpq_1
*I *5830:L_HI O *D sg13g2_tiehi
*CAP
1 *5829:RESET_B 0.000188739
2 *5830:L_HI 0.000188739
3 *5829:RESET_B *1046:8 0
4 *79:8 *5829:RESET_B 0.000274512
*RES
1 *5830:L_HI *5829:RESET_B 42.1836 
*END

*D_NET *853 0.00195922
*CONN
*I *6053:A I *D sg13g2_buf_1
*I *5037:A2 I *D sg13g2_o21ai_1
*I *5499:Q O *D sg13g2_dfrbpq_1
*CAP
1 *6053:A 0.000167426
2 *5037:A2 0.000189691
3 *5499:Q 0.00057475
4 *853:28 0.000458209
5 *853:8 0.000473658
6 *643:42 *5037:A2 0
7 *707:74 *5037:A2 1.54008e-05
8 *707:89 *5037:A2 8.00842e-05
*RES
1 *5499:Q *853:8 43.3166 
2 *853:8 *5037:A2 41.6171 
3 *5499:Q *853:28 43.2033 
4 *853:28 *6053:A 41.8334 
*END

*D_NET *854 0.000406282
*CONN
*I *5611:RESET_B I *D sg13g2_dfrbpq_1
*I *5612:L_HI O *D sg13g2_tiehi
*CAP
1 *5611:RESET_B 0.000203141
2 *5612:L_HI 0.000203141
3 *5611:D *5611:RESET_B 0
*RES
1 *5612:L_HI *5611:RESET_B 42.1836 
*END

*D_NET *855 0.000444098
*CONN
*I *5713:RESET_B I *D sg13g2_dfrbpq_1
*I *5714:L_HI O *D sg13g2_tiehi
*CAP
1 *5713:RESET_B 0.000222049
2 *5714:L_HI 0.000222049
3 *617:26 *5713:RESET_B 0
4 *624:29 *5713:RESET_B 0
*RES
1 *5714:L_HI *5713:RESET_B 42.4308 
*END

*D_NET *856 0.00131532
*CONN
*I *5609:RESET_B I *D sg13g2_dfrbpq_1
*I *5610:L_HI O *D sg13g2_tiehi
*CAP
1 *5609:RESET_B 0
2 *5610:L_HI 0.000487896
3 *856:10 0.000487896
4 *856:10 *4967:A 0
5 *856:10 *1015:46 0
6 *856:10 *1109:8 0
7 *421:10 *856:10 0
8 *620:25 *856:10 0.00033953
*RES
1 *5610:L_HI *856:10 45.8298 
2 *856:10 *5609:RESET_B 40 
*END

*D_NET *857 0.000497115
*CONN
*I *5763:RESET_B I *D sg13g2_dfrbpq_1
*I *5764:L_HI O *D sg13g2_tiehi
*CAP
1 *5763:RESET_B 0.000248557
2 *5764:L_HI 0.000248557
3 *5763:RESET_B *1052:16 0
4 *5763:CLK *5763:RESET_B 0
*RES
1 *5764:L_HI *5763:RESET_B 42.6162 
*END

*D_NET *858 0.000406396
*CONN
*I *5607:RESET_B I *D sg13g2_dfrbpq_1
*I *5608:L_HI O *D sg13g2_tiehi
*CAP
1 *5607:RESET_B 0.000203198
2 *5608:L_HI 0.000203198
3 *709:41 *5607:RESET_B 0
*RES
1 *5608:L_HI *5607:RESET_B 42.1836 
*END

*D_NET *859 0.000494052
*CONN
*I *5711:RESET_B I *D sg13g2_dfrbpq_1
*I *5712:L_HI O *D sg13g2_tiehi
*CAP
1 *5711:RESET_B 0.000247026
2 *5712:L_HI 0.000247026
3 *712:37 *5711:RESET_B 0
*RES
1 *5712:L_HI *5711:RESET_B 42.8634 
*END

*D_NET *860 0.000545709
*CONN
*I *5605:RESET_B I *D sg13g2_dfrbpq_1
*I *5606:L_HI O *D sg13g2_tiehi
*CAP
1 *5605:RESET_B 0.000272854
2 *5606:L_HI 0.000272854
3 *5605:RESET_B *1105:38 0
4 *5545:D *5605:RESET_B 0
5 *252:12 *5605:RESET_B 0
*RES
1 *5606:L_HI *5605:RESET_B 42.9664 
*END

*D_NET *861 0.000514512
*CONN
*I *5787:RESET_B I *D sg13g2_dfrbpq_1
*I *5788:L_HI O *D sg13g2_tiehi
*CAP
1 *5787:RESET_B 0.000257256
2 *5788:L_HI 0.000257256
3 *5787:D *5787:RESET_B 0
4 *699:26 *5787:RESET_B 0
*RES
1 *5788:L_HI *5787:RESET_B 42.6162 
*END

*D_NET *862 0.000492858
*CONN
*I *5603:RESET_B I *D sg13g2_dfrbpq_1
*I *5604:L_HI O *D sg13g2_tiehi
*CAP
1 *5603:RESET_B 0.000238701
2 *5604:L_HI 0.000238701
3 *5201:A1 *5603:RESET_B 0
4 *5543:CLK *5603:RESET_B 1.54556e-05
5 *5603:D *5603:RESET_B 0
6 *629:10 *5603:RESET_B 0
*RES
1 *5604:L_HI *5603:RESET_B 42.5082 
*END

*D_NET *863 0.000501755
*CONN
*I *5709:RESET_B I *D sg13g2_dfrbpq_1
*I *5710:L_HI O *D sg13g2_tiehi
*CAP
1 *5709:RESET_B 0.000250877
2 *5710:L_HI 0.000250877
3 *5709:D *5709:RESET_B 0
4 *5709:CLK *5709:RESET_B 0
*RES
1 *5710:L_HI *5709:RESET_B 42.8634 
*END

*D_NET *864 0.00792085
*CONN
*I *6054:A I *D sg13g2_buf_1
*I *5040:A2 I *D sg13g2_o21ai_1
*I *5501:Q O *D sg13g2_dfrbpq_1
*CAP
1 *6054:A 0
2 *5040:A2 0.000134053
3 *5501:Q 0.0022242
4 *864:36 0.00193803
5 *864:8 0.000420217
6 *864:36 *6057:A 0
7 *864:36 *6097:A 0.000128618
8 *864:36 *1000:28 1.54556e-05
9 boot_addr[6] *864:36 0.00023506
10 spi_cs_n *864:36 0
11 *5047:B *864:36 0
12 *5493:CLK *864:36 0.00144147
13 *6048:A *864:36 0
14 *642:35 *864:8 0
15 *665:40 *5040:A2 1.54556e-05
16 *665:51 *5040:A2 0.000129009
17 *665:66 *5040:A2 0
18 *716:20 *864:36 0
19 *716:28 *864:36 0.000329402
20 *716:34 *5040:A2 0.000176175
21 *716:34 *864:8 0.000718252
22 *716:44 *5040:A2 1.54556e-05
23 *718:14 *864:36 0
*RES
1 *5501:Q *864:8 43.3166 
2 *864:8 *5040:A2 41.4008 
3 *5501:Q *864:36 40.6824 
4 *864:36 *6054:A 20 
*END

*D_NET *865 0.000776474
*CONN
*I *5601:RESET_B I *D sg13g2_dfrbpq_1
*I *5602:L_HI O *D sg13g2_tiehi
*CAP
1 *5601:RESET_B 0.000218461
2 *5602:L_HI 0.000218461
3 *704:31 *5601:RESET_B 0.000339552
*RES
1 *5602:L_HI *5601:RESET_B 42.6162 
*END

*D_NET *866 0.000411802
*CONN
*I *5761:RESET_B I *D sg13g2_dfrbpq_1
*I *5762:L_HI O *D sg13g2_tiehi
*CAP
1 *5761:RESET_B 0.000205901
2 *5762:L_HI 0.000205901
3 *555:10 *5761:RESET_B 0
4 *719:43 *5761:RESET_B 0
*RES
1 *5762:L_HI *5761:RESET_B 42.1836 
*END

*D_NET *867 0.000830406
*CONN
*I *5599:RESET_B I *D sg13g2_dfrbpq_1
*I *5600:L_HI O *D sg13g2_tiehi
*CAP
1 *5599:RESET_B 0.000189519
2 *5600:L_HI 0.000189519
3 *5599:RESET_B *1018:81 0.000274189
4 *5187:A2 *5599:RESET_B 0.00017718
*RES
1 *5600:L_HI *5599:RESET_B 42.1836 
*END

*D_NET *868 0.000727394
*CONN
*I *5707:RESET_B I *D sg13g2_dfrbpq_1
*I *5708:L_HI O *D sg13g2_tiehi
*CAP
1 *5707:RESET_B 0.000363697
2 *5708:L_HI 0.000363697
3 *5707:RESET_B *5997:A 0
4 *5900:A *5707:RESET_B 0
5 *717:10 *5707:RESET_B 0
6 *717:14 *5707:RESET_B 0
7 *718:54 *5707:RESET_B 0
*RES
1 *5708:L_HI *5707:RESET_B 43.8522 
*END

*D_NET *869 0.000724807
*CONN
*I *5597:RESET_B I *D sg13g2_dfrbpq_1
*I *5598:L_HI O *D sg13g2_tiehi
*CAP
1 *5597:RESET_B 0.000225066
2 *5598:L_HI 0.000225066
3 *5597:RESET_B *4972:A 0.000274676
4 *5088:A2 *5597:RESET_B 0
*RES
1 *5598:L_HI *5597:RESET_B 42.6162 
*END

*D_NET *870 0.000497322
*CONN
*I *5799:RESET_B I *D sg13g2_dfrbpq_1
*I *5800:L_HI O *D sg13g2_tiehi
*CAP
1 *5799:RESET_B 0.000248661
2 *5800:L_HI 0.000248661
3 *5476:B *5799:RESET_B 0
4 *633:45 *5799:RESET_B 0
*RES
1 *5800:L_HI *5799:RESET_B 42.6162 
*END

*D_NET *871 0.000534213
*CONN
*I *5595:RESET_B I *D sg13g2_dfrbpq_1
*I *5596:L_HI O *D sg13g2_tiehi
*CAP
1 *5595:RESET_B 0.000267107
2 *5596:L_HI 0.000267107
3 *259:10 *5595:RESET_B 0
*RES
1 *5596:L_HI *5595:RESET_B 42.8634 
*END

*D_NET *872 0.000535308
*CONN
*I *5705:RESET_B I *D sg13g2_dfrbpq_1
*I *5706:L_HI O *D sg13g2_tiehi
*CAP
1 *5705:RESET_B 0.000267654
2 *5706:L_HI 0.000267654
3 *626:34 *5705:RESET_B 0
4 *668:60 *5705:RESET_B 0
*RES
1 *5706:L_HI *5705:RESET_B 42.6162 
*END

*D_NET *873 0.000513198
*CONN
*I *5593:RESET_B I *D sg13g2_dfrbpq_1
*I *5594:L_HI O *D sg13g2_tiehi
*CAP
1 *5593:RESET_B 0.000200331
2 *5594:L_HI 0.000200331
3 *5593:RESET_B *1018:56 0
4 *5084:A2 *5593:RESET_B 0
5 *258:25 *5593:RESET_B 0.000112535
*RES
1 *5594:L_HI *5593:RESET_B 42.1836 
*END

*D_NET *874 0.000485557
*CONN
*I *5759:RESET_B I *D sg13g2_dfrbpq_1
*I *5760:L_HI O *D sg13g2_tiehi
*CAP
1 *5759:RESET_B 0.000242779
2 *5760:L_HI 0.000242779
3 *5759:RESET_B *1052:16 0
4 *5491:CLK *5759:RESET_B 0
*RES
1 *5760:L_HI *5759:RESET_B 42.1836 
*END

*D_NET *875 0.00397261
*CONN
*I *5052:A2 I *D sg13g2_o21ai_1
*I *6055:A I *D sg13g2_buf_1
*I *5509:Q O *D sg13g2_dfrbpq_1
*CAP
1 *5052:A2 0.000115571
2 *6055:A 0.00108131
3 *5509:Q 0.000410929
4 *875:10 0.00119689
5 *875:8 0.000410929
6 *6055:A *5055:A2 0
7 *6055:A *6066:A 0
8 *5053:A *6055:A 0
9 *5055:B1 *6055:A 0
10 *5056:B *6055:A 0
11 *5509:RESET_B *6055:A 0
12 *5509:D *5052:A2 0
13 *5509:D *6055:A 0
14 *5511:RESET_B *6055:A 0
15 *5511:D *6055:A 0
16 *658:86 *5052:A2 0.000209697
17 *658:86 *6055:A 0.000273879
18 *658:101 *6055:A 0.000257949
19 *705:117 *5052:A2 1.54556e-05
*RES
1 *5509:Q *875:8 44.7998 
2 *875:8 *875:10 20 
3 *875:10 *6055:A 31.4639 
4 *875:10 *5052:A2 21.4008 
*END

*D_NET *876 0.00371453
*CONN
*I *6056:A I *D sg13g2_buf_1
*I *5043:A2 I *D sg13g2_o21ai_1
*I *5503:Q O *D sg13g2_dfrbpq_1
*CAP
1 *6056:A 0
2 *5043:A2 0.000156142
3 *5503:Q 0.00164581
4 *876:28 0.00135102
5 *876:8 0.000450939
6 *5043:B1 *5043:A2 1.54556e-05
7 *5043:A1 *5043:A2 1.54556e-05
8 *5503:CLK *5043:A2 7.9703e-05
9 *642:23 *876:8 0
10 *642:68 *5043:A2 0
*RES
1 *5503:Q *876:8 42.8222 
2 *876:8 *5043:A2 41.6171 
3 *5503:Q *876:28 35.4809 
4 *876:28 *6056:A 20 
*END

*D_NET *877 0.000407726
*CONN
*I *5591:RESET_B I *D sg13g2_dfrbpq_1
*I *5592:L_HI O *D sg13g2_tiehi
*CAP
1 *5591:RESET_B 0.000203863
2 *5592:L_HI 0.000203863
3 *632:42 *5591:RESET_B 0
*RES
1 *5592:L_HI *5591:RESET_B 42.1836 
*END

*D_NET *878 0.000853223
*CONN
*I *5703:RESET_B I *D sg13g2_dfrbpq_1
*I *5704:L_HI O *D sg13g2_tiehi
*CAP
1 *5703:RESET_B 0.000354115
2 *5704:L_HI 0.000354115
3 *5703:RESET_B *1086:25 0
4 *5703:D *5703:RESET_B 0
5 *519:10 *5703:RESET_B 0.000144993
*RES
1 *5704:L_HI *5703:RESET_B 43.5638 
*END

*D_NET *879 0.000506742
*CONN
*I *5589:RESET_B I *D sg13g2_dfrbpq_1
*I *5590:L_HI O *D sg13g2_tiehi
*CAP
1 *5589:RESET_B 0.000253371
2 *5590:L_HI 0.000253371
3 *5589:RESET_B *1006:31 0
4 *288:18 *5589:RESET_B 0
*RES
1 *5590:L_HI *5589:RESET_B 42.7192 
*END

*D_NET *880 0.000793756
*CONN
*I *5757:RESET_B I *D sg13g2_dfrbpq_1
*I *5758:L_HI O *D sg13g2_tiehi
*CAP
1 *5757:RESET_B 0.000227165
2 *5758:L_HI 0.000227165
3 *5757:D *5757:RESET_B 0
4 *556:8 *5757:RESET_B 0
5 *719:43 *5757:RESET_B 0.000339426
*RES
1 *5758:L_HI *5757:RESET_B 42.6162 
*END

*D_NET *881 0.000500263
*CONN
*I *5587:RESET_B I *D sg13g2_dfrbpq_1
*I *5588:L_HI O *D sg13g2_tiehi
*CAP
1 *5587:RESET_B 0.000242404
2 *5588:L_HI 0.000242404
3 *5585:CLK *5587:RESET_B 1.54556e-05
4 *390:18 *5587:RESET_B 0
*RES
1 *5588:L_HI *5587:RESET_B 42.6162 
*END

*D_NET *882 0.00048115
*CONN
*I *5701:RESET_B I *D sg13g2_dfrbpq_1
*I *5702:L_HI O *D sg13g2_tiehi
*CAP
1 *5701:RESET_B 0.000229756
2 *5702:L_HI 0.000229756
3 *5701:D *5701:RESET_B 1.54556e-05
4 *714:39 *5701:RESET_B 6.18224e-06
*RES
1 *5702:L_HI *5701:RESET_B 42.6162 
*END

*D_NET *883 0.000443775
*CONN
*I *5585:RESET_B I *D sg13g2_dfrbpq_1
*I *5586:L_HI O *D sg13g2_tiehi
*CAP
1 *5585:RESET_B 0.000221888
2 *5586:L_HI 0.000221888
3 *5585:CLK *5585:RESET_B 0
*RES
1 *5586:L_HI *5585:RESET_B 42.1836 
*END

*D_NET *884 0.000828685
*CONN
*I *5785:RESET_B I *D sg13g2_dfrbpq_1
*I *5786:L_HI O *D sg13g2_tiehi
*CAP
1 *5785:RESET_B 0.000244709
2 *5786:L_HI 0.000244709
3 *5785:RESET_B *5460:B 0
4 *5785:D *5785:RESET_B 0
5 *6039:A *5785:RESET_B 0
6 *648:31 *5785:RESET_B 0.000339267
*RES
1 *5786:L_HI *5785:RESET_B 42.8634 
*END

*D_NET *885 0.000447241
*CONN
*I *5583:RESET_B I *D sg13g2_dfrbpq_1
*I *5584:L_HI O *D sg13g2_tiehi
*CAP
1 *5583:RESET_B 0.00022362
2 *5584:L_HI 0.00022362
3 *5577:CLK *5583:RESET_B 0
4 *5862:A *5583:RESET_B 0
*RES
1 *5584:L_HI *5583:RESET_B 42.1836 
*END

*D_NET *886 0.000447694
*CONN
*I *5699:RESET_B I *D sg13g2_dfrbpq_1
*I *5700:L_HI O *D sg13g2_tiehi
*CAP
1 *5699:RESET_B 0.000223847
2 *5700:L_HI 0.000223847
3 *5699:D *5699:RESET_B 0
4 *5699:CLK *5699:RESET_B 0
5 *711:57 *5699:RESET_B 0
*RES
1 *5700:L_HI *5699:RESET_B 41.9988 
*END

*D_NET *887 0.00421541
*CONN
*I *6057:A I *D sg13g2_buf_1
*I *5046:A2 I *D sg13g2_o21ai_1
*I *5505:Q O *D sg13g2_dfrbpq_1
*CAP
1 *6057:A 0.000417976
2 *5046:A2 0.000241032
3 *5505:Q 0.000293282
4 *887:25 0.00103936
5 *887:10 0.000862416
6 *887:8 0.000293282
7 *5046:A2 *1000:28 0
8 *6057:A *6059:A 0
9 *6057:A *1000:28 0
10 *887:25 *1000:28 0
11 *5505:CLK *5046:A2 0
12 *667:46 *887:8 0
13 *716:20 *5046:A2 0.00037208
14 *716:20 *887:25 0.000680578
15 *716:28 *5046:A2 1.54008e-05
16 *864:36 *6057:A 0
*RES
1 *5505:Q *887:8 43.5638 
2 *887:8 *887:10 20 
3 *887:10 *5046:A2 22.4823 
4 *887:10 *887:25 46.9731 
5 *887:25 *6057:A 24.6453 
*END

*D_NET *888 0.00039383
*CONN
*I *5581:RESET_B I *D sg13g2_dfrbpq_1
*I *5582:L_HI O *D sg13g2_tiehi
*CAP
1 *5581:RESET_B 0.000196915
2 *5582:L_HI 0.000196915
*RES
1 *5582:L_HI *5581:RESET_B 42.1836 
*END

*D_NET *889 0.000776474
*CONN
*I *5755:RESET_B I *D sg13g2_dfrbpq_1
*I *5756:L_HI O *D sg13g2_tiehi
*CAP
1 *5755:RESET_B 0.000218461
2 *5756:L_HI 0.000218461
3 *5755:CLK *5755:RESET_B 0
4 *665:22 *5755:RESET_B 0.000339552
*RES
1 *5756:L_HI *5755:RESET_B 42.6162 
*END

*D_NET *890 0.000566453
*CONN
*I *5579:RESET_B I *D sg13g2_dfrbpq_1
*I *5580:L_HI O *D sg13g2_tiehi
*CAP
1 *5579:RESET_B 0.000275561
2 *5580:L_HI 0.000275561
3 *5579:RESET_B *1093:74 0
4 *5579:D *5579:RESET_B 1.53311e-05
*RES
1 *5580:L_HI *5579:RESET_B 42.741 
*END

*D_NET *891 0.000580372
*CONN
*I *5697:RESET_B I *D sg13g2_dfrbpq_1
*I *5698:L_HI O *D sg13g2_tiehi
*CAP
1 *5697:RESET_B 0.000152801
2 *5698:L_HI 0.000152801
3 *5697:RESET_B *1032:31 0
4 *5345:B *5697:RESET_B 0.000274769
*RES
1 *5698:L_HI *5697:RESET_B 41.8334 
*END

*D_NET *892 0.000492969
*CONN
*I *5577:RESET_B I *D sg13g2_dfrbpq_1
*I *5578:L_HI O *D sg13g2_tiehi
*CAP
1 *5577:RESET_B 0.000246485
2 *5578:L_HI 0.000246485
3 *5577:CLK *5577:RESET_B 0
4 *691:25 *5577:RESET_B 0
*RES
1 *5578:L_HI *5577:RESET_B 41.0498 
*END

*D_NET *893 0.00108064
*CONN
*I *5805:RESET_B I *D sg13g2_dfrbpq_1
*I *5806:L_HI O *D sg13g2_tiehi
*CAP
1 *5805:RESET_B 5.87448e-05
2 *5806:L_HI 0.000377591
3 *893:12 0.000436336
4 *893:12 *1022:18 0
5 *605:237 *5805:RESET_B 0
6 *606:10 *5805:RESET_B 0
7 *606:10 *893:12 0.000207965
8 *622:14 *893:12 0
*RES
1 *5806:L_HI *893:12 43.8316 
2 *893:12 *5805:RESET_B 40.5356 
*END

*D_NET *894 0.000435365
*CONN
*I *5575:RESET_B I *D sg13g2_dfrbpq_1
*I *5576:L_HI O *D sg13g2_tiehi
*CAP
1 *5575:RESET_B 0.000217682
2 *5576:L_HI 0.000217682
3 *5575:RESET_B *5060:A 0
4 *5575:CLK *5575:RESET_B 0
*RES
1 *5576:L_HI *5575:RESET_B 42.2866 
*END

*D_NET *895 0.000432992
*CONN
*I *5695:RESET_B I *D sg13g2_dfrbpq_1
*I *5696:L_HI O *D sg13g2_tiehi
*CAP
1 *5695:RESET_B 0.000216496
2 *5696:L_HI 0.000216496
3 *5695:RESET_B *1033:57 0
4 *5695:D *5695:RESET_B 0
5 *5695:CLK *5695:RESET_B 0
*RES
1 *5696:L_HI *5695:RESET_B 42.6162 
*END

*D_NET *896 0.000427446
*CONN
*I *5573:RESET_B I *D sg13g2_dfrbpq_1
*I *5574:L_HI O *D sg13g2_tiehi
*CAP
1 *5573:RESET_B 0.000213723
2 *5574:L_HI 0.000213723
3 *5573:RESET_B *5057:A 0
4 *5573:CLK *5573:RESET_B 0
*RES
1 *5574:L_HI *5573:RESET_B 42.1836 
*END

*D_NET *897 0.000420994
*CONN
*I *5753:RESET_B I *D sg13g2_dfrbpq_1
*I *5754:L_HI O *D sg13g2_tiehi
*CAP
1 *5753:RESET_B 0.000210497
2 *5754:L_HI 0.000210497
3 *5014:A2 *5753:RESET_B 0
4 *5402:B *5753:RESET_B 0
5 *716:44 *5753:RESET_B 0
*RES
1 *5754:L_HI *5753:RESET_B 42.1836 
*END

*D_NET *898 0.0054336
*CONN
*I *6058:A I *D sg13g2_buf_1
*I *5049:A2 I *D sg13g2_o21ai_1
*I *5507:Q O *D sg13g2_dfrbpq_1
*CAP
1 *6058:A 0
2 *5049:A2 0.0002614
3 *5507:Q 0.000282159
4 *898:29 0.000892664
5 *898:8 0.00143622
6 boot_addr[9] *898:29 0
7 *5049:B1 *5049:A2 0.000372009
8 *5077:A1 *5049:A2 0.000356476
9 *5077:A1 *898:29 0.000695034
10 *5077:A2 *898:29 0
11 *6037:A *898:29 0
12 *643:19 *898:8 0
13 *643:32 *898:8 0
14 *646:52 *898:29 0.000630958
15 *646:58 *898:29 0
16 *665:85 *898:8 0
17 *666:30 *898:29 0.000491216
18 *666:38 *898:29 0
19 *667:54 *5049:A2 1.54556e-05
*RES
1 *5507:Q *898:8 43.0694 
2 *898:8 *5049:A2 43.0797 
3 *898:8 *898:29 30.2382 
4 *898:29 *6058:A 20 
*END

*D_NET *899 0.00143033
*CONN
*I *5491:RESET_B I *D sg13g2_dfrbpq_1
*I *5492:L_HI O *D sg13g2_tiehi
*CAP
1 *5491:RESET_B 0
2 *5492:L_HI 0.000410736
3 *899:10 0.000410736
4 *899:10 *912:10 0.000608855
5 *899:10 *1052:16 0
6 *5491:CLK *899:10 0
7 *672:58 *899:10 0
8 *672:70 *899:10 0
*RES
1 *5492:L_HI *899:10 45.0882 
2 *899:10 *5491:RESET_B 40 
*END

*D_NET *900 0.000531001
*CONN
*I *5809:RESET_B I *D sg13g2_dfrbpq_1
*I *5810:L_HI O *D sg13g2_tiehi
*CAP
1 *5809:RESET_B 0.0002655
2 *5810:L_HI 0.0002655
3 *5809:RESET_B *1010:52 0
4 *699:10 *5809:RESET_B 0
5 *699:16 *5809:RESET_B 0
*RES
1 *5810:L_HI *5809:RESET_B 42.6162 
*END

*D_NET *901 0.000740648
*CONN
*I *5811:RESET_B I *D sg13g2_dfrbpq_1
*I *5812:L_HI O *D sg13g2_tiehi
*CAP
1 *5811:RESET_B 0.000233065
2 *5812:L_HI 0.000233065
3 *5823:CLK *5811:RESET_B 0
4 *605:118 *5811:RESET_B 0
5 *645:10 *5811:RESET_B 0.000274518
6 *667:42 *5811:RESET_B 0
*RES
1 *5812:L_HI *5811:RESET_B 42.6162 
*END

*D_NET *902 0.000732153
*CONN
*I *5813:RESET_B I *D sg13g2_dfrbpq_1
*I *5814:L_HI O *D sg13g2_tiehi
*CAP
1 *5813:RESET_B 0.00022885
2 *5814:L_HI 0.00022885
3 *5813:RESET_B *4983:B 0
4 *5813:CLK *5813:RESET_B 0
5 *5898:A *5813:RESET_B 0
6 *261:31 *5813:RESET_B 0.000274452
7 *639:16 *5813:RESET_B 0
*RES
1 *5814:L_HI *5813:RESET_B 42.6162 
*END

*D_NET *903 0.000557541
*CONN
*I *5815:RESET_B I *D sg13g2_dfrbpq_1
*I *5816:L_HI O *D sg13g2_tiehi
*CAP
1 *5815:RESET_B 0.000278771
2 *5816:L_HI 0.000278771
3 *5815:CLK *5815:RESET_B 0
4 *638:16 *5815:RESET_B 0
5 *686:34 *5815:RESET_B 0
6 *686:60 *5815:RESET_B 0
*RES
1 *5816:L_HI *5815:RESET_B 42.6162 
*END

*D_NET *904 0.000452041
*CONN
*I *5817:RESET_B I *D sg13g2_dfrbpq_1
*I *5818:L_HI O *D sg13g2_tiehi
*CAP
1 *5817:RESET_B 0.00022602
2 *5818:L_HI 0.00022602
3 *5685:CLK *5817:RESET_B 0
4 *5817:D *5817:RESET_B 0
*RES
1 *5818:L_HI *5817:RESET_B 42.6162 
*END

*D_NET *905 0.000503816
*CONN
*I *5819:RESET_B I *D sg13g2_dfrbpq_1
*I *5820:L_HI O *D sg13g2_tiehi
*CAP
1 *5819:RESET_B 0.000251908
2 *5820:L_HI 0.000251908
3 *5018:A2 *5819:RESET_B 0
4 *5819:D *5819:RESET_B 0
5 *5825:CLK *5819:RESET_B 0
6 *292:12 *5819:RESET_B 0
7 *700:16 *5819:RESET_B 0
*RES
1 *5820:L_HI *5819:RESET_B 42.4314 
*END

*D_NET *906 0.000383287
*CONN
*I *5821:RESET_B I *D sg13g2_dfrbpq_1
*I *5822:L_HI O *D sg13g2_tiehi
*CAP
1 *5821:RESET_B 0.000191643
2 *5822:L_HI 0.000191643
3 *5685:CLK *5821:RESET_B 0
*RES
1 *5822:L_HI *5821:RESET_B 42.1836 
*END

*D_NET *907 0.000529143
*CONN
*I *5823:RESET_B I *D sg13g2_dfrbpq_1
*I *5824:L_HI O *D sg13g2_tiehi
*CAP
1 *5823:RESET_B 0.000264571
2 *5824:L_HI 0.000264571
3 *5823:RESET_B *1116:97 0
4 *612:25 *5823:RESET_B 0
5 *718:14 *5823:RESET_B 0
*RES
1 *5824:L_HI *5823:RESET_B 42.611 
*END

*D_NET *908 0.000444081
*CONN
*I *5825:RESET_B I *D sg13g2_dfrbpq_1
*I *5826:L_HI O *D sg13g2_tiehi
*CAP
1 *5825:RESET_B 0.000222041
2 *5826:L_HI 0.000222041
3 *5825:RESET_B *1054:14 0
4 *605:114 *5825:RESET_B 0
*RES
1 *5826:L_HI *5825:RESET_B 42.1836 
*END

*D_NET *909 0.00470951
*CONN
*I *4963:A I *D sg13g2_inv_1
*I *6059:A I *D sg13g2_buf_1
*I *5823:Q O *D sg13g2_dfrbpq_1
*CAP
1 *4963:A 8.60671e-05
2 *6059:A 0.00220078
3 *5823:Q 2.77263e-05
4 *909:6 0.00231457
5 *6059:A *1000:28 0
6 *5503:RESET_B *6059:A 0
7 *5503:CLK *6059:A 0
8 *5840:A *6059:A 0
9 *6057:A *6059:A 0
10 *605:134 *4963:A 0
11 *605:134 *6059:A 0
12 *642:68 *4963:A 8.03692e-05
13 *642:68 *6059:A 0
14 *667:42 *6059:A 0
*RES
1 *5823:Q *909:6 20.3502 
2 *909:6 *6059:A 44.0093 
3 *909:6 *4963:A 21.133 
*END

*D_NET *910 0.00101512
*CONN
*I *6034:A I *D sg13g2_buf_1
*I *5980:X O *D sg13g2_dlygate4sd3_1
*CAP
1 *6034:A 0.000387458
2 *5980:X 0.000387458
3 *6034:A *985:12 0
4 boot_wdata[28] *6034:A 0
5 boot_wdata[3] *6034:A 0.000240202
*RES
1 *5980:X *6034:A 44.0479 
*END

*D_NET *911 0.000388037
*CONN
*I *5026:C I *D sg13g2_nor4_1
*I *5981:X O *D sg13g2_dlygate4sd3_1
*CAP
1 *5026:C 0.000170062
2 *5981:X 0.000170062
3 *5026:D *5026:C 4.79124e-05
*RES
1 *5981:X *5026:C 42.1527 
*END

*D_NET *912 0.00150968
*CONN
*I *5491:D I *D sg13g2_dfrbpq_1
*I *5982:X O *D sg13g2_dlygate4sd3_1
*CAP
1 *5491:D 0
2 *5982:X 0.000450413
3 *912:10 0.000450413
4 *912:10 *1052:16 0
5 *672:58 *912:10 0
6 *899:10 *912:10 0.000608855
*RES
1 *5982:X *912:10 45.2451 
2 *912:10 *5491:D 40 
*END

*D_NET *913 0.00122535
*CONN
*I *5317:B1 I *D sg13g2_a21oi_1
*I *5983:X O *D sg13g2_dlygate4sd3_1
*CAP
1 *5317:B1 0
2 *5983:X 0.000612674
3 *913:10 0.000612674
4 *913:10 *996:32 0
5 *628:36 *913:10 0
6 *628:61 *913:10 0
7 *663:95 *913:10 0
8 *717:55 *913:10 0
*RES
1 *5983:X *913:10 46.4169 
2 *913:10 *5317:B1 40 
*END

*D_NET *914 0.00139224
*CONN
*I *5329:B1 I *D sg13g2_a21oi_1
*I *5984:X O *D sg13g2_dlygate4sd3_1
*CAP
1 *5329:B1 0.000224454
2 *5984:X 0.000221145
3 *914:8 0.000445599
4 *5329:A1 *5329:B1 0
5 *5872:A *5329:B1 0
6 *613:21 *914:8 0.000501046
7 *685:27 *914:8 0
8 *694:39 *5329:B1 0
*RES
1 *5984:X *914:8 43.0694 
2 *914:8 *5329:B1 42.0497 
*END

*D_NET *915 0.000498454
*CONN
*I *5681:D I *D sg13g2_dfrbpq_1
*I *5985:X O *D sg13g2_dlygate4sd3_1
*CAP
1 *5681:D 0.000249227
2 *5985:X 0.000249227
3 *5681:D *1020:6 0
4 *694:39 *5681:D 0
*RES
1 *5985:X *5681:D 42.8119 
*END

*D_NET *916 0.00108326
*CONN
*I *5326:B1 I *D sg13g2_a21oi_1
*I *5986:X O *D sg13g2_dlygate4sd3_1
*CAP
1 *5326:B1 0.000166552
2 *5986:X 0.000375079
3 *916:8 0.000541631
4 *5326:B1 *1022:66 0
5 *916:8 *1031:57 0
6 *5326:A1 *5326:B1 0
7 *5326:A2 *5326:B1 0
8 *5327:A *5326:B1 0
9 *5679:D *5326:B1 0
*RES
1 *5986:X *916:8 43.811 
2 *916:8 *5326:B1 41.4008 
*END

*D_NET *917 0.00143051
*CONN
*I *5320:B1 I *D sg13g2_a21oi_1
*I *5987:X O *D sg13g2_dlygate4sd3_1
*CAP
1 *5320:B1 0.000185222
2 *5987:X 0.000250113
3 *917:8 0.000435335
4 *5320:B1 *1033:72 0
5 *917:8 *1033:72 0.000559844
6 *605:273 *5320:B1 0
7 *605:277 *5320:B1 0
8 *627:17 *917:8 0
9 *712:27 *917:8 0
*RES
1 *5987:X *917:8 43.3166 
2 *917:8 *5320:B1 41.6171 
*END

*D_NET *918 0.000362617
*CONN
*I *5675:D I *D sg13g2_dfrbpq_1
*I *5988:X O *D sg13g2_dlygate4sd3_1
*CAP
1 *5675:D 0.000181309
2 *5988:X 0.000181309
3 *5675:D *5292:B 0
4 *5675:RESET_B *5675:D 0
*RES
1 *5988:X *5675:D 41.7819 
*END

*D_NET *919 0.00192572
*CONN
*I *5259:A I *D sg13g2_nor2_1
*I *5484:A I *D sg13g2_nor2_1
*I *5989:X O *D sg13g2_dlygate4sd3_1
*CAP
1 *5259:A 0.000263909
2 *5484:A 0.000555958
3 *5989:X 0.000103467
4 *919:8 0.000923335
5 *5259:A *5253:B 0
6 *5259:A *1020:77 0
7 *5259:A *1022:18 0
8 *5484:A *1022:18 0
9 *5850:A *919:8 0
10 *606:10 *5484:A 7.90521e-05
11 *622:12 *5484:A 0
12 *622:12 *919:8 0
13 *622:14 *5484:A 0
*RES
1 *5989:X *919:8 40.8446 
2 *919:8 *5484:A 44.0126 
3 *919:8 *5259:A 42.6986 
*END

*D_NET *920 0.00837967
*CONN
*I *6060:A I *D sg13g2_buf_1
*I *5336:A0 I *D sg13g2_mux2_1
*I *5689:Q O *D sg13g2_dfrbpq_1
*CAP
1 *6060:A 0
2 *5336:A0 4.92008e-05
3 *5689:Q 0.000813411
4 *920:36 0.0019216
5 *920:30 0.00202286
6 *920:12 0.00076135
7 *5336:A0 *5336:A1 4.78192e-05
8 *920:36 *5356:A0 0
9 *920:36 *5356:A1 0
10 *920:36 *5372:A1 0.000373385
11 *920:36 *1058:19 0
12 *920:36 *1066:10 0.000982896
13 *5269:A1 *920:12 0.000960385
14 *5336:S *5336:A0 0
15 *5337:A *5336:A0 0
16 *5641:D *920:12 0
17 *5641:CLK *920:36 0
18 *626:8 *920:36 0
19 *626:12 *920:36 0
20 *668:60 *920:30 0
21 *674:48 *920:36 0
22 *687:77 *920:12 0.000446767
23 *701:77 *920:12 0
*RES
1 *5689:Q *920:12 48.0958 
2 *920:12 *5336:A0 40.5356 
3 *5689:Q *920:30 40.9682 
4 *920:30 *920:36 42.8866 
5 *920:36 *6060:A 20 
*END

*D_NET *921 0.000212025
*CONN
*I *5311:B1 I *D sg13g2_a21oi_1
*I *5990:X O *D sg13g2_dlygate4sd3_1
*CAP
1 *5311:B1 0.000106012
2 *5990:X 0.000106012
*RES
1 *5990:X *5311:B1 41.339 
*END

*D_NET *922 0.000276021
*CONN
*I *5669:D I *D sg13g2_dfrbpq_1
*I *5991:X O *D sg13g2_dlygate4sd3_1
*CAP
1 *5669:D 0.000138011
2 *5991:X 0.000138011
3 *5312:A *5669:D 0
4 *5991:A *5669:D 0
*RES
1 *5991:X *5669:D 41.1845 
*END

*D_NET *923 0.000559121
*CONN
*I *5332:B1 I *D sg13g2_a21oi_1
*I *5992:X O *D sg13g2_dlygate4sd3_1
*CAP
1 *5332:B1 0
2 *5992:X 0.00027956
3 *923:8 0.00027956
*RES
1 *5992:X *923:8 43.5638 
2 *923:8 *5332:B1 40 
*END

*D_NET *924 0.000624675
*CONN
*I *5683:D I *D sg13g2_dfrbpq_1
*I *5993:X O *D sg13g2_dlygate4sd3_1
*CAP
1 *5683:D 0
2 *5993:X 0.000220402
3 *924:10 0.000220402
4 *623:31 *924:10 0
5 *623:44 *924:10 0.00018387
*RES
1 *5993:X *924:10 42.5235 
2 *924:10 *5683:D 40 
*END

*D_NET *925 0.000407884
*CONN
*I *5323:B1 I *D sg13g2_a21oi_1
*I *5994:X O *D sg13g2_dlygate4sd3_1
*CAP
1 *5323:B1 0.000203942
2 *5994:X 0.000203942
3 *5661:CLK *5323:B1 0
*RES
1 *5994:X *5323:B1 42.575 
*END

*D_NET *926 0.00124397
*CONN
*I *5421:B1 I *D sg13g2_a21oi_1
*I *5995:X O *D sg13g2_dlygate4sd3_1
*CAP
1 *5421:B1 0
2 *5995:X 0.000317764
3 *926:8 0.000317764
4 *926:8 *1126:10 0.00060844
5 *926:8 *1126:46 0
6 *926:8 *1128:10 0
7 *676:59 *926:8 0
*RES
1 *5995:X *926:8 44.5526 
2 *926:8 *5421:B1 40 
*END

*D_NET *927 0.00169071
*CONN
*I *5314:B1 I *D sg13g2_a21oi_1
*I *5996:X O *D sg13g2_dlygate4sd3_1
*CAP
1 *5314:B1 0
2 *5996:X 0.000509629
3 *927:10 0.000509629
4 *927:10 *1025:34 0.000671452
5 *5312:B *927:10 0
6 *663:63 *927:10 0
*RES
1 *5996:X *927:10 46.4169 
2 *927:10 *5314:B1 40 
*END

*D_NET *928 0.000986979
*CONN
*I *5266:B1 I *D sg13g2_a21oi_1
*I *5997:X O *D sg13g2_dlygate4sd3_1
*CAP
1 *5266:B1 0.000145422
2 *5997:X 0.000348068
3 *928:8 0.000493489
4 *675:18 *5266:B1 0
5 *702:24 *928:8 0
6 *718:41 *928:8 0
*RES
1 *5997:X *928:8 43.811 
2 *928:8 *5266:B1 41.4008 
*END

*D_NET *929 0.00300756
*CONN
*I *5268:A I *D sg13g2_nor2_1
*I *5245:B1 I *D sg13g2_a21oi_1
*I *5998:X O *D sg13g2_dlygate4sd3_1
*CAP
1 *5268:A 0.000369153
2 *5245:B1 0.00048178
3 *5998:X 0
4 *929:6 0.000850933
5 *5245:B1 *1033:12 0.000345126
6 *5268:A *5268:B 0
7 *5268:A *5998:A 0
8 *5268:A *1033:10 0.000129283
9 *5268:A *1033:12 0.000589657
10 *5625:CLK *5245:B1 0.000241631
11 *687:73 *5245:B1 0
12 *719:54 *5245:B1 0
13 *719:54 *5268:A 0
*RES
1 *5998:X *929:6 40 
2 *929:6 *5245:B1 45.2839 
3 *929:6 *5268:A 44.0685 
*END

*D_NET *930 0.00070527
*CONN
*I *5299:B1 I *D sg13g2_a21oi_1
*I *5999:X O *D sg13g2_dlygate4sd3_1
*CAP
1 *5299:B1 0
2 *5999:X 0.000208298
3 *930:8 0.000208298
4 *930:8 *5360:A1 0
5 *5323:A1 *930:8 0
6 *5323:A2 *930:8 0.000288675
7 *713:35 *930:8 0
*RES
1 *5999:X *930:8 42.8222 
2 *930:8 *5299:B1 40 
*END

*D_NET *931 0.00194868
*CONN
*I *6061:A I *D sg13g2_buf_1
*I *5356:A0 I *D sg13g2_mux2_1
*I *5709:Q O *D sg13g2_dfrbpq_1
*CAP
1 *6061:A 0.000190291
2 *5356:A0 0.000654796
3 *5709:Q 9.13936e-05
4 *931:10 0.000936481
5 *5356:A0 *5356:A1 7.57164e-05
6 boot_wdata[0] *6061:A 0
7 boot_wdata[0] *931:10 0
8 *5709:CLK *6061:A 0
9 *920:36 *5356:A0 0
*RES
1 *5709:Q *931:10 40.9167 
2 *931:10 *5356:A0 48.0134 
3 *931:10 *6061:A 42.0497 
*END

*D_NET *932 0.00114363
*CONN
*I *5239:B1 I *D sg13g2_a21oi_1
*I *6000:X O *D sg13g2_dlygate4sd3_1
*CAP
1 *5239:B1 0.000378604
2 *6000:X 0.000193212
3 *932:8 0.000571816
4 *5239:A1 *5239:B1 0
5 *263:18 *932:8 0
6 *687:86 *5239:B1 0
7 *701:25 *5239:B1 0
*RES
1 *6000:X *932:8 42.3278 
2 *932:8 *5239:B1 43.3475 
*END

*D_NET *933 0.00139821
*CONN
*I *5248:B1 I *D sg13g2_a21oi_1
*I *6001:X O *D sg13g2_dlygate4sd3_1
*CAP
1 *5248:B1 0.000489243
2 *6001:X 0.000489243
3 *5248:A1 *5248:B1 0
4 *5627:CLK *5248:B1 0.000274611
5 *670:6 *5248:B1 0
6 *671:8 *5248:B1 0
7 *671:22 *5248:B1 0
8 *685:8 *5248:B1 0.000145113
9 *685:10 *5248:B1 0
*RES
1 *6001:X *5248:B1 45.5414 
*END

*D_NET *934 9.45957e-05
*CONN
*I *5028:A I *D sg13g2_nor2b_1
*I *6002:X O *D sg13g2_dlygate4sd3_1
*CAP
1 *5028:A 4.72978e-05
2 *6002:X 4.72978e-05
*RES
1 *6002:X *5028:A 40.5974 
*END

*D_NET *935 0.00200624
*CONN
*I *5251:B1 I *D sg13g2_a21oi_1
*I *5274:A I *D sg13g2_nor2_1
*I *6003:X O *D sg13g2_dlygate4sd3_1
*CAP
1 *5251:B1 0
2 *5274:A 0
3 *6003:X 0
4 *935:25 0.000247024
5 *935:12 0.000281356
6 *935:4 0.00052838
7 *935:12 *1022:38 0.000447599
8 *5251:A1 *935:25 0
9 *5276:B *935:25 0.000501875
10 *5629:CLK *935:25 0
11 *456:8 *935:25 0
12 *670:18 *935:12 0
13 *685:10 *935:12 0
14 *685:10 *935:25 0
*RES
1 *6003:X *935:4 20 
2 *935:4 *935:12 43.4814 
3 *935:12 *5274:A 20 
4 *935:4 *935:25 42.8634 
5 *935:25 *5251:B1 20 
*END

*D_NET *936 0.00132698
*CONN
*I *5419:A1 I *D sg13g2_a21oi_1
*I *6004:X O *D sg13g2_dlygate4sd3_1
*CAP
1 *5419:A1 0
2 *6004:X 0.000163649
3 *936:8 0.000163649
4 *936:8 *5406:C 0.000393736
5 *5418:A *936:8 0.000583679
6 *5420:B *936:8 2.22695e-05
7 *559:8 *936:8 0
*RES
1 *6004:X *936:8 42.8222 
2 *936:8 *5419:A1 40 
*END

*D_NET *937 0.000791648
*CONN
*I *5302:B1 I *D sg13g2_a21oi_1
*I *6005:X O *D sg13g2_dlygate4sd3_1
*CAP
1 *5302:B1 0
2 *6005:X 0.000145008
3 *937:8 0.000145008
4 *937:8 *966:8 0
5 *937:8 *1021:20 0
6 *937:8 *1030:70 0.000501632
*RES
1 *6005:X *937:8 42.3278 
2 *937:8 *5302:B1 40 
*END

*D_NET *938 0.000562283
*CONN
*I *5663:D I *D sg13g2_dfrbpq_1
*I *6006:X O *D sg13g2_dlygate4sd3_1
*CAP
1 *5663:D 0.000273414
2 *6006:X 0.000273414
3 *5303:A *5663:D 1.54556e-05
4 *5663:RESET_B *5663:D 0
5 *695:88 *5663:D 0
*RES
1 *6006:X *5663:D 43.2754 
*END

*D_NET *939 0.000521187
*CONN
*I *5305:B1 I *D sg13g2_a21oi_1
*I *6007:X O *D sg13g2_dlygate4sd3_1
*CAP
1 *5305:B1 0.000242796
2 *6007:X 0.000242796
3 *5305:B1 *5328:B 3.55949e-05
4 *671:55 *5305:B1 0
*RES
1 *6007:X *5305:B1 42.8222 
*END

*D_NET *940 0.00261433
*CONN
*I *5256:A I *D sg13g2_nor2_1
*I *6008:X O *D sg13g2_dlygate4sd3_1
*CAP
1 *5256:A 0.000471095
2 *6008:X 0.000570449
3 *940:10 0.00104154
4 *5256:A *5256:B 0
5 *5256:A *1020:6 0.000209856
6 *5256:A *1020:51 6.47875e-05
7 *5485:C *940:10 7.91362e-05
8 *5803:RESET_B *5256:A 0
9 *5803:CLK *5256:A 0
10 *694:33 *5256:A 0.000177457
11 *694:33 *940:10 0
*RES
1 *6008:X *940:10 44.841 
2 *940:10 *5256:A 44.8616 
*END

*D_NET *941 0.000363683
*CONN
*I *5275:B1 I *D sg13g2_a21oi_1
*I *6009:X O *D sg13g2_dlygate4sd3_1
*CAP
1 *5275:B1 0
2 *6009:X 0.000181841
3 *941:8 0.000181841
4 *679:43 *941:8 0
5 *697:51 *941:8 0
6 *711:12 *941:8 0
*RES
1 *6009:X *941:8 42.0806 
2 *941:8 *5275:B1 40 
*END

*D_NET *942 0.00194364
*CONN
*I *5358:A0 I *D sg13g2_mux2_1
*I *6062:A I *D sg13g2_buf_1
*I *5711:Q O *D sg13g2_dfrbpq_1
*CAP
1 *5358:A0 0
2 *6062:A 0.000144798
3 *5711:Q 0.000330915
4 *942:25 0.00049611
5 *942:10 0.000640908
6 *942:8 0.000330915
7 boot_wdata[11] *942:8 0
8 *5711:CLK *6062:A 0
9 *5711:CLK *942:25 0
*RES
1 *5711:Q *942:8 43.811 
2 *942:8 *942:10 20 
3 *942:10 *6062:A 21.4008 
4 *942:10 *942:25 45.7989 
5 *942:25 *5358:A0 20 
*END

*D_NET *943 0.001939
*CONN
*I *5287:B1 I *D sg13g2_a21oi_1
*I *6010:X O *D sg13g2_dlygate4sd3_1
*CAP
1 *5287:B1 0.000163317
2 *6010:X 0.000224796
3 *943:8 0.000388114
4 *943:8 *1064:10 0.000128663
5 *5653:CLK *5287:B1 0.000207986
6 *663:89 *943:8 0
7 *664:59 *943:8 0.000826127
8 *689:61 *5287:B1 0
*RES
1 *6010:X *943:8 43.811 
2 *943:8 *5287:B1 41.4008 
*END

*D_NET *944 0.000948324
*CONN
*I *5290:B1 I *D sg13g2_a21oi_1
*I *6011:X O *D sg13g2_dlygate4sd3_1
*CAP
1 *5290:B1 0
2 *6011:X 0.000314933
3 *944:10 0.000314933
4 *5902:A *944:10 0.00024222
5 *5909:A *944:10 7.62389e-05
6 *674:8 *944:10 0
*RES
1 *6011:X *944:10 43.4505 
2 *944:10 *5290:B1 40 
*END

*D_NET *945 0.000355815
*CONN
*I *5655:D I *D sg13g2_dfrbpq_1
*I *6012:X O *D sg13g2_dlygate4sd3_1
*CAP
1 *5655:D 0.000177908
2 *6012:X 0.000177908
3 *703:48 *5655:D 0
*RES
1 *6012:X *5655:D 42.0291 
*END

*D_NET *946 0.000368597
*CONN
*I *5269:B1 I *D sg13g2_a21oi_1
*I *6013:X O *D sg13g2_dlygate4sd3_1
*CAP
1 *5269:B1 0.000184298
2 *6013:X 0.000184298
*RES
1 *6013:X *5269:B1 42.3278 
*END

*D_NET *947 0.00125269
*CONN
*I *5263:B1 I *D sg13g2_a21oi_1
*I *6014:X O *D sg13g2_dlygate4sd3_1
*CAP
1 *5263:B1 0
2 *6014:X 0.00042856
3 *947:10 0.00042856
4 *947:10 *6014:A 0
5 *5353:A *947:10 0
6 *625:72 *947:10 0
7 *663:46 *947:10 0.000395568
8 *673:14 *947:10 0
*RES
1 *6014:X *947:10 45.1809 
2 *947:10 *5263:B1 40 
*END

*D_NET *948 0.000311227
*CONN
*I *5637:D I *D sg13g2_dfrbpq_1
*I *6015:X O *D sg13g2_dlygate4sd3_1
*CAP
1 *5637:D 0.000155614
2 *6015:X 0.000155614
3 *5264:C *5637:D 0
4 *663:21 *5637:D 0
*RES
1 *6015:X *5637:D 41.5347 
*END

*D_NET *949 0.000935147
*CONN
*I *5308:B1 I *D sg13g2_a21oi_1
*I *6016:X O *D sg13g2_dlygate4sd3_1
*CAP
1 *5308:B1 0
2 *6016:X 6.59732e-05
3 *949:8 6.59732e-05
4 *5332:A2 *949:8 0.0004016
5 *683:62 *949:8 0.0004016
*RES
1 *6016:X *949:8 41.8334 
2 *949:8 *5308:B1 40 
*END

*D_NET *950 0.00108812
*CONN
*I *5667:D I *D sg13g2_dfrbpq_1
*I *6017:X O *D sg13g2_dlygate4sd3_1
*CAP
1 *5667:D 0.000455924
2 *6017:X 0.000455924
3 *5667:D *6020:A 0
4 *5667:D *954:10 0.000176274
5 *5667:RESET_B *5667:D 0
6 *6017:A *5667:D 0
*RES
1 *6017:X *5667:D 44.7174 
*END

*D_NET *951 0.000538917
*CONN
*I *5281:B1 I *D sg13g2_a21oi_1
*I *6018:X O *D sg13g2_dlygate4sd3_1
*CAP
1 *5281:B1 0
2 *6018:X 0.000269459
3 *951:8 0.000269459
*RES
1 *6018:X *951:8 43.0694 
2 *951:8 *5281:B1 40 
*END

*D_NET *952 0.00068849
*CONN
*I *5444:A I *D sg13g2_nor2_1
*I *6019:X O *D sg13g2_dlygate4sd3_1
*CAP
1 *5444:A 0
2 *6019:X 0.000344245
3 *952:8 0.000344245
4 *952:8 *5447:B 0
5 *5445:A *952:8 0
*RES
1 *6019:X *952:8 43.811 
2 *952:8 *5444:A 40 
*END

*D_NET *953 0.00231278
*CONN
*I *6063:A I *D sg13g2_buf_1
*I *5360:A0 I *D sg13g2_mux2_1
*I *5713:Q O *D sg13g2_dfrbpq_1
*CAP
1 *6063:A 0.000406085
2 *5360:A0 0
3 *5713:Q 3.24992e-05
4 *953:12 0.000679949
5 *953:6 0.00111853
6 *953:12 *5360:A1 7.57164e-05
7 *953:12 *964:25 0
*RES
1 *5713:Q *953:6 20.3193 
2 *953:6 *953:12 48.2606 
3 *953:12 *5360:A0 20 
4 *953:6 *6063:A 24.5835 
*END

*D_NET *954 0.00161789
*CONN
*I *5284:B1 I *D sg13g2_a21oi_1
*I *6020:X O *D sg13g2_dlygate4sd3_1
*CAP
1 *5284:B1 3.82807e-05
2 *6020:X 0.000428466
3 *954:10 0.000466746
4 *954:10 *5307:B 0.000345533
5 *5284:A1 *5284:B1 0
6 *5667:D *954:10 0.000176274
7 *6017:A *954:10 7.97166e-05
8 *494:12 *954:10 7.67102e-05
9 *711:71 *5284:B1 6.16032e-06
*RES
1 *6020:X *954:10 44.7483 
2 *954:10 *5284:B1 40.3193 
*END

*D_NET *955 0.000982352
*CONN
*I *5296:B1 I *D sg13g2_a21oi_1
*I *6021:X O *D sg13g2_dlygate4sd3_1
*CAP
1 *5296:B1 2.91287e-05
2 *6021:X 0.000160831
3 *955:8 0.00018996
4 *955:8 *5358:A1 0.000554579
5 *486:10 *5296:B1 4.78524e-05
*RES
1 *6021:X *955:8 42.575 
2 *955:8 *5296:B1 40.3193 
*END

*D_NET *956 0.00169465
*CONN
*I *5254:B1 I *D sg13g2_a21oi_1
*I *6022:X O *D sg13g2_dlygate4sd3_1
*CAP
1 *5254:B1 4.34363e-05
2 *6022:X 0.000606662
3 *956:10 0.000650098
4 *956:10 *5277:A 0
5 *956:10 *6022:A 0
6 *956:10 *1030:104 0
7 *956:10 *1031:10 0
8 *956:10 *1084:10 0
9 *5631:CLK *5254:B1 8.01447e-05
10 *622:8 *956:10 0
11 *622:56 *956:10 0
12 *669:99 *956:10 0.000234224
13 *671:22 *956:10 0
14 *685:27 *5254:B1 8.00842e-05
*RES
1 *6022:X *956:10 46.2374 
2 *956:10 *5254:B1 40.5356 
*END

*D_NET *957 0.000682535
*CONN
*I *4981:A I *D sg13g2_nand3_1
*I *6023:X O *D sg13g2_dlygate4sd3_1
*CAP
1 *4981:A 0
2 *6023:X 5.26794e-05
3 *957:8 5.26794e-05
4 *638:59 *957:8 0.000288588
5 *715:108 *957:8 0.000288588
*RES
1 *6023:X *957:8 41.339 
2 *957:8 *4981:A 40 
*END

*D_NET *958 0.000956071
*CONN
*I *5442:A1 I *D sg13g2_a21o_1
*I *6024:X O *D sg13g2_dlygate4sd3_1
*CAP
1 *5442:A1 0.00014247
2 *6024:X 0.000151322
3 *958:8 0.000293791
4 *958:8 *1131:12 0.00012651
5 *5442:A2 *5442:A1 0.000241979
6 *229:10 *5442:A1 0
*RES
1 *6024:X *958:8 41.5862 
2 *958:8 *5442:A1 41.6171 
*END

*D_NET *959 0.000112161
*CONN
*I *5271:A I *D sg13g2_nor2_1
*I *6025:X O *D sg13g2_dlygate4sd3_1
*CAP
1 *5271:A 5.60806e-05
2 *6025:X 5.60806e-05
3 *5643:CLK *5271:A 0
*RES
1 *6025:X *5271:A 40.5974 
*END

*D_NET *960 0.000278639
*CONN
*I *5643:D I *D sg13g2_dfrbpq_1
*I *6026:X O *D sg13g2_dlygate4sd3_1
*CAP
1 *5643:D 0.00013932
2 *6026:X 0.00013932
3 *5643:D *1032:23 0
4 *5273:C *5643:D 0
5 *162:10 *5643:D 0
*RES
1 *6026:X *5643:D 40.9029 
*END

*D_NET *961 0.000490932
*CONN
*I *5277:A I *D sg13g2_nor2_1
*I *6027:X O *D sg13g2_dlygate4sd3_1
*CAP
1 *5277:A 0.000165274
2 *6027:X 0.000165274
3 *5277:A *5277:B 1.54008e-05
4 *5277:A *1031:10 0
5 *711:71 *5277:A 0.000144984
6 *956:10 *5277:A 0
*RES
1 *6027:X *5277:A 41.751 
*END

*D_NET *962 0.00012456
*CONN
*I *5313:A I *D sg13g2_nor2_1
*I *6028:X O *D sg13g2_dlygate4sd3_1
*CAP
1 *5313:A 6.22801e-05
2 *6028:X 6.22801e-05
3 *5313:A *1065:8 0
4 *5315:C *5313:A 0
*RES
1 *6028:X *5313:A 40.5974 
*END

*D_NET *963 0.000482575
*CONN
*I *5286:A I *D sg13g2_nor2_1
*I *6029:X O *D sg13g2_dlygate4sd3_1
*CAP
1 *5286:A 0.000152686
2 *6029:X 0.000152686
3 *5286:A *1023:127 0
4 *5288:C *5286:A 0
5 *668:60 *5286:A 0.000177203
*RES
1 *6029:X *5286:A 41.751 
*END

*D_NET *964 0.00283248
*CONN
*I *6064:A I *D sg13g2_buf_1
*I *5362:A0 I *D sg13g2_mux2_1
*I *5715:Q O *D sg13g2_dfrbpq_1
*CAP
1 *6064:A 0
2 *5362:A0 0
3 *5715:Q 0
4 *964:25 0.000721911
5 *964:12 0.000694332
6 *964:4 0.00141624
7 *5399:B *964:12 0
8 *5399:B *964:25 0
9 *711:12 *964:12 0
10 *750:8 *964:25 0
11 *953:12 *964:25 0
*RES
1 *5715:Q *964:4 20 
2 *964:4 *964:12 48.3018 
3 *964:12 *5362:A0 20 
4 *964:4 *964:25 48.6417 
5 *964:25 *6064:A 20 
*END

*D_NET *965 0.000101364
*CONN
*I *5298:A I *D sg13g2_nor2_1
*I *6030:X O *D sg13g2_dlygate4sd3_1
*CAP
1 *5298:A 5.0682e-05
2 *6030:X 5.0682e-05
3 *5300:C *5298:A 0
*RES
1 *6030:X *5298:A 40.5974 
*END

*D_NET *966 0.000674637
*CONN
*I *5325:A I *D sg13g2_nor2_1
*I *6031:X O *D sg13g2_dlygate4sd3_1
*CAP
1 *5325:A 0.000163629
2 *6031:X 0.000173689
3 *966:8 0.000337319
4 *5325:A *1021:20 0
5 *966:8 *1030:70 0
6 *623:27 *5325:A 0
7 *937:8 *966:8 0
*RES
1 *6031:X *966:8 42.0806 
2 *966:8 *5325:A 41.4008 
*END

*D_NET *967 0.000385179
*CONN
*I *5322:A I *D sg13g2_nor2_1
*I *6032:X O *D sg13g2_dlygate4sd3_1
*CAP
1 *5322:A 0
2 *6032:X 0.00019259
3 *967:8 0.00019259
4 *967:8 *992:23 0
5 *504:8 *967:8 0
6 *712:71 *967:8 0
*RES
1 *6032:X *967:8 42.3278 
2 *967:8 *5322:A 40 
*END

*D_NET *968 0.00124091
*CONN
*I *5364:A0 I *D sg13g2_mux2_1
*I *6065:A I *D sg13g2_buf_1
*I *5717:Q O *D sg13g2_dfrbpq_1
*CAP
1 *5364:A0 0.000340033
2 *6065:A 0.000145155
3 *5717:Q 0.00012754
4 *968:8 0.000612729
5 *5364:A0 *5364:S 0
6 *5364:A0 *1062:18 1.54556e-05
7 *5365:A *5364:A0 0
8 *714:55 *5364:A0 0
*RES
1 *5717:Q *968:8 21.9982 
2 *968:8 *6065:A 21.8334 
3 *968:8 *5364:A0 23.7801 
*END

*D_NET *969 0.00176841
*CONN
*I *6066:A I *D sg13g2_buf_1
*I *5055:A2 I *D sg13g2_o21ai_1
*I *5511:Q O *D sg13g2_dfrbpq_1
*CAP
1 *6066:A 0.000165758
2 *5055:A2 0.000270266
3 *5511:Q 0.00015502
4 *969:10 0.000436024
5 *969:8 0.00015502
6 *5055:B1 *5055:A2 1.54556e-05
7 *6052:A *5055:A2 0
8 *6052:A *6066:A 0
9 *6055:A *5055:A2 0
10 *6055:A *6066:A 0
11 *637:42 *969:8 0.000555409
12 *658:101 *5055:A2 1.54556e-05
*RES
1 *5511:Q *969:8 42.575 
2 *969:8 *969:10 20 
3 *969:10 *5055:A2 22.7501 
4 *969:10 *6066:A 21.8334 
*END

*D_NET *970 0.00267718
*CONN
*I *6067:A I *D sg13g2_buf_1
*I *5366:A0 I *D sg13g2_mux2_1
*I *5719:Q O *D sg13g2_dfrbpq_1
*CAP
1 *6067:A 0.000324344
2 *5366:A0 0.00024824
3 *5719:Q 0.000203122
4 *970:10 0.000775706
5 *5366:A0 *5382:S 0.000715248
6 *5366:A0 *1030:46 0.000182109
7 *6067:A *6076:A 0
8 *970:10 *5382:A0 0
9 *970:10 *5382:S 0.000212958
10 *970:10 *6076:A 1.54556e-05
11 *5383:A *970:10 0
12 *5383:B *970:10 0
*RES
1 *5719:Q *970:10 43.1415 
2 *970:10 *5366:A0 44.0582 
3 *970:10 *6067:A 43.7801 
*END

*D_NET *971 0.0021313
*CONN
*I *6068:A I *D sg13g2_buf_1
*I *5368:A0 I *D sg13g2_mux2_1
*I *5721:Q O *D sg13g2_dfrbpq_1
*CAP
1 *6068:A 2.93497e-05
2 *5368:A0 0.000597494
3 *5721:Q 0.000259418
4 *971:10 0.000886262
5 *5368:A0 *5368:A1 7.57164e-05
6 *5368:A0 *997:25 0
7 *6068:A *6080:A 0
8 *971:10 *6080:A 4.76034e-05
9 boot_wdata[16] *971:10 0.000235457
10 *717:51 *5368:A0 0
*RES
1 *5721:Q *971:10 43.2033 
2 *971:10 *5368:A0 47.519 
3 *971:10 *6068:A 40.3193 
*END

*D_NET *972 0.00744615
*CONN
*I *6069:A I *D sg13g2_buf_1
*I *5370:A0 I *D sg13g2_mux2_1
*I *5723:Q O *D sg13g2_dfrbpq_1
*CAP
1 *6069:A 0
2 *5370:A0 0.000540805
3 *5723:Q 0.000135446
4 *972:23 0.00129073
5 *972:8 0.00196698
6 *972:23 *5386:A0 0
7 *972:23 *6079:A 0
8 *610:12 *5370:A0 0
9 *641:25 *972:23 0
10 *641:50 *5370:A0 0
11 *667:25 *5370:A0 0.00178178
12 *667:25 *972:23 0
13 *718:60 *5370:A0 0
14 *718:60 *972:23 0
15 *718:68 *972:23 0.00173041
*RES
1 *5723:Q *972:8 41.4008 
2 *972:8 *5370:A0 48.2606 
3 *972:8 *972:23 37.4791 
4 *972:23 *6069:A 20 
*END

*D_NET *973 0.00169198
*CONN
*I *5372:A0 I *D sg13g2_mux2_1
*I *6070:A I *D sg13g2_buf_1
*I *5725:Q O *D sg13g2_dfrbpq_1
*CAP
1 *5372:A0 0
2 *6070:A 2.47139e-05
3 *5725:Q 0.000162646
4 *973:23 0.000658628
5 *973:8 0.000845988
6 *5357:B *973:23 0
7 *203:8 *973:23 0
8 *628:12 *973:23 0
*RES
1 *5725:Q *973:8 21.7819 
2 *973:8 *6070:A 20.291 
3 *973:8 *973:23 48.0546 
4 *973:23 *5372:A0 20 
*END

*D_NET *974 0.00194695
*CONN
*I *6071:A I *D sg13g2_buf_1
*I *5374:A0 I *D sg13g2_mux2_1
*I *5727:Q O *D sg13g2_dfrbpq_1
*CAP
1 *6071:A 0.00019484
2 *5374:A0 0.000652705
3 *5727:Q 8.83221e-05
4 *974:10 0.000935868
5 *5374:A0 *1067:30 7.52149e-05
*RES
1 *5727:Q *974:10 40.9167 
2 *974:10 *5374:A0 48.0134 
3 *974:10 *6071:A 42.0497 
*END

*D_NET *975 0.00728965
*CONN
*I *6072:A I *D sg13g2_buf_1
*I *5338:A0 I *D sg13g2_mux2_1
*I *5691:Q O *D sg13g2_dfrbpq_1
*CAP
1 *6072:A 0.000825812
2 *5338:A0 0.000346234
3 *5691:Q 0.000183859
4 *975:27 0.00311473
5 *975:8 0.00281901
6 *5339:A *5338:A0 0
7 *79:8 *975:27 0
8 *79:27 *975:27 0
9 *716:75 *975:27 0
*RES
1 *5691:Q *975:8 42.0806 
2 *975:8 *5338:A0 43.6771 
3 *975:8 *975:27 45.2041 
4 *975:27 *6072:A 29.0331 
*END

*D_NET *976 0.00204979
*CONN
*I *6073:A I *D sg13g2_buf_1
*I *5376:A0 I *D sg13g2_mux2_1
*I *5729:Q O *D sg13g2_dfrbpq_1
*CAP
1 *6073:A 0.000199226
2 *5376:A0 0.000143149
3 *5729:Q 0.000870648
4 *976:8 0.000814571
5 *5376:A0 *5360:S 0
6 *5376:A0 *1032:70 0
7 *976:8 *992:23 0
8 *976:8 *1069:26 0
9 boot_wdata[12] *976:8 2.21949e-05
10 *713:60 *5376:A0 0
*RES
1 *5729:Q *976:8 48.0134 
2 *976:8 *5376:A0 41.4008 
3 *5729:Q *6073:A 42.1012 
*END

*D_NET *977 0.00235708
*CONN
*I *6074:A I *D sg13g2_buf_1
*I *5378:A0 I *D sg13g2_mux2_1
*I *5731:Q O *D sg13g2_dfrbpq_1
*CAP
1 *6074:A 0.000385293
2 *5378:A0 0
3 *5731:Q 0.00114093
4 *977:10 0.000755639
5 *977:10 *1030:84 0
6 *977:10 *1031:57 0
7 *977:10 *1070:23 7.52149e-05
*RES
1 *5731:Q *977:10 48.3018 
2 *977:10 *5378:A0 40 
3 *5731:Q *6074:A 44.2642 
*END

*D_NET *978 0.00261142
*CONN
*I *5380:A0 I *D sg13g2_mux2_1
*I *6075:A I *D sg13g2_buf_1
*I *5733:Q O *D sg13g2_dfrbpq_1
*CAP
1 *5380:A0 0
2 *6075:A 0
3 *5733:Q 0
4 *978:27 0.00080968
5 *978:12 0.000448445
6 *978:4 0.00125813
7 *978:27 *5380:A1 1.53311e-05
8 *5381:A *978:27 0
9 *5381:B *978:27 7.9841e-05
10 *5397:B *978:27 0
11 *5703:CLK *978:12 0
12 *5733:RESET_B *978:27 0
*RES
1 *5733:Q *978:4 20 
2 *978:4 *978:12 45.459 
3 *978:12 *6075:A 20 
4 *978:4 *978:27 49.6099 
5 *978:27 *5380:A0 20 
*END

*D_NET *979 0.00234434
*CONN
*I *5382:A0 I *D sg13g2_mux2_1
*I *6076:A I *D sg13g2_buf_1
*I *5735:Q O *D sg13g2_dfrbpq_1
*CAP
1 *5382:A0 0.000217082
2 *6076:A 0.000304645
3 *5735:Q 0.000537898
4 *979:8 0.00105962
5 *5382:A0 *5382:A1 0
6 *979:8 *5382:S 0
7 *5383:B *5382:A0 0.000209637
8 *5383:B *6076:A 0
9 *5735:RESET_B *5382:A0 0
10 *6067:A *6076:A 0
11 *970:10 *5382:A0 0
12 *970:10 *6076:A 1.54556e-05
*RES
1 *5735:Q *979:8 47.0246 
2 *979:8 *6076:A 43.5226 
3 *979:8 *5382:A0 42.3999 
*END

*D_NET *980 0.00293978
*CONN
*I *6077:A I *D sg13g2_buf_1
*I *5058:A2 I *D sg13g2_o21ai_1
*I *5513:Q O *D sg13g2_dfrbpq_1
*CAP
1 *6077:A 0.000659632
2 *5058:A2 0.000291944
3 *5513:Q 6.52856e-05
4 *980:8 0.00101686
5 *5058:A1 *5058:A2 1.54556e-05
6 *5511:D *6077:A 0
7 *637:48 *6077:A 0
8 *706:64 *5058:A2 1.54556e-05
9 *706:75 *5058:A2 0.000639591
10 *706:75 *980:8 0.000235556
*RES
1 *5513:Q *980:8 41.0918 
2 *980:8 *5058:A2 43.7904 
3 *980:8 *6077:A 47.2409 
*END

*D_NET *981 0.00152058
*CONN
*I *5384:A0 I *D sg13g2_mux2_1
*I *6078:A I *D sg13g2_buf_1
*I *5737:Q O *D sg13g2_dfrbpq_1
*CAP
1 *5384:A0 0
2 *6078:A 3.08319e-05
3 *5737:Q 0.000204577
4 *981:23 0.000524881
5 *981:10 0.00076029
6 *981:23 *6079:A 0
7 boot_wdata[17] *981:10 0
8 boot_wdata[25] *6078:A 0
9 boot_wdata[25] *981:10 0
*RES
1 *5737:Q *981:10 22.1012 
2 *981:10 *6078:A 20.3193 
3 *981:10 *981:23 46.0358 
4 *981:23 *5384:A0 20 
*END

*D_NET *982 0.00372266
*CONN
*I *6079:A I *D sg13g2_buf_1
*I *5386:A0 I *D sg13g2_mux2_1
*I *5739:Q O *D sg13g2_dfrbpq_1
*CAP
1 *6079:A 0.000801633
2 *5386:A0 0.000747459
3 *5739:Q 0.000312235
4 *982:8 0.00186133
5 boot_wdata[17] *6079:A 0
6 boot_wdata[25] *6079:A 0
7 *5386:S *5386:A0 0
8 *5737:CLK *6079:A 0
9 *663:78 *5386:A0 0
10 *663:78 *6079:A 0
11 *667:25 *982:8 0
12 *718:60 *5386:A0 0
13 *718:62 *5386:A0 0
14 *972:23 *5386:A0 0
15 *972:23 *6079:A 0
16 *981:23 *6079:A 0
*RES
1 *5739:Q *982:8 42.9149 
2 *982:8 *5386:A0 49.2597 
3 *982:8 *6079:A 49.2288 
*END

*D_NET *983 0.00259925
*CONN
*I *6080:A I *D sg13g2_buf_1
*I *5388:A0 I *D sg13g2_mux2_1
*I *5741:Q O *D sg13g2_dfrbpq_1
*CAP
1 *6080:A 0.0003869
2 *5388:A0 0
3 *5741:Q 0.00111595
4 *983:10 0.000729046
5 *6080:A *996:32 0
6 *983:10 *996:32 0
7 *983:10 *997:25 0
8 *983:10 *1075:24 0
9 boot_wdata[26] *6080:A 0.000240035
10 boot_wdata[9] *6080:A 7.97181e-05
11 *6068:A *6080:A 0
12 *211:10 *983:10 0
13 *971:10 *6080:A 4.76034e-05
*RES
1 *5741:Q *983:10 48.3018 
2 *983:10 *5388:A0 40 
3 *5741:Q *6080:A 44.2642 
*END

*D_NET *984 0.00386801
*CONN
*I *6081:A I *D sg13g2_buf_1
*I *5390:A0 I *D sg13g2_mux2_1
*I *5743:Q O *D sg13g2_dfrbpq_1
*CAP
1 *6081:A 0.000254595
2 *5390:A0 0
3 *5743:Q 2.9025e-05
4 *984:14 0.000656825
5 *984:6 0.000940445
6 *984:14 *987:23 0.00173182
7 boot_wdata[27] *6081:A 0.000175882
8 boot_wdata[2] *984:14 7.94174e-05
*RES
1 *5743:Q *984:6 20.3502 
2 *984:6 *984:14 49.8777 
3 *984:14 *5390:A0 20 
4 *984:6 *6081:A 23.0488 
*END

*D_NET *985 0.00342656
*CONN
*I *6082:A I *D sg13g2_buf_1
*I *5392:A0 I *D sg13g2_mux2_1
*I *5745:Q O *D sg13g2_dfrbpq_1
*CAP
1 *6082:A 0.000387566
2 *5392:A0 0.00042805
3 *5745:Q 0.000485856
4 *985:12 0.00130147
5 *5392:A0 *990:25 0
6 *6082:A *990:25 0
7 *985:12 *990:25 0
8 boot_wdata[28] *6082:A 0
9 *5711:CLK *6082:A 4.77537e-05
10 *5745:RESET_B *6082:A 0
11 *5745:CLK *6082:A 0.00027465
12 *6034:A *985:12 0
13 *764:10 *5392:A0 0
14 *764:16 *5392:A0 0.000501218
*RES
1 *5745:Q *985:12 44.5423 
2 *985:12 *5392:A0 45.047 
3 *985:12 *6082:A 44.2127 
*END

*D_NET *986 0.00291151
*CONN
*I *6083:A I *D sg13g2_buf_1
*I *5394:A0 I *D sg13g2_mux2_1
*I *5747:Q O *D sg13g2_dfrbpq_1
*CAP
1 *6083:A 0.000389418
2 *5394:A0 0.000346343
3 *5747:Q 0.000965302
4 *986:10 0.000922227
5 boot_wdata[13] *6083:A 0
6 boot_wdata[29] *6083:A 0.000111491
7 *5379:B *5394:A0 0
8 *5395:B *986:10 0
9 *5399:B *5394:A0 0
10 *5851:A *5394:A0 0.000176732
11 *214:12 *986:10 0
12 *624:10 *5394:A0 0
*RES
1 *5747:Q *986:10 45.6135 
2 *986:10 *5394:A0 43.3475 
3 *5747:Q *6083:A 44.2642 
*END

*D_NET *987 0.00935616
*CONN
*I *6084:A I *D sg13g2_buf_1
*I *5340:A0 I *D sg13g2_mux2_1
*I *5693:Q O *D sg13g2_dfrbpq_1
*CAP
1 *6084:A 0
2 *5340:A0 0
3 *5693:Q 0
4 *987:23 0.000809288
5 *987:14 0.000848613
6 *987:4 0.0016579
7 *987:14 *5340:A1 0.000177295
8 *987:14 *1026:61 0.000112558
9 *987:14 *1032:8 0.00020973
10 *987:14 *1032:17 1.54008e-05
11 *987:23 *1067:43 0
12 *5320:A2 *987:14 0
13 *5320:A2 *987:23 0.000820897
14 *5391:B *987:23 0.000266077
15 *502:8 *987:23 0
16 *627:17 *987:23 0
17 *673:33 *987:14 0.000712758
18 *687:56 *987:14 0
19 *702:84 *987:14 0
20 *712:27 *987:23 0.00199383
21 *713:10 *987:14 0
22 *984:14 *987:23 0.00173182
*RES
1 *5693:Q *987:4 20 
2 *987:4 *987:14 49.6717 
3 *987:14 *5340:A0 20 
4 *987:4 *987:23 35.6766 
5 *987:23 *6084:A 40 
*END

*D_NET *988 0.00408389
*CONN
*I *6085:A I *D sg13g2_buf_1
*I *5396:A0 I *D sg13g2_mux2_1
*I *5749:Q O *D sg13g2_dfrbpq_1
*CAP
1 *6085:A 0.000858013
2 *5396:A0 0
3 *5749:Q 0
4 *988:25 0.000952498
5 *988:14 0.000860385
6 *988:4 0.000954871
7 *6085:A *6092:A 0
8 *6085:A *1030:28 0
9 *988:14 *1030:28 0.0001117
10 *5397:A *988:14 0
11 *5749:D *988:14 0
12 *478:8 *988:25 0.000346423
13 *647:12 *6085:A 0
*RES
1 *5749:Q *988:4 20 
2 *988:4 *988:14 49.9189 
3 *988:14 *5396:A0 20 
4 *988:4 *988:25 41.5862 
5 *988:25 *6085:A 29.1876 
*END

*D_NET *989 0.00177123
*CONN
*I *6086:A I *D sg13g2_buf_1
*I *5398:A0 I *D sg13g2_mux2_1
*I *5751:Q O *D sg13g2_dfrbpq_1
*CAP
1 *6086:A 0.000209331
2 *5398:A0 0
3 *5751:Q 0.000186598
4 *989:14 0.000433939
5 *989:8 0.000829868
6 boot_wdata[31] *6086:A 0.000111491
*RES
1 *5751:Q *989:8 21.9673 
2 *989:8 *989:14 45.2942 
3 *989:14 *5398:A0 20 
4 *989:8 *6086:A 22.3999 
*END

*D_NET *990 0.0042275
*CONN
*I *6087:A I *D sg13g2_buf_1
*I *5342:A0 I *D sg13g2_mux2_1
*I *5695:Q O *D sg13g2_dfrbpq_1
*CAP
1 *6087:A 0
2 *5342:A0 0.000772379
3 *5695:Q 0
4 *990:25 0.00128497
5 *990:6 0.00205735
6 *5342:A0 *1033:57 0
7 boot_wdata[11] *990:25 0
8 *5392:A0 *990:25 0
9 *5643:CLK *5342:A0 0.000112799
10 *5880:A *5342:A0 0
11 *5880:A *990:25 0
12 *5881:A *990:25 0
13 *6082:A *990:25 0
14 *713:18 *5342:A0 0
15 *764:16 *990:25 0
16 *985:12 *990:25 0
*RES
1 *5695:Q *990:6 40 
2 *990:6 *5342:A0 48.7653 
3 *990:6 *990:25 34.7084 
4 *990:25 *6087:A 20 
*END

*D_NET *991 0.00321722
*CONN
*I *6088:A I *D sg13g2_buf_1
*I *5061:A2 I *D sg13g2_o21ai_1
*I *5515:Q O *D sg13g2_dfrbpq_1
*CAP
1 *6088:A 0
2 *5061:A2 0
3 *5515:Q 0.00139982
4 *991:24 0.00115647
5 *991:10 0.000243356
6 *5062:A *991:10 0
7 *658:16 *991:10 0
8 *706:45 *991:10 0.000342449
9 *706:64 *991:10 7.51285e-05
*RES
1 *5515:Q *991:10 43.2342 
2 *991:10 *5061:A2 40 
3 *5515:Q *991:24 33.081 
4 *991:24 *6088:A 20 
*END

*D_NET *992 0.00448151
*CONN
*I *6089:A I *D sg13g2_buf_1
*I *5344:A0 I *D sg13g2_mux2_1
*I *5697:Q O *D sg13g2_dfrbpq_1
*CAP
1 *6089:A 0
2 *5344:A0 0.000582575
3 *5697:Q 0.000133429
4 *992:23 0.00143415
5 *992:8 0.00215016
6 *992:23 *1069:26 0
7 *5324:B *992:8 0
8 *684:29 *5344:A0 0
9 *684:40 *5344:A0 0
10 *712:51 *992:23 0.000181192
11 *713:35 *5344:A0 0
12 *713:35 *992:23 0
13 *967:8 *992:23 0
14 *976:8 *992:23 0
*RES
1 *5697:Q *992:8 41.4008 
2 *992:8 *5344:A0 47.0246 
3 *992:8 *992:23 36.4903 
4 *992:23 *6089:A 20 
*END

*D_NET *993 0.00830784
*CONN
*I *5346:A0 I *D sg13g2_mux2_1
*I *6090:A I *D sg13g2_buf_1
*I *5699:Q O *D sg13g2_dfrbpq_1
*CAP
1 *5346:A0 0
2 *6090:A 6.10609e-05
3 *5699:Q 0
4 *993:27 0.000432395
5 *993:8 0.000852773
6 *993:4 0.00122411
7 *993:8 *5394:A1 0
8 *993:8 *5986:A 0
9 *993:27 *6027:A 0
10 *993:27 *1030:117 0.00124602
11 *993:27 *1061:34 0
12 *993:27 *1084:10 0
13 *541:8 *993:8 0
14 *679:53 *993:8 0.00279603
15 *679:53 *993:27 0.0015668
16 *711:12 *993:27 0
17 *711:20 *993:27 0.000128662
*RES
1 *5699:Q *993:4 20 
2 *993:4 *993:8 32.9574 
3 *993:8 *6090:A 40.6695 
4 *993:4 *993:27 48.549 
5 *993:27 *5346:A0 20 
*END

*D_NET *994 0.00200138
*CONN
*I *5348:A0 I *D sg13g2_mux2_1
*I *6091:A I *D sg13g2_buf_1
*I *5701:Q O *D sg13g2_dfrbpq_1
*CAP
1 *5348:A0 0
2 *6091:A 0.000752508
3 *5701:Q 0.000240456
4 *994:10 0.000992964
5 *6091:A *5348:A1 1.54556e-05
6 *994:10 *5348:A1 0
7 *69:20 *6091:A 0
8 *69:20 *994:10 0
*RES
1 *5701:Q *994:10 22.8119 
2 *994:10 *6091:A 28.5181 
3 *994:10 *5348:A0 20 
*END

*D_NET *995 0.00226477
*CONN
*I *5350:A0 I *D sg13g2_mux2_1
*I *6092:A I *D sg13g2_buf_1
*I *5703:Q O *D sg13g2_dfrbpq_1
*CAP
1 *5350:A0 0
2 *6092:A 0.00023317
3 *5703:Q 0
4 *995:23 0.000542005
5 *995:4 0.000775175
6 *995:23 *1030:20 0.000714418
7 *5367:A *995:23 0
8 *5719:RESET_B *995:23 0
9 *5719:D *995:23 0
10 *6085:A *6092:A 0
11 *647:12 *995:23 0
12 *711:81 *995:23 0
*RES
1 *5703:Q *995:4 20 
2 *995:4 *6092:A 22.781 
3 *995:4 *995:23 46.1079 
4 *995:23 *5350:A0 20 
*END

*D_NET *996 0.00523601
*CONN
*I *6093:A I *D sg13g2_buf_1
*I *5352:A0 I *D sg13g2_mux2_1
*I *5705:Q O *D sg13g2_dfrbpq_1
*CAP
1 *6093:A 0
2 *5352:A0 0
3 *5705:Q 0.000694766
4 *996:32 0.00183239
5 *996:24 0.00183239
6 *996:10 0.000694766
7 *996:10 *5316:B 0
8 *996:32 *1075:24 0
9 *5318:B *996:10 0
10 *5318:B *996:32 0
11 *5741:CLK *996:32 0
12 *5922:A *996:10 0
13 *6080:A *996:32 0
14 *500:8 *996:32 0
15 *619:14 *996:32 0
16 *628:36 *996:32 0
17 *628:61 *996:32 0
18 *663:46 *996:10 0.000181694
19 *690:31 *996:10 0
20 *717:81 *996:32 0
21 *913:10 *996:32 0
22 *983:10 *996:32 0
*RES
1 *5705:Q *996:10 48.1782 
2 *996:10 *5352:A0 40 
3 *5705:Q *996:24 40 
4 *996:24 *996:32 40.3322 
5 *996:32 *6093:A 20 
*END

*D_NET *997 0.00688297
*CONN
*I *6094:A I *D sg13g2_buf_1
*I *5354:A0 I *D sg13g2_mux2_1
*I *5707:Q O *D sg13g2_dfrbpq_1
*CAP
1 *6094:A 0
2 *5354:A0 0.000638032
3 *5707:Q 2.8697e-05
4 *997:25 0.0020296
5 *997:8 0.00269633
6 boot_wdata[8] *997:25 0
7 *5288:C *997:8 4.77863e-05
8 *5311:A1 *997:25 0
9 *5312:B *997:25 0.000288917
10 *5368:A0 *997:25 0
11 *480:8 *997:25 0.000554077
12 *664:14 *5354:A0 0
13 *664:59 *5354:A0 0
14 *668:48 *997:8 0
15 *668:60 *5354:A0 0
16 *675:26 *5354:A0 0.000448098
17 *689:48 *997:25 2.22695e-05
18 *702:24 *5354:A0 0.000129163
19 *702:68 *997:25 0
20 *717:10 *5354:A0 0
21 *717:22 *5354:A0 0
22 *717:51 *5354:A0 0
23 *717:51 *997:25 0
24 *983:10 *997:25 0
*RES
1 *5707:Q *997:8 40.3193 
2 *997:8 *5354:A0 47.7662 
3 *997:8 *997:25 42.0317 
4 *997:25 *6094:A 20 
*END

*D_NET *998 0.000398453
*CONN
*I *6095:A I *D sg13g2_buf_1
*I *5687:Q O *D sg13g2_dfrbpq_1
*CAP
1 *6095:A 0.000199226
2 *5687:Q 0.000199226
*RES
1 *5687:Q *6095:A 42.1012 
*END

*D_NET *999 0.00502074
*CONN
*I *6096:A I *D sg13g2_buf_1
*I *5403:B I *D sg13g2_nand2b_1
*I *5755:Q O *D sg13g2_dfrbpq_1
*CAP
1 *6096:A 0
2 *5403:B 0
3 *5755:Q 0.00251037
4 *999:28 0.00205816
5 *999:10 0.000452215
*RES
1 *5755:Q *999:10 45.4281 
2 *999:10 *5403:B 40 
3 *5755:Q *999:28 43.2677 
4 *999:28 *6096:A 20 
*END

*D_NET *1000 0.00796498
*CONN
*I *6097:A I *D sg13g2_buf_1
*I *5401:B I *D sg13g2_nand2_1
*I *5753:Q O *D sg13g2_dfrbpq_1
*CAP
1 *6097:A 6.10931e-05
2 *5401:B 0.000121785
3 *5753:Q 0.00345669
4 *1000:28 0.00301937
5 *1000:8 0.000620195
6 *1000:8 *1017:52 0
7 *5014:A2 *5401:B 0
8 *5044:B *1000:28 0.000209016
9 *5046:A2 *1000:28 0
10 *5402:B *5401:B 4.78688e-05
11 *5503:D *1000:28 0
12 *5505:CLK *1000:28 0
13 *5811:D *1000:8 7.52158e-05
14 *5823:CLK *1000:28 0
15 *5871:A *1000:28 0
16 *6057:A *1000:28 0
17 *6059:A *1000:28 0
18 *611:6 *1000:28 0
19 *645:12 *1000:8 0
20 *645:18 *1000:8 0
21 *667:42 *1000:28 0
22 *716:20 *1000:28 0
23 *716:44 *5401:B 0.000209676
24 *864:36 *6097:A 0.000128618
25 *864:36 *1000:28 1.54556e-05
26 *887:25 *1000:28 0
*RES
1 *5753:Q *1000:8 44.3054 
2 *1000:8 *5401:B 41.4008 
3 *5753:Q *1000:28 48.8006 
4 *1000:28 *6097:A 20.8446 
*END

*D_NET *1001 0.00605791
*CONN
*I *5458:A I *D sg13g2_nor2_1
*I *6098:A I *D sg13g2_buf_1
*I *5789:Q O *D sg13g2_dfrbpq_1
*CAP
1 *5458:A 0
2 *6098:A 0
3 *5789:Q 0.00013326
4 *1001:25 0.000518178
5 *1001:12 0.00237752
6 *1001:6 0.00302896
7 *5789:CLK *1001:25 0
8 *6041:A *1001:12 0
9 *844:10 *1001:6 0
10 *844:10 *1001:12 0
11 *844:10 *1001:25 0
*RES
1 *5789:Q *1001:6 21.4008 
2 *1001:6 *1001:12 47.5525 
3 *1001:12 *6098:A 40 
4 *1001:6 *1001:25 45.5414 
5 *1001:25 *5458:A 20 
*END

*D_NET *1002 0.00198275
*CONN
*I *5064:A2 I *D sg13g2_o21ai_1
*I *6099:A I *D sg13g2_buf_1
*I *5517:Q O *D sg13g2_dfrbpq_1
*CAP
1 *5064:A2 0
2 *6099:A 0.000205667
3 *5517:Q 0.00053519
4 *1002:10 0.000740857
5 *5063:A *1002:10 0
6 *5064:B1 *6099:A 0
7 *658:41 *1002:10 0.00050104
*RES
1 *5517:Q *1002:10 46.4478 
2 *1002:10 *6099:A 42.3999 
3 *1002:10 *5064:A2 40 
*END

*D_NET *1003 0.00086186
*CONN
*I *5913:A I *D sg13g2_buf_1
*I *5807:Q O *D sg13g2_dfrbpq_1
*CAP
1 *5913:A 0.00043093
2 *5807:Q 0.00043093
3 *5913:A *5474:D 0
4 *633:45 *5913:A 0
*RES
1 *5807:Q *5913:A 44.1921 
*END

*D_NET *1004 0.0151542
*CONN
*I *5412:B I *D sg13g2_nand3_1
*I *5455:B I *D sg13g2_nor2_1
*I *5452:B I *D sg13g2_nor2_1
*I *5446:B I *D sg13g2_nor2_1
*I *5444:B I *D sg13g2_nor2_1
*I *5440:C I *D sg13g2_nor3_1
*I *5449:B I *D sg13g2_nor2_1
*I *5458:B I *D sg13g2_nor2_1
*I *5951:X O *D sg13g2_buf_1
*CAP
1 *5412:B 0.000717139
2 *5455:B 3.65091e-05
3 *5452:B 0
4 *5446:B 9.52347e-05
5 *5444:B 0.000160746
6 *5440:C 0.000218898
7 *5449:B 0.000198977
8 *5458:B 0.000842334
9 *5951:X 0.000921923
10 *1004:116 0.00155059
11 *1004:101 0.000869961
12 *1004:99 0.000240904
13 *1004:56 0.000511263
14 *1004:50 0.00129336
15 *1004:44 0.00140954
16 *1004:29 0.00112968
17 *1004:18 0.00147825
18 *1004:14 0.000860296
19 *5412:B *5412:A 0
20 *5412:B *5427:B 0
21 *5412:B *5435:A1 0
22 *5440:C *1009:38 0
23 *5444:B *5447:B 0
24 *5444:B *1009:48 0
25 *5446:B *5446:A 0
26 *5449:B *1134:12 0
27 *5458:B *1009:58 0
28 *1004:14 *5453:D 0
29 *1004:14 *1011:29 0
30 *1004:14 *1027:34 0.000371965
31 *1004:14 *1027:64 0
32 *1004:18 *1135:8 0
33 *1004:29 *1134:18 0
34 *1004:44 *1134:8 0
35 *1004:44 *1134:18 0
36 *1004:50 *5443:A 0
37 *1004:50 *5446:A 4.79124e-05
38 *1004:50 *1009:48 0
39 *1004:50 *1009:56 0
40 *1004:50 *1027:18 0
41 *1004:50 *1027:24 0
42 *1004:99 *1027:64 0
43 *1004:116 *5455:A 0
44 *1004:116 *1121:25 0.000112108
45 *5412:C *5412:B 0.000274452
46 *5430:A *1004:116 0.000112108
47 *5431:A2 *1004:116 0
48 *5442:B1 *1004:50 0
49 *5448:C *5446:B 0
50 *5450:C *1004:50 0
51 *5454:D *1004:14 0
52 *5457:C *5455:B 0
53 *5769:CLK *1004:116 0
54 *5781:D *5446:B 0
55 *5781:D *1004:50 0
56 *5783:CLK *1004:29 0
57 *5783:CLK *1004:44 0
58 *5789:CLK *5458:B 0
59 *5876:A *5449:B 0
60 *5877:A *1004:14 4.73096e-05
61 *5877:A *1004:99 0.000209867
62 *69:20 *5449:B 0
63 *69:20 *1004:44 0
64 *69:20 *1004:50 0
65 *232:10 *5449:B 0
66 *232:10 *1004:29 0.000287846
67 *233:8 *5458:B 0
68 *246:10 *5444:B 0.000212127
69 *246:10 *1004:50 2.20966e-05
70 *557:12 *5412:B 0
71 *557:12 *1004:116 0
72 *561:8 *1004:116 0.000501546
73 *563:8 *5412:B 0
74 *573:8 *5440:C 0
75 *574:10 *5444:B 0
76 *578:8 *1004:29 0
77 *578:8 *1004:44 0
78 *580:8 *5458:B 0
79 *581:8 *5458:B 0
80 *581:8 *1004:29 0
81 *584:10 *5458:B 0
82 *605:193 *1004:56 0
83 *605:197 *1004:56 0
84 *648:12 *5458:B 0
85 *648:14 *5458:B 0
86 *648:62 *5458:B 0
87 *648:62 *1004:29 0
88 *680:12 *5444:B 0
89 *680:22 *1004:50 0
90 *680:55 *1004:14 0
91 *693:41 *5412:B 0
92 *693:47 *1004:116 0
93 *714:39 *1004:14 0.000144765
94 *714:39 *1004:18 0.000274545
95 *830:10 *1004:116 0
*RES
1 *5951:X *1004:14 26.6825 
2 *1004:14 *1004:18 21.8334 
3 *1004:18 *5458:B 47.7662 
4 *1004:18 *1004:29 4.5526 
5 *1004:29 *5449:B 41.8334 
6 *1004:29 *1004:44 24.4702 
7 *1004:44 *1004:50 27.931 
8 *1004:50 *1004:56 43.7801 
9 *1004:56 *5440:C 42.0497 
10 *1004:50 *5444:B 41.8334 
11 *1004:44 *5446:B 21.3802 
12 *1004:14 *5452:B 20 
13 *5951:X *1004:99 42.7398 
14 *1004:99 *1004:101 20 
15 *1004:101 *5455:B 20.3502 
16 *1004:101 *1004:116 49.1361 
17 *1004:116 *5412:B 27.2409 
*END

*D_NET *1005 0.0118311
*CONN
*I *5175:B I *D sg13g2_nand4_1
*I *5177:C I *D sg13g2_nand4_1
*I *5182:C I *D sg13g2_nand4_1
*I *5208:B I *D sg13g2_and4_1
*I *5210:B I *D sg13g2_nand4_1
*I *5194:C I *D sg13g2_and4_1
*I *5196:C I *D sg13g2_nand4_1
*I *5200:B I *D sg13g2_nand4_1
*I *5952:X O *D sg13g2_buf_1
*CAP
1 *5175:B 0
2 *5177:C 0
3 *5182:C 0.000515596
4 *5208:B 0.000193955
5 *5210:B 0
6 *5194:C 0.000245814
7 *5196:C 0
8 *5200:B 0.00012403
9 *5952:X 0
10 *1005:86 0.000210882
11 *1005:78 0.00038916
12 *1005:65 0.00184919
13 *1005:16 0.000153573
14 *1005:14 0.000685667
15 *1005:10 0.000489708
16 *1005:8 0.000351834
17 *1005:4 0.0012338
18 *5182:C *4991:C 0
19 *5182:C *1008:53 0.000160891
20 *5182:C *1008:59 0.000242203
21 *5182:C *1102:25 0.000404082
22 *5182:C *1103:40 0
23 *5200:B *5196:A 0
24 *1005:65 *1015:20 0
25 *1005:78 *1015:20 0
26 *1005:78 *1096:76 0.000443216
27 *1005:78 *1097:47 0.000496248
28 *1005:86 *1008:59 0
29 *5175:A *1005:86 4.77425e-05
30 *5177:B *1005:86 0.000127553
31 *5177:D *1005:86 0.000240556
32 *5179:A2 *1005:86 0
33 *5182:B *5182:C 7.97948e-05
34 *5182:D *5182:C 0.000273568
35 *5200:A *5200:B 0.000410939
36 *5210:A *1005:10 3.24568e-05
37 *286:64 *5182:C 0
38 *288:35 *1005:65 0
39 *367:20 *1005:65 0
40 *367:30 *5194:C 0.000128663
41 *367:30 *5200:B 5.33604e-05
42 *367:30 *1005:8 0
43 *367:30 *1005:10 1.54556e-05
44 *367:30 *1005:14 0.00014502
45 *367:30 *1005:16 0.000128247
46 *404:8 *1005:65 0
47 *405:16 *1005:65 0.000500214
48 *412:8 *5194:C 0
49 *412:18 *5194:C 0
50 *412:18 *1005:16 0
51 *412:26 *5200:B 0.000517691
52 *412:26 *1005:16 5.30319e-05
53 *412:33 *1005:14 1.54008e-05
54 *412:40 *1005:14 0.000598581
55 *412:51 *5208:B 1.54008e-05
56 *412:51 *1005:10 0.000129487
57 *412:51 *1005:14 4.78195e-05
58 *412:62 *5208:B 8.02763e-05
*RES
1 *5952:X *1005:4 20 
2 *1005:4 *1005:8 0.9167 
3 *1005:8 *1005:10 0.9682 
4 *1005:10 *1005:14 24.2127 
5 *1005:14 *1005:16 0.5974 
6 *1005:16 *5200:B 42.6471 
7 *1005:16 *5196:C 40 
8 *1005:14 *5194:C 42.8222 
9 *1005:10 *5210:B 20 
10 *1005:8 *5208:B 22.3175 
11 *1005:4 *1005:65 32.0407 
12 *1005:65 *5182:C 45.5105 
13 *1005:65 *1005:78 22.8222 
14 *1005:78 *1005:86 42.2145 
15 *1005:86 *5177:C 20 
16 *1005:78 *5175:B 20 
*END

*D_NET *1006 0.00449519
*CONN
*I *5163:B I *D sg13g2_and4_1
*I *5168:C I *D sg13g2_nand4_1
*I *5171:D I *D sg13g2_and4_1
*I *5164:A2 I *D sg13g2_a21o_1
*I *5953:X O *D sg13g2_buf_1
*CAP
1 *5163:B 0
2 *5168:C 0
3 *5171:D 0.00037987
4 *5164:A2 0.000179479
5 *5953:X 0.000415522
6 *1006:31 0.00128218
7 *1006:25 0.000975232
8 *1006:10 0.000667924
9 *5164:A2 *1096:18 0.000129205
10 *5171:D *1008:144 0
11 *5171:D *1018:18 0
12 *5163:C *1006:25 1.54008e-05
13 *5163:C *1006:31 8.00842e-05
14 *5166:D *1006:10 0
15 *5171:B *5171:D 0
16 *5172:B2 *5171:D 0
17 *5589:RESET_B *1006:31 0
18 *135:12 *1006:31 0
19 *269:14 *5171:D 0
20 *286:43 *5171:D 0
21 *286:43 *1006:31 0
22 *288:18 *1006:31 0
23 *292:12 *1006:10 0
24 *352:16 *5164:A2 8.85861e-05
25 *358:22 *1006:31 0.000177755
26 *358:64 *5171:D 1.54556e-05
27 *367:16 *5164:A2 8.84981e-05
28 *367:16 *1006:25 0
29 *367:16 *1006:31 0
30 *392:10 *5164:A2 0
31 *392:10 *1006:10 0
32 *657:16 *5171:D 0
33 *657:16 *1006:31 0
34 *708:66 *1006:25 0
35 *708:66 *1006:31 0
*RES
1 *5953:X *1006:10 43.5741 
2 *1006:10 *5164:A2 41.6944 
3 *1006:10 *1006:25 20.7519 
4 *1006:25 *1006:31 28.4872 
5 *1006:31 *5171:D 43.3324 
6 *1006:31 *5168:C 40 
7 *1006:25 *5163:B 20 
*END

*D_NET *1007 0.0237223
*CONN
*I *5119:B I *D sg13g2_nor3_1
*I *5137:B I *D sg13g2_nor3_1
*I *5143:B I *D sg13g2_nor3_1
*I *5150:A I *D sg13g2_nor3_1
*I *5162:C1 I *D sg13g2_a221oi_1
*I *5154:A I *D sg13g2_nor3_1
*I *5123:B I *D sg13g2_nor3_1
*I *5116:B I *D sg13g2_nor3_1
*I *5954:X O *D sg13g2_buf_1
*CAP
1 *5119:B 5.22763e-05
2 *5137:B 0
3 *5143:B 3.21465e-05
4 *5150:A 0
5 *5162:C1 0
6 *5154:A 0.000240613
7 *5123:B 0
8 *5116:B 0.00010485
9 *5954:X 4.9489e-05
10 *1007:92 0.000113779
11 *1007:81 0.00103297
12 *1007:62 0.00176961
13 *1007:58 0.00147054
14 *1007:52 0.00143421
15 *1007:46 0.000836707
16 *1007:42 0.00115921
17 *1007:36 0.00131221
18 *1007:25 0.000893168
19 *1007:10 0.0011433
20 *1007:6 0.000590892
21 *5154:A *5152:A 0.000112412
22 *5154:A *1094:20 0
23 *1007:36 *1008:19 0
24 *1007:42 *1090:12 0.00050124
25 *1007:52 *1090:36 0
26 *1007:81 *1094:16 0
27 *1007:81 *1094:20 0.000395396
28 *1007:92 *1093:12 0
29 *5116:C *5116:B 0.000144208
30 *5117:B *5116:B 0
31 *5119:C *5119:B 1.54008e-05
32 *5119:C *1007:36 0.000241351
33 *5123:C *1007:25 1.54008e-05
34 *5137:A *1007:52 0.000372141
35 *5140:A2 *1007:52 0.000288173
36 *5143:A *5143:B 0
37 *5143:C *5143:B 4.78359e-05
38 *5146:A2 *1007:58 4.77425e-05
39 *5150:B *1007:58 0
40 *5151:A1 *1007:62 0
41 *5153:B *1007:62 0
42 *5154:C *5154:A 0.000112426
43 *5162:B2 *1007:81 0.00020901
44 *5583:D *1007:81 0
45 *5862:A *1007:81 0
46 *5865:A *1007:46 0
47 *5940:A *1007:6 8.0057e-05
48 *5940:A *1007:36 0
49 *126:8 *1007:42 0
50 *126:8 *1007:52 0
51 *348:32 *1007:81 0.00121306
52 *349:10 *1007:10 0.000340704
53 *349:25 *1007:10 0.000448515
54 *349:25 *1007:25 0.00218375
55 *374:48 *1007:62 0.000112426
56 *374:69 *5154:A 0
57 *374:76 *1007:58 0.000226709
58 *374:76 *1007:62 0.000533805
59 *374:84 *1007:92 0
60 *377:6 *1007:62 0.000144767
61 *380:8 *5154:A 0.000181601
62 *608:23 *1007:52 0.000128663
63 *636:42 *1007:36 0.000403575
64 *636:42 *1007:42 0
65 *662:40 *1007:10 0.000770114
66 *662:40 *1007:25 0.00221582
67 *691:29 *1007:81 0
68 *705:117 *1007:46 0
69 *705:117 *1007:52 0
70 *707:33 *1007:25 0
*RES
1 *5954:X *1007:6 20.5356 
2 *1007:6 *1007:10 23.5638 
3 *1007:10 *5116:B 40.9682 
4 *1007:10 *1007:25 35.0998 
5 *1007:25 *5123:B 20 
6 *1007:6 *1007:36 4.5114 
7 *1007:36 *1007:42 30.2485 
8 *1007:42 *1007:46 22.9149 
9 *1007:46 *1007:52 27.3439 
10 *1007:52 *1007:58 30.3103 
11 *1007:58 *1007:62 25.5105 
12 *1007:62 *5154:A 42.8325 
13 *1007:62 *1007:81 32.2055 
14 *1007:81 *5162:C1 20 
15 *1007:58 *1007:92 41.0918 
16 *1007:92 *5150:A 20 
17 *1007:52 *5143:B 40.3193 
18 *1007:46 *5137:B 20 
19 *1007:36 *5119:B 20.5356 
*END

*D_NET *1008 0.0289779
*CONN
*I *5169:C1 I *D sg13g2_a221oi_1
*I *5172:C1 I *D sg13g2_a221oi_1
*I *5212:C1 I *D sg13g2_a221oi_1
*I *5203:C1 I *D sg13g2_a221oi_1
*I *5201:C1 I *D sg13g2_a221oi_1
*I *5176:C1 I *D sg13g2_a221oi_1
*I *5181:C1 I *D sg13g2_a221oi_1
*I *5954:A I *D sg13g2_buf_1
*I *5955:X O *D sg13g2_buf_1
*CAP
1 *5169:C1 0.000464961
2 *5172:C1 0
3 *5212:C1 3.00333e-05
4 *5203:C1 0
5 *5201:C1 0.000166033
6 *5176:C1 0.000287906
7 *5181:C1 5.01531e-05
8 *5954:A 0.000122038
9 *5955:X 0
10 *1008:144 3.90759e-05
11 *1008:124 0.000178247
12 *1008:109 0.000752934
13 *1008:105 0.00108852
14 *1008:95 0.00202982
15 *1008:80 0.000738633
16 *1008:59 0.00123158
17 *1008:53 0.00224683
18 *1008:45 0.000919967
19 *1008:37 0.00158627
20 *1008:31 0.00128839
21 *1008:29 0.000373115
22 *1008:23 0.0023949
23 *1008:19 0.00310438
24 *1008:4 0.00120463
25 *5169:C1 *1015:107 0
26 *5176:C1 *5170:D 0
27 *5176:C1 *5173:B 0
28 *1008:19 *1114:10 0
29 *1008:19 *1114:23 0
30 *1008:23 *5008:B 0
31 *1008:23 *1018:10 0.000851061
32 *1008:23 *1018:108 0.00223363
33 *1008:23 *1096:12 0.00030502
34 *1008:23 *1096:18 4.76456e-05
35 *1008:23 *1114:25 0
36 *1008:23 *1117:29 0
37 *1008:23 *1118:33 0.000561715
38 *1008:23 *1118:41 8.00842e-05
39 *1008:37 *1015:12 0
40 *1008:37 *1096:58 0
41 *1008:37 *1097:16 0
42 *1008:37 *1097:22 0
43 *1008:45 *4991:C 0.000176436
44 *1008:45 *4991:D 0
45 *1008:45 *5174:B 0
46 *1008:45 *5174:A 0
47 *1008:45 *1096:58 0
48 *1008:45 *1097:47 0
49 *1008:53 *1015:20 0.000181192
50 *1008:80 *5170:D 7.9768e-05
51 *1008:80 *1096:76 0.000234158
52 *1008:80 *1097:47 0.000235378
53 *1008:95 *5192:D 0
54 *1008:95 *1017:84 0
55 *1008:95 *1102:31 0.000714832
56 *1008:105 *4967:A 0.000122871
57 *1008:124 *1105:26 0
58 *5105:B *1008:23 0
59 *5116:C *1008:19 0
60 *5171:B *1008:144 0
61 *5171:D *1008:144 0
62 *5176:B2 *5176:C1 0
63 *5177:B *1008:59 0
64 *5181:B1 *1008:59 0
65 *5182:C *1008:53 0.000160891
66 *5182:C *1008:59 0.000242203
67 *5182:D *1008:59 0
68 *5200:D *1008:105 0
69 *5201:B1 *5201:C1 0
70 *5201:B1 *1008:105 0
71 *5203:B2 *5201:C1 0
72 *5203:B2 *1008:124 4.77534e-05
73 *5211:A *5212:C1 0
74 *5212:B2 *5212:C1 1.54556e-05
75 *5595:D *5181:C1 4.75265e-05
76 *5595:D *1008:80 0
77 *5609:D *5212:C1 4.78359e-05
78 *5609:CLK *1008:109 0
79 *5940:A *5954:A 0
80 *5955:A *5954:A 0
81 *251:8 *1008:105 0
82 *286:35 *1008:29 0
83 *286:35 *1008:37 0
84 *286:64 *1008:53 0
85 *286:64 *1008:59 0
86 *288:10 *1008:37 0
87 *349:25 *1008:19 0
88 *354:12 *1008:19 0.00028826
89 *357:8 *1008:19 0
90 *367:12 *1008:23 0
91 *367:20 *1008:59 0
92 *367:20 *1008:95 0
93 *367:75 *1008:23 0
94 *390:28 *5181:C1 4.75265e-05
95 *390:28 *1008:80 0
96 *397:8 *5176:C1 0.000143273
97 *398:33 *1008:95 0.000234224
98 *425:10 *1008:95 0.000361891
99 *620:25 *1008:109 0
100 *629:47 *1008:124 0.000395396
101 *636:42 *1008:19 0
102 *636:48 *1008:19 0.000823472
103 *719:25 *1008:19 0
104 *1005:86 *1008:59 0
105 *1007:36 *1008:19 0
*RES
1 *5955:X *1008:4 20 
2 *1008:4 *5954:A 21.3493 
3 *1008:4 *1008:19 31.3609 
4 *1008:19 *1008:23 41.733 
5 *1008:23 *1008:29 43.7801 
6 *1008:29 *1008:31 20 
7 *1008:31 *1008:37 28.7962 
8 *1008:37 *1008:45 47.1276 
9 *1008:45 *1008:53 42.0291 
10 *1008:53 *1008:59 26.6641 
11 *1008:59 *5181:C1 40.6386 
12 *1008:59 *1008:80 45.2839 
13 *1008:80 *5176:C1 42.8325 
14 *1008:53 *1008:95 34.935 
15 *1008:95 *1008:105 47.5705 
16 *1008:105 *1008:109 23.3475 
17 *1008:109 *5201:C1 21.6171 
18 *1008:109 *1008:124 42.1527 
19 *1008:124 *5203:C1 20 
20 *1008:95 *5212:C1 40.3193 
21 *1008:37 *1008:144 40.3502 
22 *1008:144 *5172:C1 20 
23 *1008:31 *5169:C1 45.2942 
*END

*D_NET *1009 0.0170128
*CONN
*I *5418:C I *D sg13g2_nor4_1
*I *5440:A I *D sg13g2_nor3_1
*I *5445:B I *D sg13g2_nor4_1
*I *5448:B I *D sg13g2_nor4_1
*I *5451:B I *D sg13g2_nor4_1
*I *5454:B I *D sg13g2_nor4_1
*I *5457:B I *D sg13g2_nor4_1
*I *5460:B I *D sg13g2_nor4_1
*I *5956:X O *D sg13g2_buf_1
*CAP
1 *5418:C 0
2 *5440:A 0
3 *5445:B 0
4 *5448:B 0.000115952
5 *5451:B 6.78234e-05
6 *5454:B 7.39409e-05
7 *5457:B 0
8 *5460:B 0.000502301
9 *5956:X 0.000206224
10 *1009:75 0.000445133
11 *1009:58 0.00157037
12 *1009:56 0.00140044
13 *1009:48 0.00162779
14 *1009:38 0.00126943
15 *1009:24 0.00295054
16 *1009:8 0.00261556
17 *5448:B *1011:81 0
18 *5460:B *1011:46 0
19 *1009:8 *5437:A 0
20 *1009:24 *5437:C 0
21 *1009:24 *5959:A 0
22 *1009:24 *1052:16 0
23 *1009:24 *1126:18 0.000209615
24 *1009:24 *1126:42 9.72391e-05
25 *1009:38 *5443:B 0
26 *1009:48 *5443:A 0.000111416
27 *1009:48 *5443:D 0
28 *1009:48 *5447:B 7.52158e-05
29 *1009:48 *1011:81 0
30 *1009:56 *5450:B 0.000395068
31 *1009:56 *1133:8 0
32 *1009:56 *1134:8 0
33 *1009:56 *1134:18 0
34 *1009:58 *1134:18 0
35 *1009:75 *1135:14 0
36 *5418:A *1009:8 0
37 *5418:B *1009:8 3.23417e-05
38 *5418:B *1009:24 4.78356e-05
39 *5418:D *1009:24 8.02914e-05
40 *5421:A2 *1009:24 0
41 *5422:D *1009:24 0
42 *5440:C *1009:38 0
43 *5444:B *1009:48 0
44 *5445:C *1009:38 4.77425e-05
45 *5445:C *1009:48 8.00842e-05
46 *5445:D *1009:48 0
47 *5448:A *5448:B 1.54556e-05
48 *5448:A *1009:56 0.000176472
49 *5448:D *5448:B 0
50 *5451:A *5451:B 0.000112558
51 *5451:C *5451:B 4.78195e-05
52 *5454:D *5454:B 0
53 *5458:B *1009:58 0
54 *5460:D *5460:B 0
55 *5486:B1 *1009:24 1.54556e-05
56 *5486:B1 *1009:38 0.000468343
57 *5486:B1 *1009:48 0
58 *5486:A1 *1009:38 6.29645e-05
59 *5487:A *1009:24 0.000339228
60 *5487:C *1009:24 0
61 *5759:D *1009:8 0
62 *5759:D *1009:24 0
63 *5763:CLK *1009:24 0
64 *5775:RESET_B *1009:24 0
65 *5785:RESET_B *5460:B 0
66 *5789:D *5460:B 0
67 *69:20 *5451:B 0
68 *222:10 *1009:24 8.0276e-05
69 *233:8 *5460:B 0
70 *246:10 *1009:48 0.000234726
71 *552:12 *1009:24 0
72 *556:27 *1009:24 0
73 *573:8 *1009:24 0
74 *573:8 *1009:38 0
75 *579:10 *1009:56 0.000288173
76 *580:8 *1009:58 0
77 *581:8 *1009:58 0
78 *650:18 *1009:24 0
79 *650:64 *1009:48 0
80 *680:12 *1009:38 0
81 *680:106 *1009:48 0
82 *682:24 *1009:24 0.000404224
83 *693:55 *1009:75 0.000344523
84 *693:69 *5454:B 0.000112558
85 *693:69 *5460:B 0
86 *693:69 *1009:58 0
87 *693:75 *5460:B 0
88 *693:87 *1009:58 0
89 *714:33 *1009:58 0.000287672
90 *1004:50 *1009:48 0
91 *1004:50 *1009:56 0
*RES
1 *5956:X *1009:8 21.9673 
2 *1009:8 *1009:24 24.4369 
3 *1009:24 *1009:38 45.5826 
4 *1009:38 *1009:48 46.6441 
5 *1009:48 *1009:56 27.8486 
6 *1009:56 *1009:58 5.047 
7 *1009:58 *5460:B 45.3045 
8 *1009:58 *1009:75 45.5105 
9 *1009:75 *5457:B 40 
10 *1009:58 *5454:B 40.7519 
11 *1009:56 *5451:B 40.7519 
12 *1009:48 *5448:B 21.5347 
13 *1009:38 *5445:B 20 
14 *1009:24 *5440:A 20 
15 *1009:8 *5418:C 20 
*END

*D_NET *1010 0.0107947
*CONN
*I *5420:A I *D sg13g2_nor4_1
*I *5428:C1 I *D sg13g2_a221oi_1
*I *5422:C I *D sg13g2_nor4_1
*I *5437:C I *D sg13g2_nand3_1
*I *5957:X O *D sg13g2_buf_1
*CAP
1 *5420:A 0.00026256
2 *5428:C1 0
3 *5422:C 0
4 *5437:C 0.000773679
5 *5957:X 0.000533632
6 *1010:52 0.00146716
7 *1010:42 0.00181588
8 *1010:14 0.000773679
9 *1010:12 0.000838374
10 *1010:6 0.00145817
11 *5420:A *5911:A 8.00842e-05
12 *5420:A *1125:27 0.00033953
13 *5437:C *5437:A 0
14 *1010:12 *5408:D 0
15 *1010:12 *1035:22 0
16 *1010:12 *1035:39 0
17 *1010:12 *1127:42 0.000448547
18 *1010:52 *5428:B2 0.000209703
19 *5410:B *5437:C 0
20 *5410:A_N *5437:C 4.31222e-05
21 *5420:B *5420:A 4.78521e-05
22 *5420:C *5420:A 0
23 *5422:A *5437:C 0
24 *5422:D *5437:C 4.78028e-05
25 *5437:B *5437:C 1.54556e-05
26 *5489:B *1010:52 0
27 *5775:RESET_B *5437:C 8.03692e-05
28 *5809:RESET_B *1010:52 0
29 *549:21 *1010:12 0.000181608
30 *552:12 *5437:C 0
31 *649:67 *1010:52 0
32 *651:21 *1010:6 0
33 *651:21 *1010:12 0
34 *676:32 *1010:12 0
35 *676:32 *1010:42 0.000287672
36 *676:32 *1010:52 0.000394981
37 *676:36 *1010:12 0
38 *678:99 *5437:C 0
39 *693:8 *5437:C 0
40 *698:26 *1010:12 0
41 *699:16 *1010:52 0
42 *700:60 *1010:6 0
43 *719:43 *5420:A 0
44 *719:43 *1010:6 0.00069482
45 *719:43 *1010:12 0
46 *1009:24 *5437:C 0
*RES
1 *5957:X *1010:6 25.9431 
2 *1010:6 *1010:12 30.1249 
3 *1010:12 *1010:14 20 
4 *1010:14 *5437:C 27.2683 
5 *1010:14 *5422:C 20 
6 *1010:6 *1010:42 21.339 
7 *1010:42 *1010:52 36.5774 
8 *1010:52 *5428:C1 20 
9 *1010:42 *5420:A 42.6986 
*END

*D_NET *1011 0.0126634
*CONN
*I *5409:C I *D sg13g2_nor3_1
*I *5443:D I *D sg13g2_nor4_1
*I *5447:D I *D sg13g2_nor4_1
*I *5450:D I *D sg13g2_nor4_1
*I *5456:D I *D sg13g2_nor4_1
*I *5459:D I *D sg13g2_nor4_1
*I *5453:D I *D sg13g2_nor4_1
*I *5424:D I *D sg13g2_or4_1
*I *5958:X O *D sg13g2_buf_1
*CAP
1 *5409:C 0
2 *5443:D 0.000442919
3 *5447:D 0
4 *5450:D 0
5 *5456:D 0
6 *5459:D 0
7 *5453:D 0.000148755
8 *5424:D 4.94072e-05
9 *5958:X 0.000187412
10 *1011:81 0.0011099
11 *1011:68 0.000931704
12 *1011:61 0.000245579
13 *1011:46 0.000934897
14 *1011:38 0.00095404
15 *1011:29 0.000808819
16 *1011:25 0.00120683
17 *1011:8 0.000783581
18 *5424:D *5424:A 8.01776e-05
19 *5443:D *5447:B 0
20 *5443:D *1027:10 0
21 *1011:8 *1012:72 0.000448012
22 *1011:25 *5424:A 0
23 *1011:25 *1012:72 0.00023464
24 *1011:29 *1027:64 0
25 *1011:46 *5459:B 0
26 *1011:46 *1027:34 0
27 *1011:46 *1027:49 0
28 *1011:61 *5459:B 0
29 *1011:61 *1027:49 0
30 *1011:68 *1027:24 0.000767537
31 *1011:68 *1027:34 0.000181192
32 *1011:81 *5447:B 0
33 *1011:81 *1027:24 0.000159424
34 *1011:81 *1133:8 0
35 *5448:A *1011:81 0
36 *5448:B *1011:81 0
37 *5448:D *1011:81 0
38 *5457:D *1011:46 0
39 *5459:C *1011:46 4.79124e-05
40 *5460:B *1011:46 0
41 *5486:B1 *5443:D 0
42 *246:10 *5443:D 0
43 *551:28 *5424:D 0
44 *551:28 *1011:25 0.000793271
45 *574:10 *5443:D 0.000145157
46 *577:10 *1011:81 0
47 *583:10 *1011:46 0
48 *585:8 *1011:46 0
49 *605:199 *1011:46 0
50 *605:199 *1011:68 0
51 *605:199 *1011:81 0
52 *605:219 *1011:81 0
53 *648:31 *1011:46 0
54 *648:31 *1011:61 0
55 *650:64 *1011:81 0
56 *680:16 *5443:D 4.77863e-05
57 *680:20 *5443:D 0.000436216
58 *680:55 *5453:D 0.000143277
59 *680:55 *1011:46 0
60 *680:71 *1011:29 0.000404005
61 *693:61 *1011:46 0
62 *693:69 *1011:46 0
63 *693:87 *1011:46 0
64 *714:27 *1011:25 0.000858185
65 *714:27 *1011:29 0.000112733
66 *1004:14 *5453:D 0
67 *1004:14 *1011:29 0
68 *1009:48 *5443:D 0
69 *1009:48 *1011:81 0
*RES
1 *5958:X *1011:8 42.575 
2 *1011:8 *5424:D 40.5356 
3 *1011:8 *1011:25 27.1688 
4 *1011:25 *1011:29 6.5096 
5 *1011:29 *5453:D 21.4008 
6 *1011:29 *1011:38 20 
7 *1011:38 *1011:46 26.8598 
8 *1011:46 *5459:D 20 
9 *1011:46 *1011:61 42.1166 
10 *1011:61 *5456:D 20 
11 *1011:38 *1011:68 4.3054 
12 *1011:68 *5450:D 40 
13 *1011:68 *1011:81 26.8958 
14 *1011:81 *5447:D 20 
15 *1011:81 *5443:D 24.5578 
16 *1011:25 *5409:C 20 
*END

*D_NET *1012 0.0107281
*CONN
*I *5486:A2 I *D sg13g2_o21ai_1
*I *5958:A I *D sg13g2_buf_1
*I *5477:D I *D sg13g2_nor4_1
*I *5461:C I *D sg13g2_nor3_1
*I *5480:D I *D sg13g2_nor4_1
*I *5483:D I *D sg13g2_nor4_1
*I *5959:X O *D sg13g2_buf_1
*CAP
1 *5486:A2 2.52189e-05
2 *5958:A 0
3 *5477:D 0.000129412
4 *5461:C 5.59336e-05
5 *5480:D 0
6 *5483:D 0
7 *5959:X 0
8 *1012:72 0.00089789
9 *1012:68 0.00102668
10 *1012:44 0.000275459
11 *1012:32 0.000437172
12 *1012:24 0.000888856
13 *1012:18 0.00105526
14 *1012:12 0.00125361
15 *1012:4 0.000843716
16 *1012:24 *5480:B 0
17 *1012:68 *5959:A 1.54008e-05
18 *1012:72 *1121:12 0.000288917
19 *5482:C *1012:32 0
20 *5486:B1 *5486:A2 4.78359e-05
21 *5486:A1 *5486:A2 4.78359e-05
22 *5486:A1 *1012:12 0
23 *5486:A1 *1012:68 0
24 *5799:D *1012:18 0.000175867
25 *5807:CLK *1012:12 0
26 *5915:A *1012:18 0.000432549
27 *5915:A *1012:24 4.77425e-05
28 *586:10 *5477:D 0.000287712
29 *586:10 *1012:44 0.000127744
30 *586:91 *5477:D 0.000104122
31 *605:229 *1012:32 0
32 *615:14 *1012:12 0
33 *615:14 *1012:68 0
34 *615:14 *1012:72 0
35 *633:8 *5477:D 0
36 *633:28 *1012:12 0
37 *678:57 *1012:24 8.00842e-05
38 *679:43 *1012:24 0
39 *681:12 *1012:24 0
40 *681:20 *1012:32 0.000892959
41 *681:40 *5461:C 1.54008e-05
42 *681:53 *5461:C 4.77425e-05
43 *681:53 *5477:D 0.000421816
44 *681:53 *1012:44 7.48842e-05
45 *681:64 *1012:18 4.76665e-05
46 *694:25 *1012:32 0
47 *714:19 *1012:72 0
48 *714:80 *1012:72 0
49 *1011:8 *1012:72 0.000448012
50 *1011:25 *1012:72 0.00023464
*RES
1 *5959:X *1012:4 20 
2 *1012:4 *1012:12 48.5799 
3 *1012:12 *1012:18 25.6753 
4 *1012:18 *1012:24 24.5938 
5 *1012:24 *1012:32 45.5208 
6 *1012:32 *5483:D 20 
7 *1012:24 *5480:D 20 
8 *1012:18 *1012:44 1.0918 
9 *1012:44 *5461:C 40.5356 
10 *1012:44 *5477:D 42.3278 
11 *1012:4 *1012:68 21.1639 
12 *1012:68 *1012:72 31.227 
13 *1012:72 *5958:A 20 
14 *1012:68 *5486:A2 40.3193 
*END

*D_NET *1013 0.00247653
*CONN
*I *5067:A2 I *D sg13g2_o21ai_1
*I *6101:A I *D sg13g2_buf_1
*I *5519:Q O *D sg13g2_dfrbpq_1
*CAP
1 *5067:A2 0.000206093
2 *6101:A 0.000460692
3 *5519:Q 0.000523651
4 *1013:8 0.00119044
5 *5064:B1 *5067:A2 1.54008e-05
6 *5068:A *5067:A2 4.78356e-05
7 *5519:RESET_B *6101:A 0
8 *100:10 *6101:A 0
9 *326:8 *1013:8 0
10 *658:52 *6101:A 0
11 *706:14 *5067:A2 3.24187e-05
12 *709:99 *1013:8 0
*RES
1 *5519:Q *1013:8 45.047 
2 *1013:8 *6101:A 45.0882 
3 *1013:8 *5067:A2 42.0497 
*END

*D_NET *1014 0.0115719
*CONN
*I *5423:A I *D sg13g2_and4_1
*I *5462:D I *D sg13g2_nor4_1
*I *5465:D I *D sg13g2_nor4_1
*I *5468:D I *D sg13g2_nor4_1
*I *5471:D I *D sg13g2_nor4_1
*I *5474:D I *D sg13g2_nor4_1
*I *5959:A I *D sg13g2_buf_1
*I *5960:X O *D sg13g2_buf_1
*CAP
1 *5423:A 0.00011407
2 *5462:D 2.52546e-05
3 *5465:D 0
4 *5468:D 0
5 *5471:D 5.07133e-05
6 *5474:D 1.91019e-05
7 *5959:A 0.000466207
8 *5960:X 0
9 *1014:72 0.00035424
10 *1014:59 0.000647067
11 *1014:55 0.000419891
12 *1014:46 0.0010568
13 *1014:29 0.00168957
14 *1014:8 0.00180992
15 *1014:4 0.000691598
16 *1014:29 *1130:10 0.000396312
17 *1014:55 *5471:B 0
18 *5423:B *5423:A 8.01118e-05
19 *5423:B *1014:8 0
20 *5423:B *1014:29 0.000106064
21 *5438:A *5959:A 1.54008e-05
22 *5438:A *1014:8 4.77425e-05
23 *5464:B *1014:59 0
24 *5464:B *1014:72 0
25 *5473:B *5471:D 1.53311e-05
26 *5473:B *1014:46 0.00033764
27 *5473:C *1014:46 0
28 *5486:A1 *5959:A 0
29 *5487:C *5959:A 0
30 *5763:CLK *5423:A 0
31 *5763:CLK *1014:8 0.000533512
32 *5807:D *5959:A 0
33 *5879:A *5959:A 0
34 *5879:A *1014:8 0
35 *5913:A *5474:D 0
36 *5915:A *5474:D 3.1527e-05
37 *556:38 *1014:29 7.51285e-05
38 *571:10 *1014:29 7.51285e-05
39 *586:27 *1014:46 0.000304607
40 *586:42 *1014:46 3.22862e-05
41 *591:10 *1014:59 7.9841e-05
42 *591:10 *1014:72 1.54008e-05
43 *615:14 *5959:A 0
44 *650:12 *1014:29 0
45 *650:18 *5959:A 0.000241979
46 *650:18 *1014:8 0.000259111
47 *650:18 *1014:29 0
48 *678:81 *1014:46 0.000112057
49 *678:85 *1014:59 0
50 *682:10 *1014:46 0.000176219
51 *682:85 *1014:59 4.77083e-05
52 *682:97 *1014:59 0.000240195
53 *682:110 *1014:59 4.76456e-05
54 *682:110 *1014:72 0.000748907
55 *714:80 *5959:A 0.000144253
56 *714:95 *5959:A 4.79124e-05
57 *714:104 *1014:8 0
58 *1009:24 *5959:A 0
59 *1012:68 *5959:A 1.54008e-05
*RES
1 *5960:X *1014:4 20 
2 *1014:4 *1014:8 6.1388 
3 *1014:8 *5959:A 25.0161 
4 *1014:8 *1014:29 29.9189 
5 *1014:29 *5474:D 40.2112 
6 *1014:29 *1014:46 28.7447 
7 *1014:46 *5471:D 20.5356 
8 *1014:46 *1014:55 0.9682 
9 *1014:55 *1014:59 3.0488 
10 *1014:59 *5468:D 20 
11 *1014:59 *1014:72 44.4702 
12 *1014:72 *5465:D 20 
13 *1014:55 *5462:D 20.3502 
14 *1014:4 *5423:A 21.3802 
*END

*D_NET *1015 0.0273955
*CONN
*I *5110:A1 I *D sg13g2_a21oi_1
*I *5163:A I *D sg13g2_and4_1
*I *5165:D I *D sg13g2_nand4_1
*I *5185:D I *D sg13g2_nand4_1
*I *5206:D I *D sg13g2_nand4_1
*I *5162:A1 I *D sg13g2_a221oi_1
*I *5170:D I *D sg13g2_nand4_1
*I *5175:D I *D sg13g2_nand4_1
*I *5961:X O *D sg13g2_buf_1
*CAP
1 *5110:A1 0.00276664
2 *5163:A 0.000132892
3 *5165:D 0.000117958
4 *5185:D 2.93702e-05
5 *5206:D 3.049e-05
6 *5162:A1 0
7 *5170:D 0.00065478
8 *5175:D 7.4476e-05
9 *5961:X 3.17188e-05
10 *1015:107 0.00344526
11 *1015:92 0.000885909
12 *1015:60 0.00139168
13 *1015:46 0.00298937
14 *1015:44 0.00180593
15 *1015:20 0.00161896
16 *1015:14 0.00241333
17 *1015:12 0.00175196
18 *1015:8 0.000425856
19 *5110:A1 *5925:A 0
20 *5170:D *5173:B 0
21 *5170:D *1097:47 0.000664044
22 *5206:D *1107:35 4.7803e-05
23 *1015:8 *1096:50 4.75166e-05
24 *1015:20 *5177:A 0
25 *1015:20 *5183:C 0
26 *1015:20 *1097:47 0.000603088
27 *1015:46 *1017:84 0
28 *1015:60 *5099:B 0.000144179
29 *1015:60 *1108:37 0
30 *5110:A2 *5110:A1 0.000240531
31 *5163:D *1015:107 0
32 *5169:C1 *1015:107 0
33 *5170:C *5170:D 1.53311e-05
34 *5176:C1 *5170:D 0
35 *5176:B1 *5170:D 0
36 *5177:D *5175:D 0.000111943
37 *5185:C *5185:D 4.7803e-05
38 *5204:C *5206:D 0
39 *5206:C *5206:D 1.54556e-05
40 *5207:A *1015:60 0.000102517
41 *5207:B *1015:60 0
42 *5209:B1 *1015:60 0
43 *5218:A2 *1015:60 0
44 *5565:RESET_B *5110:A1 0
45 *5565:D *5110:A1 0
46 *5567:RESET_B *5110:A1 0
47 *5583:D *1015:60 0
48 *5585:CLK *5110:A1 0.000727651
49 *5585:CLK *1015:107 0
50 *5589:CLK *5170:D 0.000272767
51 *5858:A *1015:46 0
52 *5858:A *1015:60 0
53 *260:14 *1015:44 0
54 *260:14 *1015:46 0
55 *261:12 *1015:107 0.00072213
56 *268:20 *1015:14 0.000355395
57 *268:20 *1015:20 0.000403938
58 *269:14 *1015:14 0
59 *269:14 *1015:20 0
60 *283:12 *1015:14 0
61 *283:12 *1015:44 0
62 *284:22 *1015:12 0.00098897
63 *284:22 *1015:92 0.000236452
64 *284:22 *1015:107 0.000178135
65 *288:10 *1015:12 0
66 *288:10 *1015:92 0
67 *288:35 *1015:46 0
68 *348:32 *1015:60 0
69 *367:16 *5163:A 0.000144542
70 *388:24 *1015:60 0.000242131
71 *388:38 *1015:60 0
72 *390:8 *1015:107 0
73 *390:18 *5170:D 0
74 *390:28 *5170:D 0
75 *397:14 *5175:D 1.54008e-05
76 *398:12 *1015:46 0
77 *410:8 *5185:D 0
78 *422:8 *1015:60 0
79 *620:25 *1015:46 0
80 *632:34 *5170:D 0.000240222
81 *661:39 *5110:A1 0
82 *661:59 *5110:A1 0
83 *708:66 *5175:D 0
84 *856:10 *1015:46 0
85 *1005:65 *1015:20 0
86 *1005:78 *1015:20 0
87 *1008:37 *1015:12 0
88 *1008:53 *1015:20 0.000181192
89 *1008:80 *5170:D 7.9768e-05
*RES
1 *5961:X *1015:8 40.3193 
2 *1015:8 *1015:12 24.5526 
3 *1015:12 *1015:14 11.1343 
4 *1015:14 *1015:20 29.2288 
5 *1015:20 *5175:D 40.7519 
6 *1015:20 *5170:D 47.7147 
7 *1015:14 *1015:44 21.8334 
8 *1015:44 *1015:46 18.3958 
9 *1015:46 *1015:60 33.5651 
10 *1015:60 *5162:A1 20 
11 *1015:46 *5206:D 40.3193 
12 *1015:44 *5185:D 40.3193 
13 *1015:12 *5165:D 20.9682 
14 *1015:8 *1015:92 1.0918 
15 *1015:92 *5163:A 41.3184 
16 *1015:92 *1015:107 27.7662 
17 *1015:107 *5110:A1 48.222 
*END

*D_NET *1016 0.00528677
*CONN
*I *5111:A1 I *D sg13g2_a21o_1
*I *5112:A I *D sg13g2_nand3_1
*I *5115:A I *D sg13g2_and4_1
*I *5120:A2 I *D sg13g2_a21oi_1
*I *5962:X O *D sg13g2_buf_1
*CAP
1 *5111:A1 0
2 *5112:A 0
3 *5115:A 6.29818e-05
4 *5120:A2 0
5 *5962:X 0.000380301
6 *1016:31 0.000300764
7 *1016:27 0.000964971
8 *1016:12 0.00110749
9 *5115:A *5115:C 0.000182023
10 *5115:A *1018:114 0.000341707
11 *5115:A *1100:25 0.000159598
12 *1016:12 *1115:35 0
13 *1016:27 *5111:B1 1.54008e-05
14 *1016:27 *1018:108 0.000143211
15 *1016:31 *1018:108 0.000395625
16 *1016:31 *1018:114 0.000425829
17 *1016:31 *1100:25 0.000181694
18 *5111:A2 *1016:27 8.14577e-05
19 *5120:A1 *1016:12 7.99179e-05
20 *5120:A1 *1016:27 1.54008e-05
21 *5123:C *1016:12 0
22 *361:25 *1016:12 0
23 *692:12 *1016:31 0
24 *707:33 *1016:27 0
25 *707:67 *1016:31 0.000448399
*RES
1 *5962:X *1016:12 23.6565 
2 *1016:12 *5120:A2 20 
3 *1016:12 *1016:27 7.3748 
4 *1016:27 *1016:31 24.3054 
5 *1016:31 *5115:A 41.5862 
6 *1016:31 *5112:A 40 
7 *1016:27 *5111:A1 20 
*END

*D_NET *1017 0.0249444
*CONN
*I *5132:A I *D sg13g2_nor3_1
*I *5118:A I *D sg13g2_nor2_1
*I *5130:A I *D sg13g2_nor3_1
*I *5136:D I *D sg13g2_nor4_1
*I *5142:A I *D sg13g2_nor4_1
*I *5211:B I *D sg13g2_nor2_1
*I *5230:A2 I *D sg13g2_o21ai_1
*I *5228:B I *D sg13g2_nor2_1
*I *5963:X O *D sg13g2_buf_1
*CAP
1 *5132:A 0
2 *5118:A 0
3 *5130:A 0.000203473
4 *5136:D 0.000136546
5 *5142:A 0
6 *5211:B 0
7 *5230:A2 0
8 *5228:B 0.000291456
9 *5963:X 0.000249222
10 *1017:97 0.000118348
11 *1017:84 0.00188841
12 *1017:78 0.0022074
13 *1017:70 0.000883188
14 *1017:66 0.000886797
15 *1017:60 0.000329073
16 *1017:56 0.000337616
17 *1017:52 0.00307592
18 *1017:50 0.0036549
19 *1017:37 0.000969114
20 *1017:26 0.00118691
21 *1017:10 0.00113972
22 *1017:8 0.000249222
23 *5136:D *1119:33 0
24 *1017:26 *5016:A 0.000339267
25 *1017:26 *5233:A1 0
26 *1017:26 *1046:44 0
27 *1017:37 *5233:A1 0
28 *1017:37 *1023:53 8.02379e-05
29 *1017:50 *5231:B 0
30 *1017:50 *5403:A_N 0
31 *1017:50 *1023:53 1.54556e-05
32 *1017:50 *1048:8 0
33 *1017:50 *1048:23 8.0216e-05
34 *1017:50 *1048:36 8.00842e-05
35 *1017:52 *1048:36 0
36 *1017:60 *1019:10 0
37 *1017:60 *1019:91 0
38 *1017:66 *1019:10 0
39 *1017:70 *5155:C 0.000341949
40 *1017:70 *1019:10 0.00207987
41 *1017:70 *1019:16 0.00012816
42 *1017:70 *1120:10 0.000341949
43 *1017:70 *1120:12 0.000448012
44 *1017:70 *1120:16 5.30319e-05
45 *1017:78 *1019:16 0.000180885
46 *1017:78 *1120:16 0.000181301
47 *5010:B *1017:56 0
48 *5108:A *1017:50 0
49 *5121:A1 *1017:52 0
50 *5130:B *5130:A 0
51 *5229:B1 *5228:B 0
52 *5233:A2 *1017:50 0
53 *5235:A2 *5228:B 0
54 *5237:A *5228:B 8.95113e-05
55 *5237:A *1017:26 0
56 *5811:D *1017:52 0
57 *270:14 *1017:70 0
58 *281:16 *5130:A 0
59 *281:16 *1017:66 0
60 *281:22 *1017:70 0
61 *286:14 *1017:56 0
62 *287:39 *5136:D 0.000177265
63 *351:14 *1017:50 0
64 *352:8 *1017:52 0.000182519
65 *352:16 *1017:52 0.000920612
66 *358:80 *5130:A 0
67 *367:8 *1017:52 0
68 *373:12 *1017:97 1.54008e-05
69 *373:18 *1017:97 4.77425e-05
70 *425:10 *1017:84 0
71 *443:10 *1017:26 0
72 *443:10 *1017:37 0
73 *636:31 *1017:97 0.000177279
74 *638:10 *1017:26 0
75 *645:18 *1017:52 0
76 *661:20 *1017:52 0
77 *661:22 *1017:52 0
78 *668:31 *1017:8 0.000615326
79 *672:33 *5228:B 0
80 *672:33 *1017:26 0.000135812
81 *672:42 *5228:B 1.54008e-05
82 *672:109 *1017:37 0.000265541
83 *675:8 *1017:50 0
84 *675:14 *1017:37 0
85 *675:14 *1017:50 0
86 *703:48 *1017:52 0
87 *707:54 *1017:52 0
88 *715:78 *1017:26 0
89 *715:123 *1017:26 0.000144261
90 *716:44 *1017:52 0
91 *1000:8 *1017:52 0
92 *1008:95 *1017:84 0
93 *1015:46 *1017:84 0
*RES
1 *5963:X *1017:8 42.8222 
2 *1017:8 *1017:10 20 
3 *1017:10 *1017:26 48.7447 
4 *1017:26 *5228:B 23.1106 
5 *1017:10 *1017:37 2.4823 
6 *1017:37 *5230:A2 20 
7 *1017:37 *1017:50 27.2615 
8 *1017:50 *1017:52 31.4974 
9 *1017:52 *1017:56 21.1845 
10 *1017:56 *1017:60 21.8334 
11 *1017:60 *1017:66 21.3802 
12 *1017:66 *1017:70 30.2382 
13 *1017:70 *1017:78 22.8119 
14 *1017:78 *1017:84 43.7209 
15 *1017:84 *5211:B 40 
16 *1017:78 *1017:97 41.1845 
17 *1017:97 *5142:A 20 
18 *1017:70 *5136:D 41.2926 
19 *1017:66 *5130:A 21.8334 
20 *1017:60 *5118:A 40 
21 *1017:56 *5132:A 20 
*END

*D_NET *1018 0.031156
*CONN
*I *5105:A I *D sg13g2_and2_1
*I *5113:C I *D sg13g2_and4_1
*I *5106:A I *D sg13g2_nand2_1
*I *5188:C I *D sg13g2_nand3_1
*I *5197:C I *D sg13g2_nand3_1
*I *5186:C I *D sg13g2_nand3_1
*I *5178:C I *D sg13g2_nand3_1
*I *5223:A I *D sg13g2_nand2_1
*I *5964:X O *D sg13g2_buf_1
*CAP
1 *5105:A 9.56172e-05
2 *5113:C 2.61602e-05
3 *5106:A 0
4 *5188:C 6.11049e-05
5 *5197:C 0
6 *5186:C 0
7 *5178:C 3.71668e-05
8 *5223:A 0.000576827
9 *5964:X 0.000746571
10 *1018:114 0.00134584
11 *1018:108 0.00300458
12 *1018:102 0.0017282
13 *1018:81 0.000614308
14 *1018:69 0.000826155
15 *1018:58 0.000150742
16 *1018:56 0.00118077
17 *1018:41 0.00121794
18 *1018:37 0.00137573
19 *1018:20 0.00201339
20 *1018:18 0.00108552
21 *1018:10 0.00177127
22 *5188:C *5188:B 4.77425e-05
23 *5223:A *1113:8 0
24 *1018:10 *1096:18 0.00029039
25 *1018:10 *1096:20 0.000345318
26 *1018:56 *1101:8 0
27 *1018:56 *1104:10 0.000449344
28 *1018:69 *1104:10 0.00039332
29 *1018:81 *1105:6 4.77425e-05
30 *1018:81 *1105:102 0.000349317
31 *1018:81 *1106:18 0.00108772
32 *1018:108 *1019:111 0
33 *1018:108 *1115:35 0.00094778
34 *1018:114 *5115:C 0
35 *5015:A2 *1018:18 0.000110918
36 *5086:A2 *1018:56 0
37 *5115:A *1018:114 0.000341707
38 *5166:A *1018:10 0
39 *5166:C *1018:10 0
40 *5171:B *1018:18 0
41 *5171:B *1018:37 0
42 *5171:D *1018:18 0
43 *5172:B2 *1018:18 0
44 *5178:A *1018:56 0
45 *5179:A2 *5178:C 7.97219e-05
46 *5186:B *1018:69 0.000473404
47 *5593:RESET_B *1018:56 0
48 *5599:RESET_B *1018:81 0.000274189
49 *5964:A *5105:A 0
50 *135:12 *1018:37 0
51 *258:25 *1018:56 0
52 *269:14 *1018:18 0
53 *286:43 *1018:20 0
54 *286:43 *1018:37 0
55 *292:12 *1018:10 0.00066289
56 *348:8 *1018:108 0
57 *349:10 *1018:114 8.02595e-05
58 *354:25 *5113:C 4.77425e-05
59 *354:25 *1018:114 0.000394566
60 *358:14 *1018:18 0
61 *358:64 *1018:37 0.000664484
62 *385:29 *5223:A 0
63 *393:12 *1018:18 0
64 *401:10 *1018:56 0.000240369
65 *410:12 *5223:A 0.000819739
66 *413:10 *1018:81 0.000266907
67 *413:14 *1018:81 0.00023464
68 *416:8 *1018:81 0
69 *605:29 *1018:37 0
70 *629:31 *1018:81 0.000341119
71 *631:49 *1018:56 0
72 *636:20 *1018:114 0
73 *637:25 *1018:114 0.000242045
74 *662:40 *1018:108 0
75 *662:40 *1018:114 0
76 *706:94 *1018:114 0
77 *707:67 *5113:C 1.54008e-05
78 *708:56 *1018:10 0
79 *708:66 *1018:10 0
80 *709:64 *1018:81 0
81 *1008:23 *1018:10 0.000851061
82 *1008:23 *1018:108 0.00223363
83 *1016:27 *1018:108 0.000143211
84 *1016:31 *1018:108 0.000395625
85 *1016:31 *1018:114 0.000425829
*RES
1 *5964:X *1018:10 49.476 
2 *1018:10 *1018:18 49.9086 
3 *1018:18 *1018:20 0.7519 
4 *1018:20 *5223:A 47.519 
5 *1018:20 *1018:37 36.0062 
6 *1018:37 *1018:41 40 
7 *1018:41 *5178:C 20.5356 
8 *1018:41 *1018:56 32.4004 
9 *1018:56 *1018:58 20 
10 *1018:58 *5186:C 20 
11 *1018:58 *1018:69 22.6162 
12 *1018:69 *1018:81 49.2494 
13 *1018:81 *5197:C 40 
14 *1018:69 *5188:C 40.5356 
15 *5964:X *1018:102 20 
16 *1018:102 *1018:108 38.5915 
17 *1018:108 *1018:114 34.0801 
18 *1018:114 *5106:A 20 
19 *1018:108 *5113:C 40.3193 
20 *1018:102 *5105:A 21.0918 
*END

*D_NET *1019 0.0146631
*CONN
*I *5122:A I *D sg13g2_nor2_1
*I *5118:B I *D sg13g2_nor2_1
*I *5010:A I *D sg13g2_nor2_1
*I *5136:B I *D sg13g2_nor4_1
*I *5142:C I *D sg13g2_nor4_1
*I *5011:C I *D sg13g2_nor4_1
*I *5161:A I *D sg13g2_nor4_1
*I *5160:A I *D sg13g2_nor4_1
*I *5965:X O *D sg13g2_buf_1
*CAP
1 *5122:A 0
2 *5118:B 0
3 *5010:A 0
4 *5136:B 0.000138479
5 *5142:C 0
6 *5011:C 0.000666159
7 *5161:A 0
8 *5160:A 0
9 *5965:X 0
10 *1019:111 0.000504909
11 *1019:91 0.000769128
12 *1019:81 0.000846003
13 *1019:40 0.000240371
14 *1019:30 0.000663259
15 *1019:26 0.00136175
16 *1019:16 0.000488854
17 *1019:10 0.00106899
18 *1019:8 0.00101821
19 *1019:4 0.000731886
20 *5011:C *4998:C 0
21 *1019:16 *1119:33 0
22 *1019:26 *5141:A 0
23 *1019:111 *5121:A2 0
24 *4997:C *5011:C 0
25 *5010:B *1019:91 0
26 *5011:A *5011:C 0
27 *5011:D *5011:C 4.78521e-05
28 *5131:A *1019:111 0.000444262
29 *5132:C *1019:81 0
30 *5134:A2 *1019:10 0
31 *5136:A *5136:B 0.000209906
32 *5142:D *1019:16 4.78524e-05
33 *5159:A *1019:40 7.61954e-05
34 *5160:B *1019:40 1.54008e-05
35 *5160:D *1019:40 0
36 *280:16 *5011:C 4.78521e-05
37 *286:14 *1019:91 0
38 *286:14 *1019:111 1.54008e-05
39 *287:14 *1019:10 0
40 *287:29 *5136:B 4.79124e-05
41 *287:39 *5011:C 0
42 *287:39 *5136:B 0.000177449
43 *348:8 *1019:111 0
44 *358:14 *1019:81 3.23529e-05
45 *358:14 *1019:91 0.000307238
46 *358:80 *1019:81 8.0216e-05
47 *367:8 *1019:8 0
48 *367:75 *1019:111 0.000144691
49 *373:8 *1019:16 7.48178e-05
50 *373:12 *1019:16 4.77425e-05
51 *373:12 *1019:26 3.23417e-05
52 *373:18 *1019:26 0.000247252
53 *373:18 *1019:30 0
54 *373:22 *1019:40 0.000237751
55 *378:8 *5011:C 0.000551859
56 *378:8 *1019:26 0.000179386
57 *387:8 *1019:40 0
58 *636:31 *1019:30 0.000630295
59 *636:31 *1019:40 8.0216e-05
60 *1017:60 *1019:10 0
61 *1017:60 *1019:91 0
62 *1017:66 *1019:10 0
63 *1017:70 *1019:10 0.00207987
64 *1017:70 *1019:16 0.00012816
65 *1017:78 *1019:16 0.000180885
66 *1018:108 *1019:111 0
*RES
1 *5965:X *1019:4 20 
2 *1019:4 *1019:8 22.3278 
3 *1019:8 *1019:10 10.9798 
4 *1019:10 *1019:16 22.6162 
5 *1019:16 *1019:26 23.1312 
6 *1019:26 *1019:30 24.2127 
7 *1019:30 *1019:40 42.6574 
8 *1019:40 *5160:A 20 
9 *1019:30 *5161:A 20 
10 *1019:26 *5011:C 47.004 
11 *1019:16 *5142:C 20 
12 *1019:10 *5136:B 41.7201 
13 *1019:8 *1019:81 20.7519 
14 *1019:81 *1019:91 47.1688 
15 *1019:91 *5010:A 20 
16 *1019:81 *5118:B 20 
17 *1019:4 *1019:111 45.0647 
18 *1019:111 *5122:A 20 
*END

*D_NET *1020 0.0156179
*CONN
*I *5253:B I *D sg13g2_nor2_1
*I *5277:B I *D sg13g2_nor2_1
*I *5283:B I *D sg13g2_nor2_1
*I *5259:B I *D sg13g2_nor2_1
*I *5256:B I *D sg13g2_nor2_1
*I *5328:B I *D sg13g2_nor2_1
*I *5280:B I *D sg13g2_nor2_1
*I *5304:B I *D sg13g2_nor2_1
*I *5966:X O *D sg13g2_buf_1
*CAP
1 *5253:B 0.000726336
2 *5277:B 0.000355769
3 *5283:B 0.000714655
4 *5259:B 0
5 *5256:B 0.000281912
6 *5328:B 0.000231151
7 *5280:B 0
8 *5304:B 0.000391839
9 *5966:X 0
10 *1020:81 0.00143182
11 *1020:77 0.00135716
12 *1020:64 0.000855149
13 *1020:51 0.000910025
14 *1020:29 0.000521115
15 *1020:12 0.00128745
16 *1020:6 0.00135869
17 *1020:4 0.000795441
18 *5253:B *5253:A 0
19 *5304:B *1062:6 0
20 *1020:64 *1022:18 0.00183992
21 *1020:77 *1043:8 0
22 *1020:81 *1043:8 0
23 *5255:B *5253:B 0.00012976
24 *5255:C *5253:B 0
25 *5256:A *5256:B 0
26 *5256:A *1020:6 0.000209856
27 *5256:A *1020:51 6.47875e-05
28 *5257:A1 *1020:6 0
29 *5257:A2 *1020:6 0
30 *5258:A *5256:B 0
31 *5258:A *1020:6 0
32 *5258:B *1020:29 8.03089e-05
33 *5259:A *5253:B 0
34 *5259:A *1020:77 0
35 *5261:B *1020:64 0
36 *5261:B *1020:77 0
37 *5277:A *5277:B 1.54008e-05
38 *5279:C *5277:B 1.54008e-05
39 *5285:C *5283:B 0
40 *5305:B1 *5328:B 3.55949e-05
41 *5306:C *5304:B 0
42 *5330:A *1020:6 4.76038e-05
43 *5330:B *1020:6 0
44 *5330:C *5328:B 0.000154173
45 *5330:C *1020:6 0
46 *5665:D *5304:B 0
47 *5681:D *1020:6 0
48 *164:8 *5277:B 0
49 *458:8 *5277:B 7.51285e-05
50 *458:8 *1020:81 0.000181279
51 *462:12 *1020:64 0
52 *492:10 *1020:12 0
53 *606:14 *5253:B 0
54 *622:12 *1020:64 0
55 *622:12 *1020:77 0
56 *622:12 *1020:81 0
57 *669:60 *5277:B 0.000448427
58 *669:99 *5277:B 0
59 *683:14 *5283:B 1.54008e-05
60 *683:24 *5283:B 0
61 *685:27 *5283:B 0
62 *685:48 *5328:B 0
63 *685:48 *1020:6 0.00027403
64 *694:33 *5256:B 0
65 *694:39 *1020:6 0
66 *694:39 *1020:51 0
67 *694:43 *1020:12 0
68 *694:56 *5304:B 0
69 *694:56 *1020:29 0
70 *695:18 *5253:B 0.000570207
71 *695:18 *1020:77 0.00024211
72 *711:71 *5277:B 0
*RES
1 *5966:X *1020:4 20 
2 *1020:4 *1020:6 7.3434 
3 *1020:6 *1020:12 43.3166 
4 *1020:12 *5304:B 23.4814 
5 *1020:12 *1020:29 46.2624 
6 *1020:29 *5280:B 20 
7 *1020:6 *5328:B 22.5132 
8 *1020:4 *1020:51 20.5356 
9 *1020:51 *5256:B 42.678 
10 *1020:51 *1020:64 9.2494 
11 *1020:64 *5259:B 40 
12 *1020:64 *1020:77 23.2033 
13 *1020:77 *1020:81 24.0582 
14 *1020:81 *5283:B 45.8607 
15 *1020:81 *5277:B 44.4187 
16 *1020:77 *5253:B 27.6735 
*END

*D_NET *1021 0.00844659
*CONN
*I *5325:B I *D sg13g2_nor2_1
*I *5301:B I *D sg13g2_nor2_1
*I *5331:B I *D sg13g2_nor2_1
*I *5307:B I *D sg13g2_nor2_1
*I *5967:X O *D sg13g2_buf_1
*CAP
1 *5325:B 0
2 *5301:B 0
3 *5331:B 0.000631072
4 *5307:B 0.000446046
5 *5967:X 6.83803e-05
6 *1021:26 0.00181687
7 *1021:20 0.00117888
8 *1021:12 0.000583912
9 *1021:8 0.000213167
10 *5307:B *1030:16 8.00842e-05
11 *5331:B *5382:A1 1.54556e-05
12 *5331:B *1072:6 0.000242088
13 *5331:B *1072:8 0.000274545
14 *1021:8 *1030:70 0
15 *1021:8 *1031:57 0
16 *1021:26 *1061:12 1.54008e-05
17 *5302:A1 *1021:20 0
18 *5302:A2 *1021:12 0
19 *5303:A *1021:20 0
20 *5303:C *1021:26 0
21 *5325:A *1021:20 0
22 *5333:B *5331:B 0.000324375
23 *5333:C *5331:B 0
24 *5667:CLK *1021:26 0
25 *505:10 *1021:12 0.000209637
26 *623:27 *1021:20 0
27 *683:52 *1021:26 0
28 *683:82 *1021:20 0.000500215
29 *695:73 *5307:B 0.000183978
30 *695:84 *5307:B 0.0010783
31 *695:84 *5331:B 0.000238641
32 *695:88 *1021:26 0
33 *937:8 *1021:20 0
34 *954:10 *5307:B 0.000345533
*RES
1 *5967:X *1021:8 40.5974 
2 *1021:8 *1021:12 21.6171 
3 *1021:12 *1021:20 45.15 
4 *1021:20 *1021:26 27.8074 
5 *1021:26 *5307:B 46.3242 
6 *1021:26 *5331:B 47.3542 
7 *1021:20 *5301:B 20 
8 *1021:12 *5325:B 20 
*END

*D_NET *1022 0.0196486
*CONN
*I *5271:B I *D sg13g2_nor2_1
*I *5247:B I *D sg13g2_nor2_1
*I *5274:B I *D sg13g2_nor2_1
*I *5967:A I *D sg13g2_buf_1
*I *5322:B I *D sg13g2_nor2_1
*I *5298:B I *D sg13g2_nor2_1
*I *5250:B I *D sg13g2_nor2_1
*I *5966:A I *D sg13g2_buf_1
*I *5968:X O *D sg13g2_buf_1
*CAP
1 *5271:B 0
2 *5247:B 0
3 *5274:B 3.00586e-05
4 *5967:A 0
5 *5322:B 0.000583287
6 *5298:B 0
7 *5250:B 0.000191749
8 *5966:A 0
9 *5968:X 0.00100976
10 *1022:104 0.000870786
11 *1022:93 8.11518e-05
12 *1022:87 0.00132816
13 *1022:66 0.00124533
14 *1022:51 0.0020415
15 *1022:42 0.000846611
16 *1022:38 0.00104322
17 *1022:18 0.00186791
18 *1022:12 0.00226899
19 *1022:8 0.0012223
20 *1022:42 *1060:24 0.00018211
21 *1022:51 *5360:A1 0.000159511
22 *1022:51 *1060:24 0.000608855
23 *1022:66 *5360:A1 0.000395396
24 *5249:A *1022:87 4.79124e-05
25 *5251:A1 *1022:8 0
26 *5252:A *1022:8 0
27 *5252:C *5250:B 0
28 *5259:A *1022:18 0
29 *5276:B *5274:B 4.78028e-05
30 *5276:B *1022:12 0
31 *5276:B *1022:38 0
32 *5299:A1 *5322:B 0
33 *5300:A *5322:B 0
34 *5323:A2 *5322:B 0
35 *5326:A1 *1022:66 0
36 *5326:B1 *1022:66 0
37 *5484:A *1022:18 0
38 *5627:RESET_B *1022:87 0
39 *5627:D *1022:87 0
40 *5629:RESET_B *1022:8 0
41 *5661:RESET_B *5322:B 0
42 *5661:D *5322:B 0
43 *5679:RESET_B *1022:66 0
44 *5679:D *1022:66 0.00027443
45 *5715:RESET_B *1022:66 0
46 *5715:D *1022:66 0
47 *5715:CLK *1022:66 0
48 *5797:CLK *1022:93 0
49 *5801:CLK *5250:B 0
50 *5801:CLK *1022:18 0.000566289
51 *5968:A *1022:87 0
52 *5968:A *1022:104 0
53 *505:10 *1022:66 4.77425e-05
54 *606:10 *1022:18 0
55 *606:14 *1022:18 0
56 *622:12 *1022:18 0
57 *622:14 *1022:18 0
58 *670:6 *1022:87 0
59 *670:6 *1022:104 0
60 *670:10 *1022:8 0
61 *670:10 *1022:87 0
62 *670:18 *1022:8 0
63 *670:18 *1022:38 0
64 *670:18 *1022:42 0
65 *670:31 *1022:42 0
66 *671:87 *1022:104 0.000400195
67 *684:29 *1022:42 0
68 *696:35 *1022:12 0
69 *697:36 *1022:12 0
70 *697:36 *1022:38 0
71 *697:51 *5322:B 0
72 *697:51 *1022:42 0
73 *697:51 *1022:51 0
74 *711:20 *1022:66 0
75 *893:12 *1022:18 0
76 *935:12 *1022:38 0.000447599
77 *1020:64 *1022:18 0.00183992
*RES
1 *5968:X *1022:8 45.5462 
2 *1022:8 *1022:12 22.575 
3 *1022:12 *1022:18 42.454 
4 *1022:18 *5966:A 40 
5 *1022:12 *5250:B 22.3175 
6 *1022:8 *1022:38 5.047 
7 *1022:38 *1022:42 7.8383 
8 *1022:42 *5298:B 40 
9 *1022:42 *1022:51 3.5638 
10 *1022:51 *5322:B 45.7268 
11 *1022:51 *1022:66 33.8329 
12 *1022:66 *5967:A 20 
13 *1022:38 *5274:B 40.3193 
14 *5968:X *1022:87 23.5638 
15 *1022:87 *1022:93 40.8446 
16 *1022:93 *5247:B 20 
17 *1022:87 *1022:104 30.8356 
18 *1022:104 *5271:B 40 
*END

*D_NET *1023 0.017055
*CONN
*I *5286:B I *D sg13g2_nor2_1
*I *5262:B I *D sg13g2_nor2_1
*I *5241:B I *D sg13g2_nor2_1
*I *5265:B I *D sg13g2_nor2_1
*I *4982:A I *D sg13g2_nor2_1
*I *5231:C I *D sg13g2_nor3_1
*I *5230:B1 I *D sg13g2_o21ai_1
*I *5234:B1 I *D sg13g2_a21oi_1
*I *5969:X O *D sg13g2_buf_1
*CAP
1 *5286:B 0
2 *5262:B 0
3 *5241:B 0
4 *5265:B 0.000310492
5 *4982:A 0
6 *5231:C 2.77263e-05
7 *5230:B1 0
8 *5234:B1 0.000113075
9 *5969:X 4.26312e-05
10 *1023:127 0.00165481
11 *1023:102 0.00235833
12 *1023:84 0.00110779
13 *1023:67 0.000836023
14 *1023:53 0.000293888
15 *1023:43 0.000644978
16 *1023:39 0.000768897
17 *1023:20 0.00088625
18 *1023:16 0.00149811
19 *1023:10 0.00118966
20 *1023:8 0.000804063
21 *5234:B1 *1047:10 5.30319e-05
22 *5234:B1 *1047:12 0.000288087
23 *5265:B *1056:8 0.000207909
24 *1023:20 *1047:10 0.00114241
25 *1023:39 *5235:A1 4.77425e-05
26 *1023:39 *1046:16 0.00012816
27 *1023:43 *5233:A1 0
28 *1023:53 *5231:B 0
29 *1023:53 *5233:A1 0
30 *1023:84 *1047:10 0.00023393
31 *1023:127 *5352:A1 0
32 *1023:127 *6029:A 0
33 *5233:A2 *1023:53 1.54556e-05
34 *5233:B1 *1023:53 0.00011159
35 *5235:B1 *5234:B1 4.77425e-05
36 *5235:B2 *5234:B1 4.77425e-05
37 *5235:B2 *1023:39 0
38 *5235:B2 *1023:43 0.000532689
39 *5242:A2 *1023:8 7.98406e-05
40 *5267:C *5265:B 0
41 *5286:A *1023:127 0
42 *5288:C *1023:127 1.54556e-05
43 *5338:S *5265:B 0
44 *5353:A *1023:127 0
45 *5353:B *1023:127 0
46 *5617:D *5231:C 0
47 *5619:RESET_B *1023:39 0
48 *5619:CLK *1023:16 0
49 *5619:CLK *1023:20 0
50 *5689:CLK *1023:127 0
51 *5705:D *1023:127 0
52 *5829:D *1023:84 1.5412e-05
53 *79:8 *1023:16 0
54 *263:18 *1023:102 0
55 *442:10 *1023:39 0
56 *442:10 *1023:43 0.000273562
57 *446:8 *5234:B1 0.000128248
58 *638:47 *5234:B1 0
59 *638:47 *1023:20 0
60 *638:51 *1023:39 0
61 *638:59 *1023:84 0
62 *663:46 *1023:127 4.77425e-05
63 *668:48 *1023:127 8.02269e-05
64 *668:60 *1023:127 0.000608111
65 *675:14 *1023:53 0.000237686
66 *690:27 *1023:8 7.98406e-05
67 *690:27 *1023:16 0
68 *690:31 *1023:102 0
69 *690:31 *1023:127 0
70 *702:32 *1023:84 0
71 *715:82 *1023:39 0
72 *715:108 *1023:84 0
73 *718:41 *1023:39 0
74 *1017:37 *1023:53 8.02379e-05
75 *1017:50 *1023:53 1.54556e-05
*RES
1 *5969:X *1023:8 40.5356 
2 *1023:8 *1023:10 0.5974 
3 *1023:10 *1023:16 30.9901 
4 *1023:16 *1023:20 25.2942 
5 *1023:20 *5234:B1 41.9055 
6 *1023:20 *1023:39 44.2848 
7 *1023:39 *1023:43 23.7801 
8 *1023:43 *1023:53 43.0282 
9 *1023:53 *5230:B1 20 
10 *1023:43 *5231:C 20.3502 
11 *1023:16 *1023:67 0.3193 
12 *1023:67 *4982:A 20 
13 *1023:67 *1023:84 49.3112 
14 *1023:84 *5265:B 23.296 
15 *1023:10 *5241:B 40 
16 *1023:8 *1023:102 7.7662 
17 *1023:102 *5262:B 40 
18 *1023:102 *1023:127 38.6842 
19 *1023:127 *5286:B 20 
*END

*D_NET *1024 0.00213376
*CONN
*I *6102:A I *D sg13g2_buf_1
*I *5070:A2 I *D sg13g2_o21ai_1
*I *5521:Q O *D sg13g2_dfrbpq_1
*CAP
1 *6102:A 0
2 *5070:A2 3.04198e-05
3 *5521:Q 0.00047962
4 *1024:27 0.000264151
5 *1024:12 0.00040229
6 *1024:8 0.000587339
7 *5070:B1 *5070:A2 4.77425e-05
8 *5070:B1 *1024:12 0.000161856
9 *5071:A *1024:27 8.02598e-05
10 *5071:B *1024:27 8.00842e-05
11 *5521:RESET_B *1024:12 0
12 *5937:A *1024:8 0
13 *328:8 *1024:8 0
14 *709:37 *1024:8 0
*RES
1 *5521:Q *1024:8 45.047 
2 *1024:8 *1024:12 21.1845 
3 *1024:12 *5070:A2 20.3193 
4 *1024:12 *1024:27 42.6162 
5 *1024:27 *6102:A 20 
*END

*D_NET *1025 0.010653
*CONN
*I *5310:B I *D sg13g2_nor2_1
*I *5316:B I *D sg13g2_nor2_1
*I *5313:B I *D sg13g2_nor2_1
*I *5289:B I *D sg13g2_nor2_1
*I *5970:X O *D sg13g2_buf_1
*CAP
1 *5310:B 3.24883e-05
2 *5316:B 0.00123125
3 *5313:B 0.000181839
4 *5289:B 0.000138585
5 *5970:X 4.79104e-05
6 *1025:34 0.00184143
7 *1025:21 0.000955073
8 *1025:8 0.000382045
9 *5289:B *5903:A 0.000508159
10 *5310:B *5310:A 0
11 *5313:B *6028:A 0
12 *5316:B *5310:A 0
13 *5316:B *5316:A 0
14 *5316:B *1064:6 0
15 *1025:21 *5903:A 0.00021522
16 *5312:B *5310:B 0
17 *5312:B *5316:B 0
18 *5315:C *5313:B 0
19 *5318:C *5316:B 0.000209796
20 *5673:RESET_B *5316:B 0
21 *5673:D *5316:B 0.000274507
22 *5902:A *5313:B 0.000209856
23 *674:21 *5313:B 0
24 *674:21 *1025:34 0.00142679
25 *674:32 *1025:34 0.00126506
26 *674:40 *5316:B 0
27 *674:48 *5316:B 0
28 *689:67 *1025:8 8.00842e-05
29 *702:14 *1025:8 8.00842e-05
30 *702:24 *1025:8 1.54008e-05
31 *702:62 *1025:34 0.000886019
32 *702:74 *5316:B 0
33 *927:10 *1025:34 0.000671452
34 *996:10 *5316:B 0
*RES
1 *5970:X *1025:8 40.5356 
2 *1025:8 *5289:B 42.3278 
3 *1025:8 *1025:21 2.3999 
4 *1025:21 *5313:B 42.0497 
5 *1025:21 *1025:34 32.2158 
6 *1025:34 *5316:B 32.1643 
7 *1025:34 *5310:B 20.3193 
*END

*D_NET *1026 0.0208281
*CONN
*I *5970:A I *D sg13g2_buf_1
*I *5969:A I *D sg13g2_buf_1
*I *5292:B I *D sg13g2_nor2_1
*I *5319:B I *D sg13g2_nor2_1
*I *5295:B I *D sg13g2_nor2_1
*I *5268:B I *D sg13g2_nor2_1
*I *5244:B I *D sg13g2_nor2_1
*I *5238:B I *D sg13g2_nor2_1
*I *5971:X O *D sg13g2_buf_1
*CAP
1 *5970:A 0
2 *5969:A 0
3 *5292:B 0.000376439
4 *5319:B 0
5 *5295:B 0.000834366
6 *5268:B 4.67934e-05
7 *5244:B 0.000848954
8 *5238:B 0
9 *5971:X 0.00105628
10 *1026:122 0.00118404
11 *1026:110 0.00202418
12 *1026:80 0.000184773
13 *1026:61 0.00147348
14 *1026:55 0.00126271
15 *1026:44 0.00121756
16 *1026:31 0.00237633
17 *1026:14 0.00187204
18 *1026:8 0.00129964
19 *5244:B *5244:A 0
20 *5292:B *5292:A 0
21 *5292:B *6013:A 0
22 *1026:14 *5241:A 0
23 *1026:80 *1032:49 0
24 *1026:110 *1068:8 0
25 *1026:122 *5997:A 0.000112618
26 *5240:C *1026:14 0
27 *5242:A1 *1026:8 0
28 *5242:A2 *1026:14 0
29 *5245:A2 *5244:B 0
30 *5246:A *5244:B 4.77425e-05
31 *5246:B *5244:B 0
32 *5246:C *5244:B 0
33 *5264:B *1026:110 0
34 *5268:A *5268:B 0
35 *5270:C *5268:B 1.54008e-05
36 *5296:A1 *5295:B 0
37 *5296:A2 *5295:B 0.000112686
38 *5320:A2 *1026:80 0
39 *5321:A *1026:61 0
40 *5321:A *1026:80 0
41 *5321:C *5295:B 0
42 *5321:C *1026:61 0
43 *5337:B *1026:122 0.000200463
44 *5355:A *1026:122 0.000177399
45 *5625:RESET_B *5244:B 0
46 *5625:D *5244:B 0
47 *5659:RESET_B *5295:B 0
48 *5675:RESET_B *5292:B 0
49 *5675:D *5292:B 0
50 *5693:CLK *5292:B 0
51 *5707:D *1026:122 0.000264231
52 *5908:A *1026:122 0
53 *5968:A *5244:B 0
54 *5968:A *1026:31 0.000209054
55 *5971:A *1026:8 0
56 *5971:A *1026:14 0
57 *5988:A *1026:61 0
58 *263:12 *1026:14 0
59 *447:8 *1026:14 0.000180763
60 *464:8 *1026:110 0.000714003
61 *485:10 *5295:B 0
62 *502:8 *1026:80 0
63 *605:269 *1026:31 0
64 *605:269 *1026:44 0
65 *605:269 *1026:55 0
66 *605:296 *5295:B 0
67 *605:296 *1026:80 0
68 *618:10 *5292:B 5.30319e-05
69 *618:10 *1026:55 0.00124759
70 *618:10 *1026:61 0.000370795
71 *625:19 *1026:31 0
72 *625:19 *1026:44 0
73 *663:12 *1026:122 0
74 *663:21 *1026:122 0
75 *664:8 *1026:122 0
76 *668:60 *5268:B 8.0216e-05
77 *673:14 *1026:122 0.000333084
78 *673:20 *5244:B 0
79 *673:93 *1026:31 0
80 *674:21 *1026:122 4.77425e-05
81 *689:67 *1026:122 0.0001122
82 *690:27 *1026:8 0
83 *690:27 *1026:14 0.000144188
84 *696:111 *5295:B 0
85 *701:77 *1026:31 0
86 *702:24 *1026:122 0
87 *702:84 *1026:80 0.000234727
88 *717:10 *1026:122 0
89 *719:54 *1026:31 0
90 *719:54 *1026:44 0
91 *987:14 *1026:61 0.000112558
*RES
1 *5971:X *1026:8 21.9982 
2 *1026:8 *1026:14 31.1755 
3 *1026:14 *5238:B 40 
4 *1026:14 *1026:31 47.5396 
5 *1026:31 *5244:B 48.9198 
6 *1026:31 *1026:44 7.2718 
7 *1026:44 *5268:B 40.5356 
8 *1026:44 *1026:55 6.283 
9 *1026:55 *1026:61 24.9955 
10 *1026:61 *5295:B 28.1885 
11 *1026:61 *1026:80 42.3999 
12 *1026:80 *5319:B 20 
13 *1026:55 *5292:B 44.1612 
14 *1026:8 *5969:A 20 
15 *5971:X *1026:110 49.0022 
16 *1026:110 *1026:122 32.2879 
17 *1026:122 *5970:A 20 
*END

*D_NET *1027 0.0127144
*CONN
*I *5447:A I *D sg13g2_nor4_1
*I *5443:A I *D sg13g2_nor4_1
*I *5450:A I *D sg13g2_nor4_1
*I *5453:A I *D sg13g2_nor4_1
*I *5409:A I *D sg13g2_nor3_1
*I *5424:A I *D sg13g2_or4_1
*I *5459:A I *D sg13g2_nor4_1
*I *5456:A I *D sg13g2_nor4_1
*I *5972:X O *D sg13g2_buf_1
*CAP
1 *5447:A 0.000169852
2 *5443:A 0.000302584
3 *5450:A 0
4 *5453:A 0.000192718
5 *5409:A 0
6 *5424:A 0.000695288
7 *5459:A 0
8 *5456:A 1.576e-05
9 *5972:X 9.44482e-05
10 *1027:64 0.00119189
11 *1027:49 0.000179428
12 *1027:34 0.00116289
13 *1027:24 0.00110259
14 *1027:18 0.000915154
15 *1027:12 0.000865061
16 *1027:10 0.000350391
17 *5424:A *1121:8 1.54008e-05
18 *5447:A *5447:B 0.000176902
19 *5456:A *1135:22 3.8502e-05
20 *1027:10 *5447:B 7.90195e-05
21 *1027:24 *5450:B 0.000112618
22 *1027:49 *5459:B 4.77866e-05
23 *1027:49 *1135:22 7.45103e-05
24 *1027:64 *1135:22 3.23417e-05
25 *5424:D *5424:A 8.01776e-05
26 *5443:D *1027:10 0
27 *5448:A *1027:24 0
28 *5450:C *1027:18 0
29 *5457:D *1027:49 4.77425e-05
30 *5459:C *1027:49 0.000230471
31 *5876:A *5453:A 0
32 *5877:A *1027:64 0
33 *5972:A *1027:10 0
34 *246:10 *5443:A 0.000143758
35 *551:10 *1027:64 0.000242341
36 *551:28 *5424:A 0
37 *583:10 *1027:34 0
38 *605:199 *1027:18 0
39 *605:219 *1027:18 0
40 *614:10 *1027:64 0.000288173
41 *615:8 *5443:A 0
42 *650:64 *5447:A 0
43 *678:20 *5447:A 0
44 *678:20 *1027:12 0
45 *678:20 *1027:18 0
46 *680:20 *5443:A 0
47 *680:22 *1027:12 0.00012816
48 *680:22 *1027:18 0.000555441
49 *680:32 *1027:64 0
50 *680:55 *5453:A 0
51 *680:55 *1027:34 0.000395323
52 *680:71 *1027:64 0
53 *680:79 *5424:A 0.000906574
54 *680:106 *5447:A 2.14736e-05
55 *680:106 *1027:12 0.00015729
56 *693:87 *1027:24 0
57 *714:27 *5453:A 0.000110829
58 *714:39 *5453:A 0
59 *719:43 *5424:A 0
60 *1004:14 *1027:34 0.000371965
61 *1004:14 *1027:64 0
62 *1004:50 *5443:A 0
63 *1004:50 *1027:18 0
64 *1004:50 *1027:24 0
65 *1004:99 *1027:64 0
66 *1009:48 *5443:A 0.000111416
67 *1011:25 *5424:A 0
68 *1011:29 *1027:64 0
69 *1011:46 *1027:34 0
70 *1011:46 *1027:49 0
71 *1011:61 *1027:49 0
72 *1011:68 *1027:24 0.000767537
73 *1011:68 *1027:34 0.000181192
74 *1011:81 *1027:24 0.000159424
*RES
1 *5972:X *1027:10 40.8858 
2 *1027:10 *1027:12 1.339 
3 *1027:12 *1027:18 25.4899 
4 *1027:18 *1027:24 25.0573 
5 *1027:24 *1027:34 25.4796 
6 *1027:34 *5456:A 20.2575 
7 *1027:34 *1027:49 41.9055 
8 *1027:49 *5459:A 20 
9 *1027:34 *1027:64 45.2221 
10 *1027:64 *5424:A 28.3224 
11 *1027:64 *5409:A 20 
12 *1027:24 *5453:A 41.6171 
13 *1027:18 *5450:A 20 
14 *1027:12 *5443:A 42.9149 
15 *1027:10 *5447:A 41.7819 
*END

*D_NET *1028 0.0168154
*CONN
*I *5081:A1 I *D sg13g2_o21ai_1
*I *5089:A1 I *D sg13g2_o21ai_1
*I *5090:A1 I *D sg13g2_a21oi_1
*I *5094:A1 I *D sg13g2_a21oi_1
*I *5093:A1 I *D sg13g2_o21ai_1
*I *5095:A1 I *D sg13g2_o21ai_1
*I *5096:A1 I *D sg13g2_a21oi_1
*I *5091:S I *D sg13g2_mux2_1
*I *5973:X O *D sg13g2_buf_1
*CAP
1 *5081:A1 0
2 *5089:A1 0
3 *5090:A1 0
4 *5094:A1 3.22077e-05
5 *5093:A1 1.91638e-05
6 *5095:A1 9.47493e-05
7 *5096:A1 0.000121425
8 *5091:S 0.000726556
9 *5973:X 0.000374205
10 *1028:99 0.000447785
11 *1028:91 0.000835445
12 *1028:58 0.00054996
13 *1028:37 0.00164621
14 *1028:24 0.00190878
15 *1028:20 0.000326436
16 *1028:18 0.0010493
17 *1028:16 0.00331606
18 *1028:14 0.00256237
19 *1028:10 0.000830643
20 *5091:S *1105:38 0
21 *1028:10 *5973:A 0
22 *1028:10 *1044:14 0
23 *1028:37 *1105:38 0
24 *5089:B1 *1028:91 0
25 *5090:B1 *1028:99 0.000598751
26 *5093:B1 *5094:A1 0
27 *5093:A2 *5091:S 0
28 *5093:A2 *5093:A1 4.78359e-05
29 *5094:A2 *5094:A1 1.54556e-05
30 *5095:B1 *1028:58 0
31 *5095:A2 *5095:A1 0
32 *5096:A2 *1028:58 0.000498385
33 *5533:CLK *1028:16 0
34 *5539:RESET_B *1028:99 0
35 *5543:D *5094:A1 0
36 *5545:RESET_B *1028:58 0
37 *5545:CLK *5095:A1 0
38 *5601:CLK *1028:16 0
39 *5809:D *1028:14 0
40 *113:8 *1028:37 0
41 *252:12 *1028:37 0
42 *335:12 *1028:10 0
43 *631:12 *1028:16 0
44 *631:34 *1028:16 0
45 *631:62 *1028:10 0.000241631
46 *632:50 *1028:16 0.000556648
47 *699:10 *1028:10 0
48 *699:16 *1028:14 0
49 *699:41 *1028:14 0
50 *704:31 *1028:91 0
51 *704:33 *1028:91 0
52 *704:44 *1028:16 0
53 *704:57 *1028:16 0
54 *704:72 *1028:14 0
55 *704:72 *1028:16 0
56 *704:83 *1028:18 0
57 *704:89 *5091:S 0
58 *720:27 *1028:16 0
59 *742:29 *1028:91 1.54008e-05
60 *749:8 *1028:37 0
61 *753:12 *5091:S 0
62 *765:8 *1028:18 0
63 *765:8 *1028:20 0
64 *765:16 *5091:S 0
65 *776:32 *1028:58 0
*RES
1 *5973:X *1028:10 23.9599 
2 *1028:10 *1028:14 24.2127 
3 *1028:14 *1028:16 26.5534 
4 *1028:16 *1028:18 8.2606 
5 *1028:18 *1028:20 1.8334 
6 *1028:20 *1028:24 21.339 
7 *1028:24 *5091:S 27.2071 
8 *1028:24 *1028:37 32.2261 
9 *1028:37 *5096:A1 41.0918 
10 *1028:37 *1028:58 44.8616 
11 *1028:58 *5095:A1 40.8858 
12 *1028:20 *5093:A1 40.3193 
13 *1028:18 *5094:A1 40.3193 
14 *1028:16 *1028:91 23.7801 
15 *1028:91 *1028:99 45.0882 
16 *1028:99 *5090:A1 20 
17 *1028:91 *5089:A1 20 
18 *1028:10 *5081:A1 20 
*END

*D_NET *1029 0.0103551
*CONN
*I *5082:A1 I *D sg13g2_a21oi_1
*I *5086:A1 I *D sg13g2_a21oi_1
*I *5085:A1 I *D sg13g2_o21ai_1
*I *5083:A1 I *D sg13g2_o21ai_1
*I *5084:A1 I *D sg13g2_a21oi_1
*I *5087:A1 I *D sg13g2_o21ai_1
*I *5088:A1 I *D sg13g2_a21oi_1
*I *5974:X O *D sg13g2_buf_1
*CAP
1 *5082:A1 0
2 *5086:A1 0
3 *5085:A1 0
4 *5083:A1 5.18976e-05
5 *5084:A1 5.41833e-05
6 *5087:A1 0.000405992
7 *5088:A1 4.97493e-05
8 *5974:X 0.000200994
9 *1029:81 0.00042391
10 *1029:34 0.00121094
11 *1029:30 0.00118116
12 *1029:24 0.000897387
13 *1029:16 0.000984698
14 *1029:14 0.00116028
15 *1029:12 0.000364138
16 *1029:8 0.000339748
17 *5083:A2 *5083:A1 6.46834e-05
18 *5083:A2 *1029:30 0.000307057
19 *5084:A2 *5084:A1 1.54008e-05
20 *5084:B1 *1029:30 0
21 *5086:A2 *1029:81 0.000239999
22 *5087:A2 *5087:A1 0.00037174
23 *5088:A2 *5087:A1 0
24 *5088:B1 *5087:A1 0
25 *5533:CLK *1029:30 0
26 *5535:RESET_B *1029:16 0
27 *107:10 *1029:30 0
28 *109:10 *5087:A1 3.23472e-05
29 *109:10 *5088:A1 8.02105e-05
30 *259:10 *1029:12 0.000224668
31 *259:10 *1029:14 1.53311e-05
32 *335:12 *1029:8 0
33 *337:18 *1029:16 0.000207923
34 *631:62 *1029:8 0
35 *632:50 *1029:12 0
36 *632:50 *1029:14 0
37 *632:50 *1029:16 0
38 *704:57 *1029:24 0.00136433
39 *704:72 *1029:24 0.000106333
40 *710:8 *1029:24 0
41 *710:27 *1029:30 0
42 *720:8 *1029:16 0
*RES
1 *5974:X *1029:8 42.0806 
2 *1029:8 *1029:12 21.6171 
3 *1029:12 *1029:14 2.4823 
4 *1029:14 *1029:16 3.9001 
5 *1029:16 *1029:24 47.313 
6 *1029:24 *1029:30 23.7286 
7 *1029:30 *1029:34 27.0246 
8 *1029:34 *5088:A1 20.5356 
9 *1029:34 *5087:A1 24.2642 
10 *1029:30 *5084:A1 40.5356 
11 *1029:24 *5083:A1 20.5356 
12 *1029:16 *5085:A1 20 
13 *1029:14 *1029:81 44.9337 
14 *1029:81 *5086:A1 20 
15 *1029:12 *5082:A1 20 
*END

*D_NET *1030 0.0227657
*CONN
*I *5362:S I *D sg13g2_mux2_1
*I *5346:S I *D sg13g2_mux2_1
*I *5378:S I *D sg13g2_mux2_1
*I *5398:S I *D sg13g2_mux2_1
*I *5382:S I *D sg13g2_mux2_1
*I *5366:S I *D sg13g2_mux2_1
*I *5350:S I *D sg13g2_mux2_1
*I *5396:S I *D sg13g2_mux2_1
*I *5975:X O *D sg13g2_buf_1
*CAP
1 *5362:S 0.000354531
2 *5346:S 0
3 *5378:S 0
4 *5398:S 0
5 *5382:S 0.000338631
6 *5366:S 3.46921e-05
7 *5350:S 3.67909e-05
8 *5396:S 0
9 *5975:X 0
10 *1030:117 0.000812725
11 *1030:104 0.000929947
12 *1030:84 0.000928394
13 *1030:74 0.000956931
14 *1030:70 0.00116362
15 *1030:46 0.00043167
16 *1030:28 0.00137909
17 *1030:20 0.00168986
18 *1030:16 0.00176731
19 *1030:10 0.00288108
20 *1030:4 0.000782768
21 *5362:S *6009:A 0
22 *5362:S *1061:34 0
23 *1030:10 *1031:10 0
24 *1030:10 *1031:14 0
25 *1030:16 *5366:A1 0.000857856
26 *1030:16 *1031:14 0
27 *1030:16 *1063:12 0.000208615
28 *1030:20 *1031:20 0
29 *1030:28 *1086:25 0
30 *1030:70 *1031:57 0
31 *1030:70 *1061:8 0
32 *1030:70 *1061:18 0
33 *1030:70 *1061:34 0
34 *1030:70 *1070:23 0
35 *1030:84 *5398:A1 0
36 *1030:84 *1070:23 0.000235055
37 *1030:104 *6022:A 0
38 *1030:104 *1031:10 0.000217671
39 *1030:104 *1084:10 0
40 *1030:117 *6022:A 0
41 *1030:117 *1084:10 0
42 *5278:A2 *1030:10 0
43 *5278:A2 *1030:16 0
44 *5285:A *1030:28 0
45 *5307:B *1030:16 8.00842e-05
46 *5309:C *1030:16 0
47 *5347:A *1030:104 0
48 *5366:A0 *5382:S 0.000715248
49 *5366:A0 *1030:46 0.000182109
50 *5379:B *1030:84 0
51 *5383:B *5382:S 0.00117201
52 *5383:B *1030:20 0.00034162
53 *5383:B *1030:46 0.000267234
54 *5399:B *1030:84 0
55 *5647:RESET_B *1030:10 0
56 *5647:RESET_B *1030:16 0.00033942
57 *5651:RESET_B *1030:28 0
58 *5751:CLK *1030:84 0
59 *6017:A *1030:16 0
60 *6085:A *1030:28 0
61 *69:10 *5382:S 0
62 *69:10 *1030:20 0
63 *69:10 *1030:46 0
64 *474:8 *1030:70 0
65 *533:10 *1030:84 0
66 *623:27 *1030:74 0
67 *623:27 *1030:84 0
68 *669:60 *1030:70 0
69 *669:73 *1030:70 0
70 *671:28 *1030:28 0
71 *683:48 *1030:70 0
72 *683:82 *1030:70 0
73 *695:103 *1030:70 0
74 *711:12 *1030:117 0
75 *711:65 *1030:104 0
76 *711:81 *1030:20 0.000874014
77 *841:10 *1030:16 0
78 *937:8 *1030:70 0.000501632
79 *956:10 *1030:104 0
80 *966:8 *1030:70 0
81 *970:10 *5382:S 0.000212958
82 *977:10 *1030:84 0
83 *979:8 *5382:S 0
84 *988:14 *1030:28 0.0001117
85 *993:27 *1030:117 0.00124602
86 *995:23 *1030:20 0.000714418
87 *1021:8 *1030:70 0
*RES
1 *5975:X *1030:4 20 
2 *1030:4 *1030:10 3.1827 
3 *1030:10 *1030:16 33.8098 
4 *1030:16 *1030:20 25.5414 
5 *1030:20 *1030:28 34.9865 
6 *1030:28 *5396:S 40 
7 *1030:20 *5350:S 20.43 
8 *1030:16 *1030:46 1.339 
9 *1030:46 *5366:S 40.3193 
10 *1030:46 *5382:S 46.6023 
11 *1030:10 *1030:70 33.699 
12 *1030:70 *1030:74 20.3193 
13 *1030:74 *1030:84 49.5528 
14 *1030:84 *5398:S 20 
15 *1030:74 *5378:S 20 
16 *1030:4 *1030:104 44.5114 
17 *1030:104 *5346:S 20 
18 *1030:104 *1030:117 46.8495 
19 *1030:117 *5362:S 23.7801 
*END

*D_NET *1031 0.0205399
*CONN
*I *5975:A I *D sg13g2_buf_1
*I *5394:S I *D sg13g2_mux2_1
*I *5348:S I *D sg13g2_mux2_1
*I *5364:S I *D sg13g2_mux2_1
*I *5380:S I *D sg13g2_mux2_1
*I *5976:X O *D sg13g2_buf_1
*CAP
1 *5975:A 0
2 *5394:S 0.00017779
3 *5348:S 0
4 *5364:S 3.17021e-05
5 *5380:S 3.1883e-05
6 *5976:X 0.000637
7 *1031:57 0.0013193
8 *1031:48 0.000726188
9 *1031:33 0.00075789
10 *1031:31 0.00112297
11 *1031:20 0.00262225
12 *1031:14 0.00308896
13 *1031:10 0.00340008
14 *5364:S *1062:18 0
15 *5380:S *5380:A1 0
16 *5394:S *1078:8 0
17 *1031:10 *5346:A1 0
18 *1031:10 *6022:A 0
19 *1031:10 *6027:A 0
20 *1031:14 *5366:A1 0
21 *1031:14 *1063:12 0
22 *1031:20 *5380:A1 0
23 *1031:48 *1062:18 0
24 *1031:57 *5394:A1 0
25 *1031:57 *5986:A 0
26 *1031:57 *1070:23 0
27 *5277:A *1031:10 0
28 *5364:A0 *5364:S 0
29 *5379:B *5394:S 0.000307019
30 *5397:B *1031:20 0
31 *5399:B *5394:S 0
32 *5647:RESET_B *1031:14 0
33 *5699:CLK *1031:57 0.000587588
34 *5733:RESET_B *5380:S 0
35 *5733:RESET_B *1031:20 0
36 *69:10 *1031:20 0
37 *69:10 *1031:31 0
38 *199:8 *1031:31 0
39 *505:10 *1031:57 0.000181192
40 *622:56 *1031:57 0.000608353
41 *644:24 *1031:31 0.000292275
42 *669:60 *1031:57 0.000501459
43 *669:73 *1031:57 0.00146226
44 *695:103 *1031:57 0
45 *711:12 *1031:10 0
46 *711:57 *1031:10 0
47 *711:71 *1031:10 0.000161121
48 *711:71 *1031:14 0.00174139
49 *711:81 *1031:20 0
50 *714:49 *1031:48 0
51 *714:55 *1031:31 0
52 *846:8 *1031:31 0.000563531
53 *916:8 *1031:57 0
54 *956:10 *1031:10 0
55 *977:10 *1031:57 0
56 *1021:8 *1031:57 0
57 *1030:10 *1031:10 0
58 *1030:10 *1031:14 0
59 *1030:16 *1031:14 0
60 *1030:20 *1031:20 0
61 *1030:70 *1031:57 0
62 *1030:104 *1031:10 0.000217671
*RES
1 *5976:X *1031:10 25.9637 
2 *1031:10 *1031:14 36.7581 
3 *1031:14 *1031:20 34.9453 
4 *1031:20 *5380:S 20.1345 
5 *1031:20 *1031:31 34.1934 
6 *1031:31 *1031:33 20 
7 *1031:33 *5364:S 20.3193 
8 *1031:33 *1031:48 48.3327 
9 *1031:48 *5348:S 20 
10 *1031:10 *1031:57 37.1598 
11 *1031:57 *5394:S 42.0497 
12 *1031:10 *5975:A 20 
*END

*D_NET *1032 0.0147453
*CONN
*I *5374:S I *D sg13g2_mux2_1
*I *5392:S I *D sg13g2_mux2_1
*I *5376:S I *D sg13g2_mux2_1
*I *5360:S I *D sg13g2_mux2_1
*I *5358:S I *D sg13g2_mux2_1
*I *5342:S I *D sg13g2_mux2_1
*I *5344:S I *D sg13g2_mux2_1
*I *5340:S I *D sg13g2_mux2_1
*I *5977:X O *D sg13g2_buf_1
*CAP
1 *5374:S 0
2 *5392:S 6.68694e-05
3 *5376:S 2.77263e-05
4 *5360:S 0.000371883
5 *5358:S 0
6 *5342:S 0
7 *5344:S 0
8 *5340:S 4.72978e-05
9 *5977:X 0.000338075
10 *1032:70 0.000978362
11 *1032:66 0.00122846
12 *1032:57 0.00112473
13 *1032:51 0.000541892
14 *1032:49 0.000990032
15 *1032:31 0.00087817
16 *1032:23 0.00189791
17 *1032:17 0.0021977
18 *1032:8 0.000573301
19 *5360:S *5999:A 0
20 *5392:S *5994:A 0
21 *1032:8 *5340:A1 0
22 *1032:8 *5998:A 0.000241351
23 *1032:23 *5906:A 0
24 *1032:23 *1082:19 0
25 *1032:31 *5344:A1 0
26 *1032:31 *1082:12 0.000238641
27 *1032:49 *1067:30 0.000235055
28 *1032:49 *1067:43 0
29 *1032:57 *5358:A1 0
30 *1032:57 *6021:A 0
31 *1032:57 *1067:22 0
32 *1032:66 *5994:A 0
33 *1032:70 *5994:A 0
34 *1032:70 *6032:A 0
35 *1032:70 *1069:26 0
36 *5272:A1 *1032:23 0
37 *5272:A2 *1032:23 4.79124e-05
38 *5320:A1 *1032:49 0.000608354
39 *5341:A *1032:17 0
40 *5359:A *1032:66 0
41 *5375:A *1032:57 0
42 *5376:A0 *5360:S 0
43 *5376:A0 *1032:70 0
44 *5399:B *5360:S 0
45 *5643:RESET_B *1032:23 0.000265469
46 *5643:D *1032:23 0
47 *5643:CLK *1032:23 0
48 *5643:CLK *1032:31 0
49 *5693:RESET_B *1032:8 0
50 *5693:D *1032:8 0
51 *5697:RESET_B *1032:31 0
52 *5697:D *1032:31 0
53 *5881:A *1032:66 0
54 *671:22 *1032:31 0
55 *687:20 *1032:23 0
56 *687:24 *1032:49 0.00162094
57 *687:56 *1032:17 0
58 *687:56 *1032:23 0
59 *687:56 *1032:49 0
60 *690:39 *1032:23 0
61 *702:84 *1032:49 0
62 *712:31 *1032:57 0
63 *712:37 *1032:57 0
64 *712:37 *1032:66 0
65 *712:43 *1032:66 0
66 *713:10 *1032:49 0
67 *713:18 *1032:23 0
68 *713:60 *5360:S 0
69 *713:60 *1032:70 0
70 *987:14 *1032:8 0.00020973
71 *987:14 *1032:17 1.54008e-05
72 *1026:80 *1032:49 0
*RES
1 *5977:X *1032:8 23.6977 
2 *1032:8 *5340:S 20.5974 
3 *1032:8 *1032:17 2.0497 
4 *1032:17 *1032:23 10.5369 
5 *1032:23 *1032:31 49.9704 
6 *1032:31 *5344:S 20 
7 *1032:23 *5342:S 20 
8 *1032:17 *1032:49 35.1101 
9 *1032:49 *1032:51 20 
10 *1032:51 *1032:57 4.8864 
11 *1032:57 *5358:S 20 
12 *1032:57 *1032:66 5.3128 
13 *1032:66 *1032:70 5.989 
14 *1032:70 *5360:S 23.9964 
15 *1032:70 *5376:S 20.3502 
16 *1032:66 *5392:S 20.8446 
17 *1032:51 *5374:S 20 
*END

*D_NET *1033 0.0241501
*CONN
*I *5390:S I *D sg13g2_mux2_1
*I *5976:A I *D sg13g2_buf_1
*I *5977:A I *D sg13g2_buf_1
*I *5973:A I *D sg13g2_buf_1
*I *5974:A I *D sg13g2_buf_1
*I *5978:X O *D sg13g2_buf_1
*CAP
1 *5390:S 0
2 *5976:A 0.00130878
3 *5977:A 9.30496e-05
4 *5973:A 7.97013e-05
5 *5974:A 0.000325742
6 *5978:X 2.78983e-05
7 *1033:72 0.00118328
8 *1033:57 0.00320917
9 *1033:43 0.00314848
10 *1033:12 0.00490489
11 *1033:10 0.00478349
12 *1033:8 0.000283689
13 *5973:A *1044:14 0
14 *5976:A *5344:A1 0
15 *5976:A *5346:A1 0
16 *1033:12 *1036:8 0
17 *1033:12 *1044:14 0
18 *1033:72 *5390:A1 0
19 *1033:72 *1076:10 0
20 *5245:B1 *1033:12 0.000345126
21 *5268:A *1033:10 0.000129283
22 *5268:A *1033:12 0.000589657
23 *5269:A2 *1033:57 0.000193764
24 *5275:A1 *5976:A 0
25 *5320:B1 *1033:72 0
26 *5341:B *1033:10 0
27 *5342:A0 *1033:57 0
28 *5343:A *1033:57 0.000436242
29 *5345:A *5976:A 0
30 *5345:B *5976:A 0
31 *5345:B *1033:57 0
32 *5531:RESET_B *5974:A 0
33 *5645:CLK *5976:A 0
34 *5693:RESET_B *1033:8 4.73096e-05
35 *5693:CLK *1033:72 0
36 *5695:RESET_B *1033:57 0
37 *5695:D *1033:57 0.00055547
38 *5759:CLK *1033:12 0
39 *5942:A *5976:A 0
40 *79:16 *1033:12 0
41 *221:10 *1033:12 0
42 *237:10 *1033:12 0
43 *335:12 *5974:A 0
44 *469:10 *1033:57 0.000371316
45 *555:10 *1033:12 0
46 *618:10 *1033:72 0
47 *631:62 *5973:A 0
48 *631:62 *5974:A 0
49 *632:50 *5974:A 0
50 *651:25 *1033:12 0
51 *652:51 *5976:A 0
52 *652:51 *1033:57 0
53 *673:33 *1033:10 0
54 *673:33 *1033:12 0
55 *673:39 *1033:57 0.00117252
56 *690:39 *1033:8 4.73096e-05
57 *690:39 *1033:57 0.000273848
58 *712:27 *1033:10 0
59 *712:27 *1033:72 0
60 *713:18 *1033:57 8.02269e-05
61 *719:43 *1033:12 0
62 *719:54 *1033:10 0
63 *719:54 *1033:12 0
64 *722:8 *1033:72 0
65 *917:8 *1033:72 0.000559844
66 *1028:10 *5973:A 0
*RES
1 *5978:X *1033:8 40.3193 
2 *1033:8 *1033:10 2.0806 
3 *1033:10 *1033:12 46.8238 
4 *1033:12 *5974:A 43.3269 
5 *1033:12 *5973:A 40.7519 
6 *1033:10 *5977:A 40.7519 
7 *1033:8 *1033:43 0.5974 
8 *1033:43 *1033:57 41.321 
9 *1033:57 *5976:A 33.4621 
10 *1033:43 *1033:72 32.875 
11 *1033:72 *5390:S 20 
*END

*D_NET *1034 0.0160296
*CONN
*I *5099:A I *D sg13g2_and2_1
*I *5103:A1 I *D sg13g2_a21oi_1
*I *5102:A1 I *D sg13g2_o21ai_1
*I *5100:S I *D sg13g2_mux2_1
*I *5098:A1 I *D sg13g2_a21oi_1
*I *5097:A1 I *D sg13g2_o21ai_1
*I *5079:A1 I *D sg13g2_o21ai_1
*I *5204:A I *D sg13g2_nand4_1
*I *5979:X O *D sg13g2_buf_1
*CAP
1 *5099:A 2.60565e-05
2 *5103:A1 0.000369964
3 *5102:A1 6.92281e-05
4 *5100:S 0
5 *5098:A1 0.000584748
6 *5097:A1 0.0002836
7 *5079:A1 0.000517539
8 *5204:A 0.000291607
9 *5979:X 0.000593014
10 *1034:69 0.000974623
11 *1034:65 0.000566693
12 *1034:59 0.00130639
13 *1034:38 0.0016128
14 *1034:36 0.000431333
15 *1034:34 0.00105927
16 *1034:32 0.000841656
17 *1034:12 0.000645509
18 *5098:A1 *1109:14 1.54008e-05
19 *5099:A *5099:B 4.77425e-05
20 *1034:12 *1107:35 0.000434904
21 *1034:32 *5099:B 0.000553662
22 *1034:32 *1107:35 2.46413e-05
23 *1034:65 *1109:14 0.000772838
24 *5079:A2 *5079:A1 0.000161086
25 *5097:B1 *5097:A1 0
26 *5097:B1 *5098:A1 0
27 *5097:A2 *5097:A1 1.54556e-05
28 *5098:B1 *5098:A1 0
29 *5102:A2 *5102:A1 1.53666e-05
30 *5103:A2 *5103:A1 0.00069109
31 *5103:A2 *1034:34 0
32 *5103:B1 *5103:A1 0.000594065
33 *5204:C *5204:A 8.02379e-05
34 *5204:D *5204:A 0
35 *5206:C *1034:12 7.93152e-05
36 *5209:A2 *5204:A 0
37 *5209:B1 *5204:A 0
38 *5218:A1 *1034:34 0
39 *5218:A2 *5099:A 4.77425e-05
40 *5547:CLK *5098:A1 0
41 *5547:CLK *1034:65 0
42 *5858:A *1034:12 0.000181192
43 *6038:A *5079:A1 0
44 *146:8 *1034:36 0
45 *344:8 *1034:32 0.000181608
46 *388:38 *5204:A 8.02924e-05
47 *421:21 *1034:12 0.000370688
48 *630:12 *1034:65 0
49 *656:24 *1034:32 0
50 *656:24 *1034:34 0
51 *688:8 *5079:A1 0.00109244
52 *709:41 *5102:A1 0
53 *709:41 *1034:59 0
54 *809:8 *1034:69 0
55 *809:12 *1034:65 0
56 *809:25 *5097:A1 0.000287672
57 *809:25 *1034:69 0.00012816
58 *820:14 *5079:A1 0
*RES
1 *5979:X *1034:12 44.2951 
2 *1034:12 *5204:A 42.6986 
3 *5979:X *1034:32 43.1415 
4 *1034:32 *1034:34 5.047 
5 *1034:34 *1034:36 1.0918 
6 *1034:36 *1034:38 2.3278 
7 *1034:38 *5079:A1 47.4263 
8 *1034:38 *1034:59 48.755 
9 *1034:59 *1034:65 25.6135 
10 *1034:65 *1034:69 21.339 
11 *1034:69 *5097:A1 43.1724 
12 *1034:69 *5098:A1 45.7268 
13 *1034:65 *5100:S 20 
14 *1034:36 *5102:A1 40.8549 
15 *1034:34 *5103:A1 44.6453 
16 *1034:32 *5099:A 40.3193 
*END

*D_NET *1035 0.0148134
*CONN
*I *5919:A I *D sg13g2_buf_1
*I *5923:A I *D sg13g2_buf_1
*I *5757:Q O *D sg13g2_dfrbpq_1
*CAP
1 *5919:A 0.00042009
2 *5923:A 0
3 *5757:Q 3.61831e-05
4 *1035:39 0.00280994
5 *1035:28 0.000351151
6 *1035:22 0.00262927
7 *1035:8 0.00470415
8 *5919:A *5906:A 0
9 *1035:22 *1054:24 0
10 *1035:39 *1038:8 0
11 *1035:39 *1038:16 0
12 *1035:39 *1128:8 0
13 *1035:39 *1128:10 0
14 *5022:A2 *1035:28 0
15 *5273:B *5919:A 0
16 *5335:A1 *1035:22 0.000208938
17 *5335:A2 *1035:22 0
18 *5406:A *1035:22 0.000112563
19 *5833:A *1035:22 0
20 *69:39 *1035:8 0
21 *69:39 *1035:22 0
22 *162:10 *5919:A 0
23 *183:10 *1035:22 0.000242154
24 *222:10 *1035:39 0
25 *238:8 *1035:39 0
26 *651:21 *1035:22 0
27 *671:8 *5919:A 0
28 *686:12 *1035:22 8.02763e-05
29 *686:34 *1035:22 0.000240662
30 *690:10 *1035:28 0
31 *690:27 *1035:28 0
32 *696:96 *1035:39 0
33 *697:21 *1035:39 7.31628e-05
34 *698:18 *1035:39 0.0029049
35 *698:26 *1035:22 0
36 *698:26 *1035:39 0
37 *700:52 *1035:22 0
38 *700:54 *1035:22 0
39 *700:60 *1035:22 0
40 *1010:12 *1035:22 0
41 *1010:12 *1035:39 0
*RES
1 *5757:Q *1035:8 40.3502 
2 *1035:8 *1035:22 42.3407 
3 *1035:22 *1035:28 43.0694 
4 *1035:28 *5923:A 20 
5 *1035:8 *1035:39 48.6031 
6 *1035:39 *5919:A 24.429 
*END

*D_NET *1036 0.00667279
*CONN
*I *5238:A I *D sg13g2_nor2_1
*I *5463:A I *D sg13g2_nor2_1
*I *5465:B I *D sg13g2_nor4_1
*I *5791:Q O *D sg13g2_dfrbpq_1
*CAP
1 *5238:A 0.000339133
2 *5463:A 0
3 *5465:B 0.000451948
4 *5791:Q 0.000302394
5 *1036:16 0.000870046
6 *1036:10 0.00075723
7 *1036:8 0.000302394
8 *5465:B *5466:A 1.53311e-05
9 *5465:B *5468:B 0
10 *5464:C *1036:16 0
11 *5466:B *5465:B 0.000661176
12 *5467:B *5465:B 0
13 *5621:CLK *5238:A 0
14 *5791:D *1036:16 0
15 *5793:CLK *1036:8 0.000342234
16 *79:16 *1036:16 0.000497303
17 *586:61 *5465:B 0.000128742
18 *586:61 *1036:16 0.00010637
19 *625:25 *5238:A 0
20 *625:42 *1036:8 0.000555736
21 *701:33 *5238:A 0.000546699
22 *701:33 *1036:16 0.000401487
23 *701:54 *5465:B 0.000394571
24 *1033:12 *1036:8 0
*RES
1 *5791:Q *1036:8 44.5526 
2 *1036:8 *1036:10 20 
3 *1036:10 *1036:16 25.0573 
4 *1036:16 *5465:B 46.3448 
5 *1036:16 *5463:A 40 
6 *1036:10 *5238:A 23.7801 
*END

*D_NET *1037 0.00484284
*CONN
*I *5241:A I *D sg13g2_nor2_1
*I *5468:B I *D sg13g2_nor4_1
*I *5466:A I *D sg13g2_nor2_1
*I *5793:Q O *D sg13g2_dfrbpq_1
*CAP
1 *5241:A 0.0010945
2 *5468:B 0.000506026
3 *5466:A 0.000127179
4 *5793:Q 0.000163368
5 *1037:12 0.00100333
6 *1037:10 0.00146462
7 *1037:8 0.000163368
8 *5242:A2 *5241:A 0
9 *5464:B *5468:B 0
10 *5465:A *5468:B 0
11 *5465:B *5466:A 1.53311e-05
12 *5465:B *5468:B 0
13 *5791:D *1037:12 0
14 *79:8 *5241:A 0
15 *79:8 *1037:12 0
16 *237:10 *5466:A 0
17 *590:12 *5466:A 0
18 *682:97 *5468:B 4.75265e-05
19 *682:110 *5468:B 0.000257583
20 *701:39 *5468:B 0
21 *1026:14 *5241:A 0
*RES
1 *5793:Q *1037:8 41.5862 
2 *1037:8 *1037:10 20 
3 *1037:10 *1037:12 3.9964 
4 *1037:12 *5466:A 21.5965 
5 *1037:12 *5468:B 25.4899 
6 *1037:10 *5241:A 31.5875 
*END

*D_NET *1038 0.00357232
*CONN
*I *5244:A I *D sg13g2_nor2_1
*I *5469:A I *D sg13g2_nor2_1
*I *5471:B I *D sg13g2_nor4_1
*I *5795:Q O *D sg13g2_dfrbpq_1
*CAP
1 *5244:A 0.000191729
2 *5469:A 0
3 *5471:B 0.000382192
4 *5795:Q 0.000175322
5 *1038:16 0.0012758
6 *1038:8 0.00126065
7 *5244:B *5244:A 0
8 *5464:B *1038:16 0
9 *5470:C *5471:B 0
10 *5470:C *1038:16 0
11 *5471:A *5471:B 1.53311e-05
12 *5471:C *5471:B 4.75616e-05
13 *5929:A *1038:16 1.53311e-05
14 *5968:A *5244:A 0
15 *238:8 *1038:16 0
16 *696:8 *5471:B 0
17 *696:8 *1038:16 0.000208405
18 *696:96 *1038:8 0
19 *696:96 *1038:16 0
20 *1014:55 *5471:B 0
21 *1035:39 *1038:8 0
22 *1035:39 *1038:16 0
*RES
1 *5795:Q *1038:8 41.5862 
2 *1038:8 *1038:16 27.9413 
3 *1038:16 *5471:B 23.9552 
4 *1038:16 *5469:A 20 
5 *1038:8 *5244:A 42.0497 
*END

*D_NET *1039 0.00370452
*CONN
*I *5247:A I *D sg13g2_nor2_1
*I *5472:A I *D sg13g2_nor2_1
*I *5474:B I *D sg13g2_nor4_1
*I *5797:Q O *D sg13g2_dfrbpq_1
*CAP
1 *5247:A 0.000145706
2 *5472:A 0
3 *5474:B 0.000212528
4 *5797:Q 0
5 *1039:10 0.00103259
6 *1039:4 0.00096577
7 *5474:A *5474:B 1.53311e-05
8 *5797:CLK *1039:10 0
9 *5968:A *5247:A 0.000242006
10 *5968:A *1039:10 0.000112437
11 *586:42 *1039:10 0.000498074
12 *678:81 *5474:B 0.000207881
13 *682:46 *5474:B 0.000272195
14 *696:25 *1039:10 0
15 *764:16 *1039:10 0
*RES
1 *5797:Q *1039:4 20 
2 *1039:4 *1039:10 28.0237 
3 *1039:10 *5474:B 42.4308 
4 *1039:10 *5472:A 40 
5 *1039:4 *5247:A 21.6171 
*END

*D_NET *1040 0.0031593
*CONN
*I *5250:A I *D sg13g2_nor2_1
*I *5475:A I *D sg13g2_nor2_1
*I *5477:B I *D sg13g2_nor4_1
*I *5799:Q O *D sg13g2_dfrbpq_1
*CAP
1 *5250:A 7.9305e-05
2 *5475:A 0
3 *5477:B 0.000459566
4 *5799:Q 0.000158538
5 *1040:12 0.000679754
6 *1040:8 0.000458031
7 *5252:C *1040:8 0
8 *5476:A *5250:A 0.000288997
9 *5476:A *1040:12 0.000714655
10 *5477:A *5477:B 0.000112426
11 *586:16 *5477:B 0.000208028
12 *633:24 *5477:B 0
13 *633:24 *1040:8 0
14 *678:81 *5477:B 0
*RES
1 *5799:Q *1040:8 41.6171 
2 *1040:8 *1040:12 23.3166 
3 *1040:12 *5477:B 24.9028 
4 *1040:12 *5475:A 20 
5 *1040:8 *5250:A 41.339 
*END

*D_NET *1041 0.00294507
*CONN
*I *5478:A I *D sg13g2_nor2_1
*I *5480:B I *D sg13g2_nor4_1
*I *5253:A I *D sg13g2_nor2_1
*I *5801:Q O *D sg13g2_dfrbpq_1
*CAP
1 *5478:A 0
2 *5480:B 0.00036003
3 *5253:A 0.000155431
4 *5801:Q 0
5 *1041:17 0.00119736
6 *1041:4 0.000992765
7 *5253:B *5253:A 0
8 *5480:A *5480:B 4.7687e-05
9 *5928:A *5253:A 0
10 *5928:A *1041:17 0
11 *586:103 *5480:B 0
12 *605:229 *5480:B 0
13 *606:14 *5253:A 0
14 *606:14 *1041:17 0
15 *679:43 *5480:B 0.000144046
16 *679:43 *1041:17 0
17 *681:20 *5480:B 4.77425e-05
18 *697:36 *1041:17 0
19 *1012:24 *5480:B 0
*RES
1 *5801:Q *1041:4 20 
2 *1041:4 *5253:A 21.6171 
3 *1041:4 *1041:17 29.5069 
4 *1041:17 *5480:B 43.7142 
5 *1041:17 *5478:A 40 
*END

*D_NET *1042 0.00238592
*CONN
*I *6008:A I *D sg13g2_dlygate4sd3_1
*I *5483:B I *D sg13g2_nor4_1
*I *5481:A I *D sg13g2_nor2_1
*I *5803:Q O *D sg13g2_dfrbpq_1
*CAP
1 *6008:A 0.000122972
2 *5483:B 0.000248586
3 *5481:A 0.000449122
4 *5803:Q 0
5 *1042:19 0.000501443
6 *1042:6 0.000579007
7 *5481:B *5481:A 0
8 *5482:C *5481:A 0
9 *5483:A *5483:B 1.53311e-05
10 *5485:B *5481:A 0
11 *5485:B *5483:B 0
12 *586:103 *5483:B 0
13 *602:8 *6008:A 0.000288852
14 *602:8 *1042:19 0.000180603
15 *605:229 *5481:A 0
*RES
1 *5803:Q *1042:6 40 
2 *1042:6 *5481:A 43.4814 
3 *1042:6 *1042:19 1.339 
4 *1042:19 *5483:B 42.5138 
5 *1042:19 *6008:A 41.8746 
*END

*D_NET *1043 0.00089488
*CONN
*I *5989:A I *D sg13g2_dlygate4sd3_1
*I *5805:Q O *D sg13g2_dfrbpq_1
*CAP
1 *5989:A 6.43881e-05
2 *5805:Q 0.000158838
3 *1043:8 0.000223226
4 *5631:RESET_B *5989:A 0
5 *622:12 *1043:8 0.000448428
6 *1020:77 *1043:8 0
7 *1020:81 *1043:8 0
*RES
1 *5805:Q *1043:8 42.0806 
2 *1043:8 *5989:A 40.6695 
*END

*D_NET *1044 0.00351799
*CONN
*I *5414:B_N I *D sg13g2_nor2b_1
*I *5415:B I *D sg13g2_nand2b_1
*I *5488:A2 I *D sg13g2_o21ai_1
*I *5685:Q O *D sg13g2_dfrbpq_1
*CAP
1 *5414:B_N 0
2 *5415:B 0.000153903
3 *5488:A2 5.34467e-05
4 *5685:Q 0.00080101
5 *1044:22 0.000745609
6 *1044:18 0.000660281
7 *1044:14 0.000923033
8 *1044:22 *1125:10 0
9 *5414:A *1044:18 0
10 *5414:A *1044:22 0
11 *5488:B1 *5415:B 0
12 *5488:B1 *5488:A2 1.54008e-05
13 *5488:A1 *5415:B 0
14 *5973:A *1044:14 0
15 *555:10 *1044:18 0
16 *604:10 *5488:A2 0
17 *649:67 *1044:22 0
18 *676:14 *5415:B 4.00698e-05
19 *676:28 *5415:B 5.56402e-05
20 *676:28 *1044:22 0
21 *699:10 *1044:14 6.95917e-05
22 *735:10 *1044:14 0
23 *1028:10 *1044:14 0
24 *1033:12 *1044:14 0
*RES
1 *5685:Q *1044:14 49.4657 
2 *1044:14 *1044:18 21.1845 
3 *1044:18 *1044:22 6.077 
4 *1044:22 *5488:A2 20.5356 
5 *1044:22 *5415:B 21.8746 
6 *1044:18 *5414:B_N 20 
*END

*D_NET *1045 0.00591328
*CONN
*I *5025:A1 I *D sg13g2_o21ai_1
*I *5437:A I *D sg13g2_nand3_1
*I *5491:Q O *D sg13g2_dfrbpq_1
*CAP
1 *5025:A1 0
2 *5437:A 0.001855
3 *5491:Q 0.00010771
4 *1045:27 0.000118473
5 *1045:6 0.00208119
6 *5437:A *5407:D 4.78356e-05
7 *5437:A *1052:16 0
8 *5437:A *1127:8 0
9 *1045:27 *5025:A2 0
10 *5405:A *5437:A 0
11 *5407:A *5437:A 1.54556e-05
12 *5410:B *5437:A 0.000501173
13 *5418:B *5437:A 0
14 *5421:A2 *5437:A 0
15 *5422:A *5437:A 0
16 *5422:D *5437:A 0.000144817
17 *5437:C *5437:A 0
18 *5759:D *5437:A 0
19 *5956:A *5437:A 0
20 *5982:A *5437:A 1.54008e-05
21 *5982:A *1045:6 0.000194236
22 *298:10 *5437:A 4.77425e-05
23 *298:10 *1045:6 0.000209637
24 *298:10 *1045:27 0.000235055
25 *547:6 *5437:A 0
26 *549:21 *5437:A 9.72391e-05
27 *550:10 *5437:A 0
28 *552:12 *5437:A 0.000242313
29 *672:58 *1045:27 0
30 *676:51 *5437:A 0
31 *1009:8 *5437:A 0
*RES
1 *5491:Q *1045:6 21.4008 
2 *1045:6 *5437:A 39.4876 
3 *1045:6 *1045:27 41.5862 
4 *1045:27 *5025:A1 20 
*END

*D_NET *1046 0.00885497
*CONN
*I *4981:B I *D sg13g2_nand3_1
*I *5233:A1 I *D sg13g2_a21oi_1
*I *5232:A1 I *D sg13g2_o21ai_1
*I *5016:B I *D sg13g2_nand3_1
*I *5234:A2 I *D sg13g2_a21oi_1
*I *5236:A2 I *D sg13g2_o21ai_1
*I *5617:Q O *D sg13g2_dfrbpq_1
*CAP
1 *4981:B 0
2 *5233:A1 0.000949153
3 *5232:A1 0.000182409
4 *5016:B 0
5 *5234:A2 3.3394e-05
6 *5236:A2 3.10612e-05
7 *5617:Q 0.000583768
8 *1046:44 0.000373087
9 *1046:38 0.00135876
10 *1046:29 0.000379794
11 *1046:16 0.000569133
12 *1046:8 0.000994368
13 *5232:A1 *1052:16 0
14 *5236:A2 *5235:A1 1.54008e-05
15 *1046:29 *5016:A 7.51285e-05
16 *1046:29 *1047:12 0.000340288
17 *4981:C *1046:8 1.54008e-05
18 *5016:C *5232:A1 1.54556e-05
19 *5233:A2 *5233:A1 0.000339683
20 *5233:B1 *5233:A1 0
21 *5235:B2 *5233:A1 0
22 *5235:B2 *1046:38 0
23 *5236:B1 *5236:A2 4.77425e-05
24 *5236:B1 *1046:16 0.000259051
25 *5617:D *5233:A1 0
26 *5829:RESET_B *1046:8 0
27 *5829:D *1046:8 0
28 *5866:A *1046:8 0
29 *79:8 *1046:8 0
30 *442:10 *1046:44 0
31 *609:6 *1046:8 0
32 *638:10 *5234:A2 4.77537e-05
33 *638:10 *1046:38 0.0001944
34 *638:59 *1046:16 0.000501044
35 *672:14 *5232:A1 0.000112548
36 *672:33 *5232:A1 0.000176405
37 *715:78 *1046:38 0
38 *715:82 *1046:44 0.000181608
39 *715:93 *1046:16 0.000874758
40 *715:108 *1046:16 7.52158e-05
41 *715:123 *5232:A1 0
42 *715:123 *5233:A1 0
43 *718:41 *1046:16 0
44 *1017:26 *5233:A1 0
45 *1017:26 *1046:44 0
46 *1017:37 *5233:A1 0
47 *1023:39 *1046:16 0.00012816
48 *1023:43 *5233:A1 0
49 *1023:53 *5233:A1 0
*RES
1 *5617:Q *1046:8 26.1388 
2 *1046:8 *1046:16 46.3551 
3 *1046:16 *5236:A2 20.3193 
4 *1046:16 *1046:29 41.8334 
5 *1046:29 *5234:A2 20.3193 
6 *1046:29 *1046:38 2.0497 
7 *1046:38 *1046:44 42.0806 
8 *1046:44 *5016:B 20 
9 *1046:44 *5232:A1 21.8334 
10 *1046:38 *5233:A1 28.343 
11 *1046:8 *4981:B 20 
*END

*D_NET *1047 0.0063424
*CONN
*I *6023:A I *D sg13g2_dlygate4sd3_1
*I *5236:A1 I *D sg13g2_o21ai_1
*I *5235:A1 I *D sg13g2_a22oi_1
*I *5234:A1 I *D sg13g2_a21oi_1
*I *5016:A I *D sg13g2_nand3_1
*I *5619:Q O *D sg13g2_dfrbpq_1
*CAP
1 *6023:A 0.00032725
2 *5236:A1 0
3 *5235:A1 0.000243084
4 *5234:A1 0
5 *5016:A 0.000339084
6 *5619:Q 0.00015147
7 *1047:32 0.000243084
8 *1047:12 0.000437785
9 *1047:10 0.000502023
10 *1047:6 0.000882043
11 *5234:B1 *1047:10 5.30319e-05
12 *5234:B1 *1047:12 0.000288087
13 *5235:B1 *5235:A1 0.000112563
14 *5236:A2 *5235:A1 1.54008e-05
15 *5619:RESET_B *5235:A1 0
16 *79:8 *6023:A 0
17 *79:8 *1047:6 0
18 *446:8 *5016:A 0
19 *638:16 *5016:A 0
20 *672:33 *5016:A 0.000339294
21 *715:74 *5016:A 0.000181695
22 *715:82 *5016:A 0
23 *715:93 *1047:10 0
24 *715:108 *6023:A 4.77425e-05
25 *715:108 *1047:10 0
26 *1017:26 *5016:A 0.000339267
27 *1023:20 *1047:10 0.00114241
28 *1023:39 *5235:A1 4.77425e-05
29 *1023:84 *1047:10 0.00023393
30 *1046:29 *5016:A 7.51285e-05
31 *1046:29 *1047:12 0.000340288
*RES
1 *5619:Q *1047:6 21.4008 
2 *1047:6 *1047:10 26.5302 
3 *1047:10 *1047:12 1.8334 
4 *1047:12 *5016:A 44.0994 
5 *1047:12 *5234:A1 40 
6 *1047:10 *1047:32 20 
7 *1047:32 *5235:A1 22.781 
8 *1047:32 *5236:A1 20 
9 *1047:6 *6023:A 23.3578 
*END

*D_NET *1048 0.0149004
*CONN
*I *5403:A_N I *D sg13g2_nand2b_1
*I *5400:B I *D sg13g2_nand2b_1
*I *5109:B I *D sg13g2_or2_1
*I *5104:B I *D sg13g2_nand2b_1
*I *5121:A2 I *D sg13g2_o21ai_1
*I *4983:B I *D sg13g2_and2_1
*I *5108:B I *D sg13g2_nor2_1
*I *5231:B I *D sg13g2_nor3_1
*I *5811:Q O *D sg13g2_dfrbpq_1
*CAP
1 *5403:A_N 0.000499459
2 *5400:B 3.64002e-05
3 *5109:B 0
4 *5104:B 0
5 *5121:A2 0.000612617
6 *4983:B 0.00081514
7 *5108:B 0
8 *5231:B 0.000479563
9 *5811:Q 2.77263e-05
10 *1048:65 0.000832542
11 *1048:59 0.00120638
12 *1048:40 0.0023141
13 *1048:36 0.00160167
14 *1048:23 0.00134684
15 *1048:8 0.00104551
16 *1048:6 0.000799066
17 *5400:B *5400:A_N 1.54008e-05
18 *4983:A *4983:B 0.000501123
19 *4984:B *4983:B 4.77425e-05
20 *5121:A1 *5121:A2 0.000497086
21 *5233:B1 *5231:B 0.000491453
22 *5617:RESET_B *5231:B 0.000274769
23 *5617:CLK *5231:B 0
24 *5813:RESET_B *4983:B 0
25 *5813:D *4983:B 0
26 *5898:A *4983:B 0
27 *5962:A *5121:A2 0
28 *261:31 *4983:B 0
29 *332:8 *1048:40 7.51285e-05
30 *332:8 *1048:59 0
31 *347:8 *5121:A2 0
32 *348:8 *5121:A2 0
33 *351:14 *1048:23 1.54556e-05
34 *546:10 *5403:A_N 0
35 *605:114 *1048:36 0
36 *605:146 *1048:23 0
37 *605:146 *1048:36 0
38 *639:16 *4983:B 0
39 *661:39 *1048:65 0
40 *662:12 *4983:B 0
41 *662:25 *4983:B 0.000316368
42 *662:25 *1048:59 0.000226797
43 *665:22 *5403:A_N 0
44 *666:10 *1048:40 0.0006618
45 *707:54 *1048:59 0
46 *716:44 *1048:36 0
47 *1017:50 *5231:B 0
48 *1017:50 *5403:A_N 0
49 *1017:50 *1048:8 0
50 *1017:50 *1048:23 8.0216e-05
51 *1017:50 *1048:36 8.00842e-05
52 *1017:52 *1048:36 0
53 *1019:111 *5121:A2 0
54 *1023:53 *5231:B 0
*RES
1 *5811:Q *1048:6 20.3502 
2 *1048:6 *1048:8 3.1312 
3 *1048:8 *5231:B 25.2942 
4 *1048:8 *1048:23 42.8634 
5 *1048:23 *5108:B 20 
6 *1048:23 *1048:36 30.1043 
7 *1048:36 *1048:40 27.0246 
8 *1048:40 *4983:B 28.9095 
9 *1048:40 *1048:59 30.6193 
10 *1048:59 *1048:65 22.1218 
11 *1048:65 *5121:A2 26.077 
12 *1048:65 *5104:B 20 
13 *1048:59 *5109:B 40 
14 *1048:36 *5400:B 40.3193 
15 *1048:6 *5403:A_N 25.2942 
*END

*D_NET *1049 0.00791178
*CONN
*I *5400:A_N I *D sg13g2_nand2b_1
*I *5013:A I *D sg13g2_nand3_1
*I *5015:B1 I *D sg13g2_o21ai_1
*I *5813:Q O *D sg13g2_dfrbpq_1
*CAP
1 *5400:A_N 0.000369361
2 *5013:A 0
3 *5015:B1 0
4 *5813:Q 0
5 *1049:25 0.00035183
6 *1049:12 0.00035183
7 *1049:10 0.00242544
8 *1049:4 0.0027948
9 *5013:B *1049:25 0
10 *5015:A2 *1049:25 1.54556e-05
11 *5400:B *5400:A_N 1.54008e-05
12 *5401:A *5400:A_N 0
13 *291:12 *5400:A_N 0
14 *291:12 *1049:10 0
15 *292:12 *1049:10 0
16 *358:14 *1049:25 0
17 *387:25 *1049:10 0
18 *605:114 *5400:A_N 0
19 *605:114 *1049:10 0
20 *708:28 *1049:10 0.00158765
21 *708:56 *1049:10 0
22 *718:22 *5400:A_N 0
23 *718:22 *1049:10 0
*RES
1 *5813:Q *1049:4 20 
2 *1049:4 *1049:10 43.8445 
3 *1049:10 *1049:12 20 
4 *1049:12 *5015:B1 20 
5 *1049:12 *1049:25 43.3578 
6 *1049:25 *5013:A 20 
7 *1049:4 *5400:A_N 23.3475 
*END

*D_NET *1050 0.00677166
*CONN
*I *5023:A I *D sg13g2_nor3_1
*I *5026:A I *D sg13g2_nor4_1
*I *4988:C I *D sg13g2_and3_1
*I *5022:A1 I *D sg13g2_a21o_1
*I *5815:Q O *D sg13g2_dfrbpq_1
*CAP
1 *5023:A 0
2 *5026:A 0
3 *4988:C 0.000387709
4 *5022:A1 0.000101729
5 *5815:Q 0.000727449
6 *1050:44 0.000432504
7 *1050:34 0.000795416
8 *1050:14 0.000611522
9 *1050:12 0.000484995
10 *1050:10 0.000727449
11 *4988:C *1054:24 0
12 *1050:10 *1052:16 0
13 *1050:14 *1054:24 0
14 *1050:34 *5021:C 0
15 *1050:34 *1054:24 0
16 *1050:44 *5026:B 0
17 *1050:44 *5981:A 0.000125175
18 *1050:44 *1051:33 0
19 *4985:A *1050:34 0
20 *4985:A *1050:44 0
21 *5022:B1 *5022:A1 1.54556e-05
22 *5022:B1 *1050:14 0.000144187
23 *5022:B1 *1050:34 0
24 *5024:B *1050:10 0
25 *5815:D *4988:C 0
26 *5920:A *1050:34 0.000176577
27 *297:8 *1050:44 0.000231324
28 *672:42 *1050:10 0
29 *672:48 *1050:10 0
30 *672:58 *1050:44 0.00018211
31 *686:12 *1050:10 0
32 *690:10 *1050:10 0.000126354
33 *690:27 *1050:10 0.00134133
34 *700:52 *1050:34 0.000112634
35 *700:52 *1050:44 4.77425e-05
36 *715:25 *4988:C 0
37 *715:31 *4988:C 0
38 *715:31 *5022:A1 0
*RES
1 *5815:Q *1050:10 49.2597 
2 *1050:10 *1050:12 20 
3 *1050:12 *1050:14 1.4008 
4 *1050:14 *5022:A1 21.133 
5 *1050:14 *4988:C 23.5638 
6 *1050:12 *1050:34 3.4814 
7 *1050:34 *1050:44 44.2024 
8 *1050:44 *5026:A 20 
9 *1050:34 *5023:A 20 
*END

*D_NET *1051 0.00533627
*CONN
*I *4985:C I *D sg13g2_and3_1
*I *5025:A2 I *D sg13g2_o21ai_1
*I *5334:B I *D sg13g2_nor2_1
*I *5019:B2 I *D sg13g2_a22oi_1
*I *5817:Q O *D sg13g2_dfrbpq_1
*CAP
1 *4985:C 0
2 *5025:A2 0.000253831
3 *5334:B 0.000138461
4 *5019:B2 0
5 *5817:Q 0.000142597
6 *1051:33 0.000971834
7 *1051:27 0.00118689
8 *1051:14 0.000113914
9 *1051:6 0.000863854
10 *1051:6 *5019:A2 0
11 *1051:14 *5019:A2 1.54008e-05
12 *1051:33 *1055:19 0
13 *4985:A *1051:27 0
14 *4985:A *1051:33 0
15 *4987:A2 *1051:27 0.000458192
16 *4987:A2 *1051:33 0.000112686
17 *5025:B1 *5025:A2 1.54008e-05
18 *5026:D *5025:A2 0.000111683
19 *5335:A1 *5334:B 0
20 *5335:A2 *5334:B 0
21 *5982:A *5025:A2 0
22 *266:10 *1051:6 0
23 *266:10 *1051:14 0.000288917
24 *266:10 *1051:27 0
25 *266:18 *1051:27 0
26 *295:10 *1051:14 4.7803e-05
27 *295:10 *1051:27 0
28 *297:8 *1051:33 0.00028539
29 *605:19 *1051:33 0
30 *638:29 *1051:14 0
31 *672:58 *5025:A2 0.000290042
32 *672:58 *5334:B 0
33 *686:22 *1051:27 3.59167e-05
34 *686:22 *1051:33 3.46518e-06
35 *700:48 *1051:27 0
36 *1045:27 *5025:A2 0
37 *1050:44 *1051:33 0
*RES
1 *5817:Q *1051:6 21.4008 
2 *1051:6 *1051:14 41.6583 
3 *1051:14 *5019:B2 20 
4 *1051:6 *1051:27 6.9628 
5 *1051:27 *1051:33 25.7989 
6 *1051:33 *5334:B 41.1845 
7 *1051:33 *5025:A2 43.0179 
8 *1051:27 *4985:C 20 
*END

*D_NET *1052 0.0167127
*CONN
*I *5910:A I *D sg13g2_buf_1
*I *5906:A I *D sg13g2_buf_1
*I *5819:Q O *D sg13g2_dfrbpq_1
*CAP
1 *5910:A 0
2 *5906:A 7.84955e-05
3 *5819:Q 4.72978e-05
4 *1052:37 0.000412546
5 *1052:20 0.00223929
6 *1052:16 0.00577631
7 *1052:6 0.00407536
8 *1052:16 *5017:A2 0
9 *1052:16 *1126:18 0.000209505
10 *1052:16 *1126:42 0.000371932
11 *5016:C *1052:16 0.000550872
12 *5017:B2 *1052:16 0
13 *5024:B *1052:16 0
14 *5232:A1 *1052:16 0
15 *5437:A *1052:16 0
16 *5462:A *1052:20 0.000553833
17 *5470:A *1052:20 0
18 *5491:CLK *1052:16 0
19 *5759:RESET_B *1052:16 0
20 *5759:D *1052:16 0
21 *5763:RESET_B *1052:16 0
22 *5763:CLK *1052:16 0
23 *5815:CLK *1052:16 0
24 *5919:A *5906:A 0
25 *5956:A *1052:16 0
26 *162:10 *5906:A 0
27 *298:10 *1052:16 0.000533645
28 *351:14 *1052:37 0
29 *586:50 *1052:20 0.000125867
30 *638:16 *1052:16 0
31 *672:6 *1052:16 0
32 *672:6 *1052:37 0
33 *672:14 *1052:16 0.00017733
34 *672:42 *1052:16 0
35 *672:48 *1052:16 3.24568e-05
36 *672:58 *1052:16 0.000404438
37 *678:99 *1052:20 0.000719061
38 *686:79 *1052:16 0.000404454
39 *696:96 *1052:20 0
40 *698:18 *1052:20 0
41 *764:24 *1052:20 0
42 *899:10 *1052:16 0
43 *912:10 *1052:16 0
44 *1009:24 *1052:16 0
45 *1032:23 *5906:A 0
46 *1050:10 *1052:16 0
*RES
1 *5819:Q *1052:6 20.5974 
2 *1052:6 *1052:16 38.5488 
3 *1052:16 *1052:20 44.3286 
4 *1052:20 *5906:A 40.7519 
5 *1052:6 *1052:37 44.5629 
6 *1052:37 *5910:A 20 
*END

*D_NET *1053 0.00175487
*CONN
*I *5019:A2 I *D sg13g2_a22oi_1
*I *5821:Q O *D sg13g2_dfrbpq_1
*CAP
1 *5019:A2 0.000768836
2 *5821:Q 0.000768836
3 *5946:A *5019:A2 0.000122099
4 *295:10 *5019:A2 0
5 *700:28 *5019:A2 0
6 *700:48 *5019:A2 0
7 *715:8 *5019:A2 7.9703e-05
8 *1051:6 *5019:A2 0
9 *1051:14 *5019:A2 1.54008e-05
*RES
1 *5821:Q *5019:A2 47.8383 
*END

*D_NET *1054 0.00738814
*CONN
*I *5017:A2 I *D sg13g2_a22oi_1
*I *4989:A1 I *D sg13g2_a21o_1
*I *5026:B I *D sg13g2_nor4_1
*I *5023:B I *D sg13g2_nor3_1
*I *5825:Q O *D sg13g2_dfrbpq_1
*CAP
1 *5017:A2 0.000229561
2 *4989:A1 0
3 *5026:B 0.000442872
4 *5023:B 0.000130398
5 *5825:Q 4.62084e-05
6 *1054:24 0.00154999
7 *1054:14 0.00164119
8 *1054:8 0.000940242
9 *5023:B *5021:C 4.78524e-05
10 *5023:B *5981:A 0.000231238
11 *4988:C *1054:24 0
12 *4989:A2 *1054:14 8.19147e-05
13 *4989:A2 *1054:24 0.00014468
14 *4989:B1 *1054:24 0.000241631
15 *5017:B1 *1054:14 0
16 *5017:B2 *5017:A2 0.000208873
17 *5017:A1 *5017:A2 0
18 *5024:B *5023:B 0
19 *5024:B *5026:B 0
20 *5815:D *1054:24 0.000242313
21 *5825:RESET_B *1054:14 0
22 *5920:A *1054:24 0.000208271
23 *293:8 *1054:8 0
24 *293:8 *1054:14 0
25 *605:114 *1054:14 0
26 *672:58 *5026:B 0
27 *686:12 *1054:24 8.02763e-05
28 *686:34 *1054:24 0.000775495
29 *686:60 *1054:24 9.72993e-05
30 *700:48 *5023:B 0
31 *700:52 *1054:24 4.78356e-05
32 *715:25 *1054:24 0
33 *715:74 *1054:8 0
34 *715:74 *1054:14 0
35 *1035:22 *1054:24 0
36 *1050:14 *1054:24 0
37 *1050:34 *1054:24 0
38 *1050:44 *5026:B 0
39 *1052:16 *5017:A2 0
*RES
1 *5825:Q *1054:8 40.5974 
2 *1054:8 *1054:14 27.1585 
3 *1054:14 *1054:24 30.6399 
4 *1054:24 *5023:B 41.4111 
5 *1054:24 *5026:B 43.6359 
6 *1054:14 *4989:A1 20 
7 *1054:8 *5017:A2 41.5583 
*END

*D_NET *1055 0.0028728
*CONN
*I *5981:A I *D sg13g2_dlygate4sd3_1
*I *5021:C I *D sg13g2_and3_1
*I *5023:C I *D sg13g2_nor3_1
*I *4987:A1 I *D sg13g2_a21o_1
*I *5827:Q O *D sg13g2_dfrbpq_1
*CAP
1 *5981:A 9.21784e-05
2 *5021:C 0.000215293
3 *5023:C 0
4 *4987:A1 0.000149809
5 *5827:Q 0
6 *1055:21 0.000215293
7 *1055:19 0.000404472
8 *1055:4 0.000462102
9 *4987:A2 *4987:A1 2.54024e-05
10 *4987:A2 *1055:19 0
11 *4987:B1 *4987:A1 0.000209856
12 *4987:B1 *1055:19 4.77863e-05
13 *5023:B *5021:C 4.78524e-05
14 *5023:B *5981:A 0.000231238
15 *297:8 *5981:A 0
16 *605:19 *4987:A1 0
17 *686:22 *5021:C 0.000305692
18 *686:22 *1055:19 0.000340651
19 *1050:34 *5021:C 0
20 *1050:44 *5981:A 0.000125175
21 *1051:33 *1055:19 0
*RES
1 *5827:Q *1055:4 20 
2 *1055:4 *4987:A1 21.751 
3 *1055:4 *1055:19 23.605 
4 *1055:19 *1055:21 20 
5 *1055:21 *5023:C 20 
6 *1055:21 *5021:C 22.266 
7 *1055:19 *5981:A 41.339 
*END

*D_NET *1056 0.00439748
*CONN
*I *5903:A I *D sg13g2_buf_1
*I *5829:Q O *D sg13g2_dfrbpq_1
*CAP
1 *5903:A 0.000522974
2 *5829:Q 0.000132236
3 *1056:8 0.00065521
4 *5903:A *5338:A1 0.000287098
5 *5903:A *1068:27 0.00016011
6 *5265:B *1056:8 0.000207909
7 *5289:B *5903:A 0.000508159
8 *5338:S *1056:8 0
9 *664:27 *5903:A 0.00163237
10 *674:21 *5903:A 7.61961e-05
11 *675:14 *5903:A 0
12 *1025:21 *5903:A 0.00021522
*RES
1 *5829:Q *1056:8 41.4008 
2 *1056:8 *5903:A 49.2494 
*END

*D_NET *1057 0.00179741
*CONN
*I *5336:A1 I *D sg13g2_mux2_1
*I *5262:A I *D sg13g2_nor2_1
*I *6000:A I *D sg13g2_dlygate4sd3_1
*I *5621:Q O *D sg13g2_dfrbpq_1
*CAP
1 *5336:A1 0.000189963
2 *5262:A 0.000179038
3 *6000:A 0
4 *5621:Q 7.32735e-05
5 *1057:10 0.000475475
6 *1057:8 0.000559673
7 *5336:A0 *5336:A1 4.78192e-05
8 *5336:S *5262:A 8.0276e-05
9 *5336:S *5336:A1 0
10 *5336:S *1057:8 8.02063e-05
11 *5336:S *1057:10 0
12 *5337:A *5336:A1 0.000111688
13 *5337:A *1057:10 0
14 *5337:B *5262:A 0
15 *5337:B *1057:10 0
16 *673:18 *1057:10 0
*RES
1 *5621:Q *1057:8 20.8858 
2 *1057:8 *1057:10 3.1312 
3 *1057:10 *6000:A 20 
4 *1057:10 *5262:A 21.8334 
5 *1057:8 *5336:A1 21.8437 
*END

*D_NET *1058 0.00266216
*CONN
*I *5356:A1 I *D sg13g2_mux2_1
*I *5292:A I *D sg13g2_nor2_1
*I *6013:A I *D sg13g2_dlygate4sd3_1
*I *5641:Q O *D sg13g2_dfrbpq_1
*CAP
1 *5356:A1 0.000488635
2 *5292:A 0.000132829
3 *6013:A 0.000149779
4 *5641:Q 0
5 *1058:19 0.000760491
6 *1058:4 0.000288806
7 *5292:B *5292:A 0
8 *5292:B *6013:A 0
9 *5293:A1 *5292:A 1.54282e-05
10 *5294:C *5292:A 0.000144915
11 *5294:C *6013:A 0
12 *5294:C *1058:19 0
13 *5356:A0 *5356:A1 7.57164e-05
14 *674:48 *5356:A1 0.000341206
15 *674:48 *1058:19 2.20966e-05
16 *701:90 *6013:A 0.000209796
17 *701:90 *1058:19 3.24568e-05
18 *920:36 *5356:A1 0
19 *920:36 *1058:19 0
*RES
1 *5641:Q *1058:4 20 
2 *1058:4 *6013:A 21.751 
3 *1058:4 *1058:19 21.6583 
4 *1058:19 *5292:A 41.7201 
5 *1058:19 *5356:A1 46.7774 
*END

*D_NET *1059 0.004589
*CONN
*I *5358:A1 I *D sg13g2_mux2_1
*I *5295:A I *D sg13g2_nor2_1
*I *5272:B1 I *D sg13g2_a21oi_1
*I *5643:Q O *D sg13g2_dfrbpq_1
*CAP
1 *5358:A1 0.000750293
2 *5295:A 0
3 *5272:B1 0
4 *5643:Q 2.32124e-05
5 *1059:23 0.0010173
6 *1059:14 0.000390398
7 *1059:6 0.000680617
8 *5272:A2 *1059:14 0.000453528
9 *5296:A2 *1059:14 0.000270227
10 *5296:A2 *1059:23 0
11 *486:10 *5358:A1 0
12 *486:10 *1059:23 0
13 *673:39 *1059:6 0
14 *673:39 *1059:14 0
15 *696:111 *1059:6 0
16 *696:111 *1059:23 0.000448842
17 *712:37 *5358:A1 0
18 *955:8 *5358:A1 0.000554579
19 *1032:57 *5358:A1 0
*RES
1 *5643:Q *1059:6 20.3193 
2 *1059:6 *1059:14 45.15 
3 *1059:14 *5272:B1 20 
4 *1059:6 *1059:23 23.3166 
5 *1059:23 *5295:A 40 
6 *1059:23 *5358:A1 47.7897 
*END

*D_NET *1060 0.00360458
*CONN
*I *5360:A1 I *D sg13g2_mux2_1
*I *6030:A I *D sg13g2_dlygate4sd3_1
*I *6009:A I *D sg13g2_dlygate4sd3_1
*I *5645:Q O *D sg13g2_dfrbpq_1
*CAP
1 *5360:A1 0.000516493
2 *6030:A 3.43591e-05
3 *6009:A 0.000151604
4 *5645:Q 0.000540642
5 *1060:24 0.000939891
6 *5323:A2 *5360:A1 0
7 *5362:S *6009:A 0
8 *5942:A *6009:A 0
9 *5942:A *1060:24 0
10 *670:31 *1060:24 0
11 *697:51 *1060:24 0
12 *713:35 *5360:A1 0
13 *930:8 *5360:A1 0
14 *953:12 *5360:A1 7.57164e-05
15 *1022:42 *1060:24 0.00018211
16 *1022:51 *5360:A1 0.000159511
17 *1022:51 *1060:24 0.000608855
18 *1022:66 *5360:A1 0.000395396
*RES
1 *5645:Q *6009:A 41.751 
2 *5645:Q *1060:24 45.3972 
3 *1060:24 *6030:A 40.3193 
4 *1060:24 *5360:A1 47.2718 
*END

*D_NET *1061 0.00396798
*CONN
*I *5362:A1 I *D sg13g2_mux2_1
*I *5301:A I *D sg13g2_nor2_1
*I *5278:B1 I *D sg13g2_a21oi_1
*I *5647:Q O *D sg13g2_dfrbpq_1
*CAP
1 *5362:A1 0
2 *5301:A 0
3 *5278:B1 0
4 *5647:Q 0.000118119
5 *1061:34 0.000987965
6 *1061:18 0.000221921
7 *1061:12 0.00044763
8 *1061:8 0.00133179
9 *5326:A1 *1061:34 0
10 *5362:S *1061:34 0
11 *5363:A *1061:34 0
12 *5699:CLK *1061:34 0
13 *5715:D *1061:34 0
14 *669:73 *1061:8 0
15 *683:48 *1061:18 0.000609684
16 *683:82 *1061:18 0.00023547
17 *695:103 *1061:12 0
18 *695:103 *1061:34 0
19 *711:20 *1061:34 0
20 *993:27 *1061:34 0
21 *1021:26 *1061:12 1.54008e-05
22 *1030:70 *1061:8 0
23 *1030:70 *1061:18 0
24 *1030:70 *1061:34 0
*RES
1 *5647:Q *1061:8 41.0918 
2 *1061:8 *1061:12 22.4823 
3 *1061:12 *1061:18 43.811 
4 *1061:18 *5278:B1 20 
5 *1061:12 *5301:A 20 
6 *1061:8 *1061:34 30.0013 
7 *1061:34 *5362:A1 20 
*END

*D_NET *1062 0.00279143
*CONN
*I *5304:A I *D sg13g2_nor2_1
*I *6018:A I *D sg13g2_dlygate4sd3_1
*I *5364:A1 I *D sg13g2_mux2_1
*I *5649:Q O *D sg13g2_dfrbpq_1
*CAP
1 *5304:A 2.77263e-05
2 *6018:A 0
3 *5364:A1 0
4 *5649:Q 0.000180001
5 *1062:18 0.000858956
6 *1062:8 0.000925826
7 *1062:6 0.000274596
8 *5304:B *1062:6 0
9 *5364:A0 *1062:18 1.54556e-05
10 *5364:S *1062:18 0
11 *5365:A *1062:18 0
12 *5665:D *1062:18 0
13 *644:14 *1062:18 0.000508868
14 *644:31 *1062:18 0
15 *714:49 *1062:18 0
16 *1031:48 *1062:18 0
*RES
1 *5649:Q *1062:6 21.6171 
2 *1062:6 *1062:8 0.8446 
3 *1062:8 *1062:18 48.0352 
4 *1062:18 *5364:A1 20 
5 *1062:8 *6018:A 20 
6 *1062:6 *5304:A 20.3502 
*END

*D_NET *1063 0.003617
*CONN
*I *6020:A I *D sg13g2_dlygate4sd3_1
*I *5307:A I *D sg13g2_nor2_1
*I *5366:A1 I *D sg13g2_mux2_1
*I *5651:Q O *D sg13g2_dfrbpq_1
*CAP
1 *6020:A 0.000331516
2 *5307:A 0
3 *5366:A1 0.000612555
4 *5651:Q 0
5 *1063:12 0.000943747
6 *1063:6 0.000662707
7 *5367:A *5366:A1 0
8 *5667:RESET_B *6020:A 0
9 *5667:D *6020:A 0
10 *711:71 *5366:A1 0
11 *841:10 *5366:A1 0
12 *1030:16 *5366:A1 0.000857856
13 *1030:16 *1063:12 0.000208615
14 *1031:14 *5366:A1 0
15 *1031:14 *1063:12 0
*RES
1 *5651:Q *1063:6 40 
2 *1063:6 *1063:12 22.987 
3 *1063:12 *5366:A1 26.7568 
4 *1063:12 *5307:A 20 
5 *1063:6 *6020:A 42.8634 
*END

*D_NET *1064 0.00210704
*CONN
*I *5310:A I *D sg13g2_nor2_1
*I *5368:A1 I *D sg13g2_mux2_1
*I *6010:A I *D sg13g2_dlygate4sd3_1
*I *5653:Q O *D sg13g2_dfrbpq_1
*CAP
1 *5310:A 0.00028384
2 *5368:A1 0.000370245
3 *6010:A 3.39844e-05
4 *5653:Q 3.72779e-05
5 *1064:10 0.000630215
6 *1064:6 0.000547103
7 *5310:B *5310:A 0
8 *5316:B *5310:A 0
9 *5316:B *1064:6 0
10 *5368:A0 *5368:A1 7.57164e-05
11 *5991:A *5310:A 0
12 *663:89 *5368:A1 0
13 *663:89 *1064:10 0
14 *664:59 *5368:A1 0
15 *664:59 *1064:10 0
16 *674:40 *5310:A 0
17 *943:8 *1064:10 0.000128663
*RES
1 *5653:Q *1064:6 20.3193 
2 *1064:6 *1064:10 22.3278 
3 *1064:10 *6010:A 40.3193 
4 *1064:10 *5368:A1 43.5638 
5 *1064:6 *5310:A 22.4823 
*END

*D_NET *1065 0.00174595
*CONN
*I *5370:A1 I *D sg13g2_mux2_1
*I *6011:A I *D sg13g2_dlygate4sd3_1
*I *6028:A I *D sg13g2_dlygate4sd3_1
*I *5655:Q O *D sg13g2_dfrbpq_1
*CAP
1 *5370:A1 0.000338367
2 *6011:A 0
3 *6028:A 0.000346548
4 *5655:Q 0.000188058
5 *1065:8 0.000872973
6 *5313:A *1065:8 0
7 *5313:B *6028:A 0
8 *5315:C *6028:A 0
9 *5371:A *5370:A1 0
10 *5723:D *5370:A1 0
11 *5902:A *5370:A1 0
12 *5902:A *6028:A 0
13 *5902:A *1065:8 0
14 *718:54 *5370:A1 0
15 *718:54 *6028:A 0
*RES
1 *5655:Q *1065:8 22.2454 
2 *1065:8 *6028:A 23.8522 
3 *1065:8 *6011:A 20 
4 *1065:8 *5370:A1 23.2378 
*END

*D_NET *1066 0.00497161
*CONN
*I *5372:A1 I *D sg13g2_mux2_1
*I *5316:A I *D sg13g2_nor2_1
*I *5293:B1 I *D sg13g2_a21oi_1
*I *5657:Q O *D sg13g2_dfrbpq_1
*CAP
1 *5372:A1 0.000307674
2 *5316:A 0.000393792
3 *5293:B1 0.000200247
4 *5657:Q 0
5 *1066:10 0.000974654
6 *1066:6 0.00068829
7 *5293:A1 *5293:B1 0.000274452
8 *5293:A1 *5316:A 0.000436687
9 *5294:C *5293:B1 0
10 *5316:B *5316:A 0
11 *5356:S *5372:A1 0
12 *5357:B *5372:A1 0
13 *5372:S *5372:A1 0
14 *5641:CLK *1066:10 0
15 *5657:RESET_B *5316:A 0.00033953
16 *5922:A *5316:A 0
17 *484:12 *5293:B1 0
18 *484:12 *5316:A 0
19 *628:12 *5372:A1 0
20 *628:12 *1066:10 0
21 *674:48 *5316:A 0
22 *920:36 *5372:A1 0.000373385
23 *920:36 *1066:10 0.000982896
*RES
1 *5657:Q *1066:6 40 
2 *1066:6 *1066:10 24.5526 
3 *1066:10 *5293:B1 22.1836 
4 *1066:10 *5316:A 24.429 
5 *1066:6 *5372:A1 43.8831 
*END

*D_NET *1067 0.00217563
*CONN
*I *5319:A I *D sg13g2_nor2_1
*I *5374:A1 I *D sg13g2_mux2_1
*I *6021:A I *D sg13g2_dlygate4sd3_1
*I *5659:Q O *D sg13g2_dfrbpq_1
*CAP
1 *5319:A 0
2 *5374:A1 0
3 *6021:A 0.000184234
4 *5659:Q 0.000336689
5 *1067:43 0.000430106
6 *1067:30 0.000165883
7 *1067:22 0.000748445
8 *5320:A1 *1067:43 0
9 *5374:A0 *1067:30 7.52149e-05
10 *502:8 *1067:43 0
11 *987:23 *1067:43 0
12 *1032:49 *1067:30 0.000235055
13 *1032:49 *1067:43 0
14 *1032:57 *6021:A 0
15 *1032:57 *1067:22 0
*RES
1 *5659:Q *6021:A 42.0703 
2 *5659:Q *1067:22 21.6171 
3 *1067:22 *1067:30 42.3119 
4 *1067:30 *5374:A1 20 
5 *1067:22 *1067:43 45.1191 
6 *1067:43 *5319:A 20 
*END

*D_NET *1068 0.00551192
*CONN
*I *5265:A I *D sg13g2_nor2_1
*I *5338:A1 I *D sg13g2_mux2_1
*I *5242:B1 I *D sg13g2_a21oi_1
*I *5623:Q O *D sg13g2_dfrbpq_1
*CAP
1 *5265:A 0
2 *5338:A1 0.000919346
3 *5242:B1 0.000416011
4 *5623:Q 8.95097e-05
5 *1068:27 0.000970494
6 *1068:23 0.00110749
7 *1068:8 0.00156186
8 *5266:A1 *1068:23 0
9 *5338:S *5338:A1 0
10 *5639:RESET_B *1068:23 0
11 *5903:A *5338:A1 0.000287098
12 *5903:A *1068:27 0.00016011
13 *160:10 *1068:23 0
14 *675:18 *1068:23 0
15 *675:26 *1068:23 0
16 *702:32 *5242:B1 0
17 *702:32 *1068:23 0
18 *715:108 *5338:A1 0
19 *1026:110 *1068:8 0
*RES
1 *5623:Q *1068:8 41.0918 
2 *1068:8 *5242:B1 44.4702 
3 *1068:8 *1068:23 30.4854 
4 *1068:23 *1068:27 20.8446 
5 *1068:27 *5338:A1 49.3936 
6 *1068:27 *5265:A 40 
*END

*D_NET *1069 0.00120565
*CONN
*I *6032:A I *D sg13g2_dlygate4sd3_1
*I *5376:A1 I *D sg13g2_mux2_1
*I *5999:A I *D sg13g2_dlygate4sd3_1
*I *5661:Q O *D sg13g2_dfrbpq_1
*CAP
1 *6032:A 0.000135978
2 *5376:A1 0
3 *5999:A 0.000183284
4 *5661:Q 0.000183284
5 *1069:26 0.000283562
6 *1069:18 0.000419541
7 *5360:S *5999:A 0
8 *976:8 *1069:26 0
9 *992:23 *1069:26 0
10 *1032:70 *6032:A 0
11 *1032:70 *1069:26 0
*RES
1 *5661:Q *5999:A 41.9673 
2 *5661:Q *1069:18 20 
3 *1069:18 *1069:26 42.6471 
4 *1069:26 *5376:A1 20 
5 *1069:18 *6032:A 21.4008 
*END

*D_NET *1070 0.00199672
*CONN
*I *5378:A1 I *D sg13g2_mux2_1
*I *6005:A I *D sg13g2_dlygate4sd3_1
*I *6031:A I *D sg13g2_dlygate4sd3_1
*I *5663:Q O *D sg13g2_dfrbpq_1
*CAP
1 *5378:A1 0
2 *6005:A 0
3 *6031:A 0.000221321
4 *5663:Q 0
5 *1070:23 0.000174454
6 *1070:15 0.000387457
7 *1070:4 0.000434324
8 *5399:B *1070:15 0.000468896
9 *623:27 *6031:A 0
10 *623:27 *1070:23 0
11 *977:10 *1070:23 7.52149e-05
12 *1030:70 *1070:23 0
13 *1030:84 *1070:23 0.000235055
14 *1031:57 *1070:23 0
*RES
1 *5663:Q *1070:4 20 
2 *1070:4 *6031:A 22.7089 
3 *1070:4 *1070:15 3.1312 
4 *1070:15 *1070:23 42.1527 
5 *1070:23 *6005:A 20 
6 *1070:15 *5378:A1 20 
*END

*D_NET *1071 0.001768
*CONN
*I *6007:A I *D sg13g2_dlygate4sd3_1
*I *5328:A I *D sg13g2_nor2_1
*I *5380:A1 I *D sg13g2_mux2_1
*I *5665:Q O *D sg13g2_dfrbpq_1
*CAP
1 *6007:A 0
2 *5328:A 0
3 *5380:A1 0.00022899
4 *5665:Q 0
5 *1071:23 0.000189349
6 *1071:17 0.000607397
7 *1071:4 0.000647038
8 *5380:S *5380:A1 0
9 *5381:A *5380:A1 7.989e-05
10 *5872:A *1071:17 0
11 *978:27 *5380:A1 1.53311e-05
12 *1031:20 *5380:A1 0
*RES
1 *5665:Q *1071:4 20 
2 *1071:4 *5380:A1 22.3999 
3 *1071:4 *1071:17 4.5629 
4 *1071:17 *1071:23 42.3278 
5 *1071:23 *5328:A 20 
6 *1071:17 *6007:A 20 
*END

*D_NET *1072 0.00225688
*CONN
*I *6016:A I *D sg13g2_dlygate4sd3_1
*I *5331:A I *D sg13g2_nor2_1
*I *5382:A1 I *D sg13g2_mux2_1
*I *5667:Q O *D sg13g2_dfrbpq_1
*CAP
1 *6016:A 0
2 *5331:A 0
3 *5382:A1 0.000364228
4 *5667:Q 0.000143091
5 *1072:30 2.48952e-05
6 *1072:8 0.000524201
7 *1072:6 0.000327959
8 *5331:B *5382:A1 1.54556e-05
9 *5331:B *1072:6 0.000242088
10 *5331:B *1072:8 0.000274545
11 *5332:A2 *1072:30 0.000130055
12 *5333:C *5382:A1 0
13 *5382:A0 *5382:A1 0
14 *5383:A *5382:A1 8.03091e-05
15 *5735:RESET_B *5382:A1 0
16 *683:62 *1072:30 0.000130055
*RES
1 *5667:Q *1072:6 21.6171 
2 *1072:6 *1072:8 1.8334 
3 *1072:8 *5382:A1 24.2024 
4 *1072:8 *5331:A 20 
5 *1072:6 *1072:30 40.5974 
6 *1072:30 *6016:A 20 
*END

*D_NET *1073 0.000924413
*CONN
*I *5384:A1 I *D sg13g2_mux2_1
*I *5990:A I *D sg13g2_dlygate4sd3_1
*I *5669:Q O *D sg13g2_dfrbpq_1
*CAP
1 *5384:A1 0.000176766
2 *5990:A 0.000177578
3 *5669:Q 0.00028544
4 *1073:22 0.000284628
5 *5369:A *5990:A 0
6 *5385:B *5384:A1 0
7 *5385:B *5990:A 0
8 *5737:RESET_B *5384:A1 0
9 *663:78 *5384:A1 0
*RES
1 *5669:Q *5990:A 41.751 
2 *5669:Q *1073:22 41.0918 
3 *1073:22 *5384:A1 41.6171 
*END

*D_NET *1074 0.000943909
*CONN
*I *5996:A I *D sg13g2_dlygate4sd3_1
*I *5386:A1 I *D sg13g2_mux2_1
*I *5671:Q O *D sg13g2_dfrbpq_1
*CAP
1 *5996:A 0.00011469
2 *5386:A1 0.00016236
3 *5671:Q 0.000170948
4 *1074:12 0.000447998
5 *5386:S *5386:A1 0
6 *663:63 *5386:A1 0
7 *663:63 *1074:12 4.79124e-05
*RES
1 *5671:Q *1074:12 41.7613 
2 *1074:12 *5386:A1 41.6171 
3 *1074:12 *5996:A 41.0918 
*END

*D_NET *1075 0.00106466
*CONN
*I *5388:A1 I *D sg13g2_mux2_1
*I *5983:A I *D sg13g2_dlygate4sd3_1
*I *5673:Q O *D sg13g2_dfrbpq_1
*CAP
1 *5388:A1 6.10738e-05
2 *5983:A 0
3 *5673:Q 0.000167759
4 *1075:24 0.000247407
5 *1075:12 0.000476239
6 *5389:A *1075:24 0
7 *5741:RESET_B *1075:24 0
8 *663:95 *5388:A1 0
9 *663:95 *1075:12 0
10 *717:53 *5388:A1 0.000112179
11 *717:53 *1075:12 0
12 *717:53 *1075:24 0
13 *717:81 *1075:24 0
14 *983:10 *1075:24 0
15 *996:32 *1075:24 0
*RES
1 *5673:Q *1075:12 21.8334 
2 *1075:12 *1075:24 42.5132 
3 *1075:24 *5983:A 20 
4 *1075:12 *5388:A1 20.7519 
*END

*D_NET *1076 0.00120613
*CONN
*I *5987:A I *D sg13g2_dlygate4sd3_1
*I *5390:A1 I *D sg13g2_mux2_1
*I *5675:Q O *D sg13g2_dfrbpq_1
*CAP
1 *5987:A 0.000275143
2 *5390:A1 9.42029e-05
3 *5675:Q 0.000145065
4 *1076:10 0.000514411
5 *5855:A *5390:A1 0
6 *5855:A *5987:A 0.000177311
7 *1033:72 *5390:A1 0
8 *1033:72 *1076:10 0
*RES
1 *5675:Q *1076:10 21.6995 
2 *1076:10 *5390:A1 20.9682 
3 *1076:10 *5987:A 23.0962 
*END

*D_NET *1077 0.00129355
*CONN
*I *5392:A1 I *D sg13g2_mux2_1
*I *5994:A I *D sg13g2_dlygate4sd3_1
*I *5677:Q O *D sg13g2_dfrbpq_1
*CAP
1 *5392:A1 0.000130665
2 *5994:A 0.000395054
3 *5677:Q 0
4 *1077:4 0.000525719
5 *5359:A *5392:A1 0
6 *5392:S *5994:A 0
7 *5845:A *5994:A 0
8 *712:43 *5392:A1 0.00024211
9 *712:43 *5994:A 0
10 *1032:66 *5994:A 0
11 *1032:70 *5994:A 0
*RES
1 *5677:Q *1077:4 20 
2 *1077:4 *5994:A 24.0479 
3 *1077:4 *5392:A1 22.2145 
*END

*D_NET *1078 0.000928655
*CONN
*I *5394:A1 I *D sg13g2_mux2_1
*I *5986:A I *D sg13g2_dlygate4sd3_1
*I *5679:Q O *D sg13g2_dfrbpq_1
*CAP
1 *5394:A1 0.000151699
2 *5986:A 0.000276162
3 *5679:Q 3.64659e-05
4 *1078:8 0.000464327
5 *5394:S *1078:8 0
6 *5399:B *5986:A 0
7 *5399:B *1078:8 0
8 *623:27 *5986:A 0
9 *993:8 *5394:A1 0
10 *993:8 *5986:A 0
11 *1031:57 *5394:A1 0
12 *1031:57 *5986:A 0
*RES
1 *5679:Q *1078:8 40.3193 
2 *1078:8 *5986:A 42.9561 
3 *1078:8 *5394:A1 41.8334 
*END

*D_NET *1079 0.00169278
*CONN
*I *5340:A1 I *D sg13g2_mux2_1
*I *5998:A I *D sg13g2_dlygate4sd3_1
*I *5625:Q O *D sg13g2_dfrbpq_1
*CAP
1 *5340:A1 0.000216291
2 *5998:A 0.000208273
3 *5625:Q 6.84188e-05
4 *1079:10 0.000492983
5 *5268:A *5998:A 0
6 *5341:A *5340:A1 0
7 *673:33 *5340:A1 0.000159096
8 *673:33 *1079:10 0.000129077
9 *987:14 *5340:A1 0.000177295
10 *1032:8 *5340:A1 0
11 *1032:8 *5998:A 0.000241351
*RES
1 *5625:Q *1079:10 40.9167 
2 *1079:10 *5998:A 42.266 
3 *1079:10 *5340:A1 42.4617 
*END

*D_NET *1080 0.0018388
*CONN
*I *5984:A I *D sg13g2_dlygate4sd3_1
*I *5396:A1 I *D sg13g2_mux2_1
*I *5681:Q O *D sg13g2_dfrbpq_1
*CAP
1 *5984:A 0
2 *5396:A1 0.00045164
3 *5681:Q 0
4 *1080:27 0.000216613
5 *1080:4 0.000668253
6 *5872:A *5396:A1 0
7 *613:8 *1080:27 0
8 *613:21 *1080:27 0.000502289
*RES
1 *5681:Q *1080:4 20 
2 *1080:4 *5396:A1 24.8616 
3 *1080:4 *1080:27 43.1827 
4 *1080:27 *5984:A 20 
*END

*D_NET *1081 0.00131631
*CONN
*I *5398:A1 I *D sg13g2_mux2_1
*I *5992:A I *D sg13g2_dlygate4sd3_1
*I *5683:Q O *D sg13g2_dfrbpq_1
*CAP
1 *5398:A1 0.000417679
2 *5992:A 0.000240475
3 *5683:Q 0
4 *1081:4 0.000658154
5 *5399:A *5398:A1 0
6 *5399:B *5398:A1 0
7 *5751:RESET_B *5398:A1 0
8 *1030:84 *5398:A1 0
*RES
1 *5683:Q *1081:4 20 
2 *1081:4 *5992:A 22.8119 
3 *1081:4 *5398:A1 25.0985 
*END

*D_NET *1082 0.000992647
*CONN
*I *6025:A I *D sg13g2_dlygate4sd3_1
*I *6001:A I *D sg13g2_dlygate4sd3_1
*I *5342:A1 I *D sg13g2_mux2_1
*I *5627:Q O *D sg13g2_dfrbpq_1
*CAP
1 *6025:A 2.77263e-05
2 *6001:A 2.77263e-05
3 *5342:A1 0
4 *5627:Q 0
5 *1082:19 0.000182686
6 *1082:12 0.000194317
7 *1082:4 0.000321551
8 *671:22 *1082:12 0
9 *671:22 *1082:19 0
10 *1032:23 *1082:19 0
11 *1032:31 *1082:12 0.000238641
*RES
1 *5627:Q *1082:4 20 
2 *1082:4 *1082:12 42.3999 
3 *1082:12 *5342:A1 20 
4 *1082:4 *1082:19 1.4008 
5 *1082:19 *6001:A 20.3502 
6 *1082:19 *6025:A 20.3502 
*END

*D_NET *1083 0.000933247
*CONN
*I *5344:A1 I *D sg13g2_mux2_1
*I *6003:A I *D sg13g2_dlygate4sd3_1
*I *5629:Q O *D sg13g2_dfrbpq_1
*CAP
1 *5344:A1 0.000203529
2 *6003:A 0.000142033
3 *5629:Q 0
4 *1083:4 0.000345563
5 *5345:A *5344:A1 0
6 *5976:A *5344:A1 0
7 *671:22 *5344:A1 0
8 *671:22 *6003:A 0.000242121
9 *1032:31 *5344:A1 0
*RES
1 *5629:Q *1083:4 20 
2 *1083:4 *6003:A 21.6171 
3 *1083:4 *5344:A1 22.5853 
*END

*D_NET *1084 0.00182227
*CONN
*I *6022:A I *D sg13g2_dlygate4sd3_1
*I *6027:A I *D sg13g2_dlygate4sd3_1
*I *5346:A1 I *D sg13g2_mux2_1
*I *5631:Q O *D sg13g2_dfrbpq_1
*CAP
1 *6022:A 0.000258921
2 *6027:A 0.000200658
3 *5346:A1 0.000181522
4 *5631:Q 0
5 *1084:10 0.000652216
6 *1084:4 0.000528957
7 *5347:A *5346:A1 0
8 *5347:A *6027:A 0
9 *5976:A *5346:A1 0
10 *671:22 *6022:A 0
11 *679:53 *6027:A 0
12 *711:12 *6022:A 0
13 *711:57 *5346:A1 0
14 *711:65 *1084:10 0
15 *956:10 *6022:A 0
16 *956:10 *1084:10 0
17 *993:27 *6027:A 0
18 *993:27 *1084:10 0
19 *1030:104 *6022:A 0
20 *1030:104 *1084:10 0
21 *1030:117 *6022:A 0
22 *1030:117 *1084:10 0
23 *1031:10 *5346:A1 0
24 *1031:10 *6022:A 0
25 *1031:10 *6027:A 0
*RES
1 *5631:Q *1084:4 20 
2 *1084:4 *1084:10 22.8016 
3 *1084:10 *5346:A1 41.9776 
4 *1084:10 *6027:A 42.0291 
5 *1084:4 *6022:A 22.9973 
*END

*D_NET *1085 0.00368491
*CONN
*I *5257:B1 I *D sg13g2_a21oi_1
*I *5280:A I *D sg13g2_nor2_1
*I *5348:A1 I *D sg13g2_mux2_1
*I *5633:Q O *D sg13g2_dfrbpq_1
*CAP
1 *5257:B1 0
2 *5280:A 0
3 *5348:A1 0.000361182
4 *5633:Q 0
5 *1085:36 0.000593968
6 *1085:16 0.000864302
7 *1085:10 0.000879577
8 *1085:4 0.000970426
9 *5282:C *1085:10 0
10 *5633:CLK *1085:10 0
11 *5633:CLK *1085:36 0
12 *5649:RESET_B *1085:10 0
13 *6091:A *5348:A1 1.54556e-05
14 *69:20 *5348:A1 0
15 *459:12 *1085:36 0
16 *648:66 *5348:A1 0
17 *829:8 *1085:36 0
18 *994:10 *5348:A1 0
*RES
1 *5633:Q *1085:4 20 
2 *1085:4 *1085:10 4.2642 
3 *1085:10 *1085:16 46.283 
4 *1085:16 *5348:A1 23.9964 
5 *1085:10 *5280:A 20 
6 *1085:4 *1085:36 47.313 
7 *1085:36 *5257:B1 20 
*END

*D_NET *1086 0.0047799
*CONN
*I *5283:A I *D sg13g2_nor2_1
*I *5350:A1 I *D sg13g2_mux2_1
*I *5260:B1 I *D sg13g2_a21oi_1
*I *5635:Q O *D sg13g2_dfrbpq_1
*CAP
1 *5283:A 0
2 *5350:A1 0
3 *5260:B1 0.000127277
4 *5635:Q 0.00019018
5 *1086:25 0.00118459
6 *1086:12 0.00142553
7 *1086:10 0.000303848
8 *5260:A2 *5260:B1 0.000181192
9 *5260:A2 *1086:10 0.000181192
10 *5260:A2 *1086:12 0.000394981
11 *5285:A *1086:25 0.000339491
12 *5285:C *1086:25 0
13 *5635:CLK *1086:25 0
14 *5651:D *1086:25 0
15 *5703:RESET_B *1086:25 0
16 *5749:CLK *1086:25 0
17 *462:12 *5260:B1 0
18 *519:10 *1086:25 0
19 *669:8 *1086:10 0.000209637
20 *671:28 *1086:10 0.000241979
21 *685:27 *1086:25 0
22 *695:35 *5260:B1 0
23 *1030:28 *1086:25 0
*RES
1 *5635:Q *1086:10 42.4617 
2 *1086:10 *1086:12 1.8334 
3 *1086:12 *5260:B1 41.5862 
4 *1086:12 *1086:25 31.7832 
5 *1086:25 *5350:A1 20 
6 *1086:10 *5283:A 40 
*END

*D_NET *1087 0.0018003
*CONN
*I *6029:A I *D sg13g2_dlygate4sd3_1
*I *5352:A1 I *D sg13g2_mux2_1
*I *6014:A I *D sg13g2_dlygate4sd3_1
*I *5637:Q O *D sg13g2_dfrbpq_1
*CAP
1 *6029:A 0.000214289
2 *5352:A1 0.000123135
3 *6014:A 0.000245756
4 *5637:Q 4.85491e-05
5 *1087:21 0.000428301
6 *1087:8 0.000385183
7 *5353:A *5352:A1 0
8 *5353:A *6014:A 1.54008e-05
9 *5353:B *6014:A 0
10 *5353:B *6029:A 0.000339683
11 *663:46 *1087:8 0
12 *663:46 *1087:21 0
13 *947:10 *6014:A 0
14 *1023:127 *5352:A1 0
15 *1023:127 *6029:A 0
*RES
1 *5637:Q *1087:8 40.5974 
2 *1087:8 *6014:A 42.6986 
3 *1087:8 *1087:21 21.0918 
4 *1087:21 *5352:A1 21.1845 
5 *1087:21 *6029:A 22.417 
*END

*D_NET *1088 0.00296927
*CONN
*I *5997:A I *D sg13g2_dlygate4sd3_1
*I *5354:A1 I *D sg13g2_mux2_1
*I *5289:A I *D sg13g2_nor2_1
*I *5639:Q O *D sg13g2_dfrbpq_1
*CAP
1 *5997:A 0.000177266
2 *5354:A1 0.000193539
3 *5289:A 0.000282914
4 *5639:Q 0
5 *1088:19 0.000460376
6 *1088:6 0.000372483
7 *5707:RESET_B *5997:A 0
8 *5900:A *5997:A 0
9 *640:18 *5289:A 0
10 *663:12 *5289:A 0
11 *663:12 *5354:A1 0
12 *664:14 *5354:A1 0.00020971
13 *668:23 *5289:A 0.000292607
14 *668:23 *5997:A 0.00029161
15 *668:23 *1088:19 0.000237643
16 *702:14 *5289:A 0
17 *702:24 *5354:A1 0.000338509
18 *718:41 *5289:A 0
19 *718:41 *5997:A 0
20 *1026:122 *5997:A 0.000112618
*RES
1 *5639:Q *1088:6 40 
2 *1088:6 *5289:A 42.9561 
3 *1088:6 *1088:19 1.0918 
4 *1088:19 *5354:A1 42.266 
5 *1088:19 *5997:A 42.0909 
*END

*D_NET *1089 0.00319672
*CONN
*I *6002:A I *D sg13g2_dlygate4sd3_1
*I *5925:A I *D sg13g2_buf_1
*I *5553:Q O *D sg13g2_dfrbpq_1
*CAP
1 *6002:A 0.000139418
2 *5925:A 0.000190121
3 *5553:Q 0.00106784
4 *1089:28 0.00039887
5 *1089:10 0.000998508
6 *5049:B1 *6002:A 0.000242203
7 *5050:B *1089:10 0
8 *5110:A1 *5925:A 0
9 *5110:B1 *5925:A 0
10 *5507:D *1089:10 0
11 *5896:A *1089:10 4.77537e-05
12 *261:31 *6002:A 0
13 *261:31 *1089:10 0
14 *643:34 *1089:10 0
15 *643:34 *1089:28 0
16 *643:42 *1089:10 0
17 *646:39 *1089:10 0
18 *660:18 *1089:10 0
19 *660:29 *1089:10 0
20 *661:59 *5925:A 0.000112013
*RES
1 *5553:Q *1089:10 48.1164 
2 *1089:10 *5925:A 41.6171 
3 *5553:Q *1089:28 42.8222 
4 *1089:28 *6002:A 41.6171 
*END

*D_NET *1090 0.00932914
*CONN
*I *5141:B I *D sg13g2_nand4_1
*I *4992:D I *D sg13g2_nor4_1
*I *5148:D I *D sg13g2_nand4_1
*I *5138:A1 I *D sg13g2_o21ai_1
*I *5139:A1 I *D sg13g2_a21oi_1
*I *5140:A1 I *D sg13g2_a21oi_1
*I *5057:A I *D sg13g2_nor2b_1
*I *5573:Q O *D sg13g2_dfrbpq_1
*CAP
1 *5141:B 0.000340903
2 *4992:D 2.55161e-05
3 *5148:D 0.000282025
4 *5138:A1 2.83098e-05
5 *5139:A1 2.42717e-05
6 *5140:A1 3.049e-05
7 *5057:A 0.000844702
8 *5573:Q 0.000743308
9 *1090:79 0.000480694
10 *1090:62 0.000802976
11 *1090:51 0.000702656
12 *1090:36 0.000386449
13 *1090:25 0.000484467
14 *1090:14 0.00120417
15 *1090:12 0.000743308
16 *4992:D *1091:34 4.78028e-05
17 *5057:A *5060:A 0
18 *5140:A1 *5140:B1 0
19 *5141:B *5141:C 4.77702e-05
20 *5141:B *1120:26 0
21 *5148:D *5158:D 0
22 *5148:D *1092:6 0
23 *5148:D *1092:12 0.000177394
24 *1090:12 *5054:A 0.000339294
25 *1090:12 *1091:8 0
26 *1090:12 *1091:34 0
27 *1090:25 *5140:B1 0
28 *1090:36 *1091:8 0
29 *1090:51 *1091:34 0
30 *1090:62 *1091:34 0
31 *1090:79 *5148:C 0
32 *4992:B *1090:79 0.000181192
33 *5058:A1 *5057:A 0
34 *5137:A *1090:51 7.51285e-05
35 *5139:B1 *5140:A1 0
36 *5140:A2 *1090:36 0.00023464
37 *5140:A2 *1090:51 5.30319e-05
38 *5515:D *5057:A 0
39 *5573:RESET_B *5057:A 0
40 *5573:D *5057:A 0
41 *5573:D *1090:25 0
42 *5575:CLK *5057:A 0
43 *5575:CLK *1090:25 0
44 *270:8 *5148:D 0
45 *270:14 *5141:B 0
46 *348:22 *5148:D 0
47 *370:12 *1090:62 0
48 *370:23 *5138:A1 0
49 *370:23 *5139:A1 1.54008e-05
50 *370:23 *1090:51 0.000209638
51 *370:23 *1090:62 0
52 *374:10 *5141:B 0
53 *605:69 *5148:D 0
54 *608:6 *4992:D 4.78028e-05
55 *636:20 *1090:12 0.000274557
56 *659:41 *5057:A 0
57 *691:8 *1090:62 0
58 *705:117 *5141:B 0
59 *705:117 *5148:D 0
60 *706:64 *5057:A 0
61 *1007:42 *1090:12 0.00050124
62 *1007:52 *1090:36 0
*RES
1 *5573:Q *1090:12 48.8992 
2 *1090:12 *1090:14 20 
3 *1090:14 *5057:A 27.4614 
4 *1090:14 *1090:25 3.2651 
5 *1090:25 *5140:A1 20.3193 
6 *1090:25 *1090:36 21.339 
7 *1090:36 *5139:A1 40.3193 
8 *1090:36 *1090:51 23.0797 
9 *1090:51 *5138:A1 20.3502 
10 *1090:51 *1090:62 23.3475 
11 *1090:62 *5148:D 43.2857 
12 *1090:62 *1090:79 1.339 
13 *1090:79 *4992:D 40.3193 
14 *1090:79 *5141:B 43.0488 
*END

*D_NET *1091 0.00703307
*CONN
*I *4992:C I *D sg13g2_nor4_1
*I *5141:A I *D sg13g2_nand4_1
*I *5148:C I *D sg13g2_nand4_1
*I *5140:B1 I *D sg13g2_a21oi_1
*I *5060:A I *D sg13g2_nor2b_1
*I *5575:Q O *D sg13g2_dfrbpq_1
*CAP
1 *4992:C 0
2 *5141:A 0.000228667
3 *5148:C 5.77886e-05
4 *5140:B1 0.000266354
5 *5060:A 0.000532607
6 *5575:Q 0
7 *1091:42 0.000556913
8 *1091:34 0.00122625
9 *1091:8 0.00102712
10 *1091:6 0.00118396
11 *5141:A *1093:101 0.000288087
12 *5148:C *1093:101 0.000128576
13 *1091:42 *5158:D 0
14 *1091:42 *1093:91 0
15 *4992:B *1091:34 9.65572e-05
16 *4992:B *1091:42 4.78853e-05
17 *4992:D *1091:34 4.78028e-05
18 *5057:A *5060:A 0
19 *5137:A *1091:34 0
20 *5140:A1 *5140:B1 0
21 *5143:C *5140:B1 0
22 *5515:CLK *5060:A 0
23 *5573:D *1091:34 0
24 *5575:RESET_B *5060:A 0
25 *5575:CLK *5060:A 0
26 *5575:CLK *5140:B1 0
27 *5865:A *1091:34 0.000436615
28 *608:6 *1091:34 0
29 *608:6 *1091:42 0.000144872
30 *705:117 *5141:A 0.000528698
31 *705:117 *5148:C 0.000234311
32 *1019:26 *5141:A 0
33 *1090:12 *1091:8 0
34 *1090:12 *1091:34 0
35 *1090:25 *5140:B1 0
36 *1090:36 *1091:8 0
37 *1090:51 *1091:34 0
38 *1090:62 *1091:34 0
39 *1090:79 *5148:C 0
*RES
1 *5575:Q *1091:6 40 
2 *1091:6 *1091:8 2.3278 
3 *1091:8 *5060:A 45.6753 
4 *1091:8 *5140:B1 42.4823 
5 *1091:6 *1091:34 29.4142 
6 *1091:34 *1091:42 22.5029 
7 *1091:42 *5148:C 41.0918 
8 *1091:42 *5141:A 43.2342 
9 *1091:34 *4992:C 20 
*END

*D_NET *1092 0.00180025
*CONN
*I *5924:A I *D sg13g2_buf_1
*I *5148:B I *D sg13g2_nand4_1
*I *5158:D I *D sg13g2_nand4_1
*I *5577:Q O *D sg13g2_dfrbpq_1
*CAP
1 *5924:A 0
2 *5148:B 0
3 *5158:D 0.000459906
4 *5577:Q 8.46186e-05
5 *1092:12 0.000684083
6 *1092:6 0.000308796
7 *5158:D *5158:B 0
8 *5158:D *1093:91 0
9 *5158:D *1093:101 1.5412e-05
10 *1092:12 *1093:85 0
11 *1092:12 *1093:91 2.21754e-05
12 *1092:12 *1093:101 4.78688e-05
13 *5148:D *5158:D 0
14 *5148:D *1092:6 0
15 *5148:D *1092:12 0.000177394
16 *348:22 *1092:12 0
17 *605:65 *5158:D 0
18 *608:6 *5158:D 0
19 *1091:42 *5158:D 0
*RES
1 *5577:Q *1092:6 21.0918 
2 *1092:6 *1092:12 2.5338 
3 *1092:12 *5158:D 25.1603 
4 *1092:12 *5148:B 20 
5 *1092:6 *5924:A 20 
*END

*D_NET *1093 0.0102576
*CONN
*I *4992:A I *D sg13g2_nor4_1
*I *5148:A I *D sg13g2_nand4_1
*I *5158:C I *D sg13g2_nand4_1
*I *5066:A I *D sg13g2_nor2b_1
*I *5149:A I *D sg13g2_and3_1
*I *5146:B1 I *D sg13g2_a21oi_1
*I *5147:A I *D sg13g2_and2_1
*I *5152:B I *D sg13g2_and4_1
*I *5579:Q O *D sg13g2_dfrbpq_1
*CAP
1 *4992:A 0
2 *5148:A 0
3 *5158:C 0
4 *5066:A 0
5 *5149:A 8.91315e-05
6 *5146:B1 0
7 *5147:A 0
8 *5152:B 0.000206559
9 *5579:Q 0.000384537
10 *1093:101 0.000351179
11 *1093:91 0.000543098
12 *1093:85 0.00114438
13 *1093:74 0.000626099
14 *1093:57 0.000853488
15 *1093:44 0.000437204
16 *1093:14 0.000518763
17 *1093:12 0.00112669
18 *1093:8 0.00185253
19 *5152:B *5152:A 1.53666e-05
20 *4992:B *1093:85 0.00014447
21 *4992:B *1093:91 1.54556e-05
22 *5063:A *1093:57 7.48842e-05
23 *5141:A *1093:101 0.000288087
24 *5143:A *1093:8 0
25 *5148:C *1093:101 0.000128576
26 *5150:B *1093:44 0.00018844
27 *5150:B *1093:57 3.23417e-05
28 *5158:D *1093:91 0
29 *5158:D *1093:101 1.5412e-05
30 *5579:RESET_B *1093:74 0
31 *5579:D *1093:74 0
32 *348:14 *1093:85 0
33 *348:22 *1093:85 0
34 *370:8 *1093:85 0.000234726
35 *373:18 *1093:101 0
36 *374:10 *1093:85 0
37 *374:12 *1093:12 0
38 *374:12 *1093:85 0
39 *374:69 *5152:B 0
40 *374:84 *5149:A 0
41 *378:8 *1093:101 0.000341119
42 *607:8 *1093:8 0
43 *608:6 *1093:101 0
44 *658:24 *1093:74 0
45 *691:49 *1093:14 0
46 *691:49 *1093:44 0.000208617
47 *691:53 *1093:57 0.000286322
48 *705:117 *1093:101 8.00842e-05
49 *1007:92 *1093:12 0
50 *1091:42 *1093:91 0
51 *1092:12 *1093:85 0
52 *1092:12 *1093:91 2.21754e-05
53 *1092:12 *1093:101 4.78688e-05
*RES
1 *5579:Q *1093:8 44.2127 
2 *1093:8 *1093:12 25.5414 
3 *1093:12 *1093:14 2.9149 
4 *1093:14 *5152:B 22.369 
5 *1093:14 *5147:A 20 
6 *1093:12 *1093:44 3.73375 
7 *1093:44 *5146:B1 20 
8 *1093:44 *1093:57 41.9055 
9 *1093:57 *5149:A 20.8601 
10 *1093:57 *1093:74 46.9525 
11 *1093:74 *5066:A 20 
12 *1093:8 *1093:85 29.1361 
13 *1093:85 *1093:91 1.854 
14 *1093:91 *1093:101 43.1566 
15 *1093:101 *5158:C 20 
16 *1093:91 *5148:A 20 
17 *1093:85 *4992:A 20 
*END

*D_NET *1094 0.0114586
*CONN
*I *4993:D I *D sg13g2_nor4_1
*I *5155:B I *D sg13g2_nand4_1
*I *5158:B I *D sg13g2_nand4_1
*I *5153:A I *D sg13g2_nand3_1
*I *5151:B1 I *D sg13g2_a21oi_1
*I *5152:A I *D sg13g2_and4_1
*I *5069:A I *D sg13g2_nor2b_1
*I *5581:Q O *D sg13g2_dfrbpq_1
*CAP
1 *4993:D 0.000315469
2 *5155:B 5.55599e-05
3 *5158:B 5.98184e-05
4 *5153:A 0
5 *5151:B1 0
6 *5152:A 0.000299165
7 *5069:A 0.000669739
8 *5581:Q 0.00020907
9 *1094:73 0.00101982
10 *1094:62 0.00179807
11 *1094:22 0.00109414
12 *1094:20 0.000361809
13 *1094:16 0.000447751
14 *1094:8 0.0015097
15 *4993:D *4993:C 0.000542581
16 *4993:D *1095:39 7.53228e-05
17 *1094:62 *1095:30 0
18 *1094:73 *1095:30 7.51285e-05
19 *1094:73 *1095:39 0.00187077
20 *5152:B *5152:A 1.53666e-05
21 *5154:A *5152:A 0.000112412
22 *5154:A *1094:20 0
23 *5154:B *5152:A 8.00842e-05
24 *5158:D *5158:B 0
25 *5160:B *1094:73 0
26 *5521:CLK *5069:A 0
27 *287:41 *1094:73 0
28 *289:8 *4993:D 0
29 *289:8 *1094:73 0
30 *348:32 *1094:8 0.000371322
31 *348:32 *1094:16 0
32 *373:18 *5158:B 0
33 *382:8 *1094:8 0
34 *382:8 *1094:16 8.01211e-05
35 *384:8 *5155:B 0
36 *605:65 *5158:B 0
37 *605:76 *1094:62 0
38 *709:41 *5152:A 0
39 *1007:81 *1094:16 0
40 *1007:81 *1094:20 0.000395396
*RES
1 *5581:Q *1094:8 42.4823 
2 *1094:8 *1094:16 22.4102 
3 *1094:16 *1094:20 23.0694 
4 *1094:20 *1094:22 1.0918 
5 *1094:22 *5069:A 46.8804 
6 *1094:22 *5152:A 43.2136 
7 *1094:20 *5151:B1 40 
8 *1094:16 *5153:A 20 
9 *1094:8 *1094:62 11.5463 
10 *1094:62 *5158:B 40.4476 
11 *1094:62 *1094:73 9.0022 
12 *1094:73 *5155:B 40.5356 
13 *1094:73 *4993:D 43.7595 
*END

*D_NET *1095 0.00641539
*CONN
*I *4993:C I *D sg13g2_nor4_1
*I *5155:A I *D sg13g2_nand4_1
*I *5158:A I *D sg13g2_nand4_1
*I *4978:A I *D sg13g2_inv_1
*I *5583:Q O *D sg13g2_dfrbpq_1
*CAP
1 *4993:C 0.000362755
2 *5155:A 0
3 *5158:A 0
4 *4978:A 0.000135079
5 *5583:Q 0.000850709
6 *1095:39 0.000940006
7 *1095:30 0.00122865
8 *1095:8 0.000334384
9 *4993:D *4993:C 0.000542581
10 *4993:D *1095:39 7.53228e-05
11 *384:8 *4993:C 0
12 *605:65 *1095:30 0
13 *605:76 *1095:30 0
14 *705:117 *1095:30 0
15 *1094:62 *1095:30 0
16 *1094:73 *1095:30 7.51285e-05
17 *1094:73 *1095:39 0.00187077
*RES
1 *5583:Q *1095:8 42.3278 
2 *1095:8 *4978:A 41.4008 
3 *5583:Q *1095:30 46.5817 
4 *1095:30 *5158:A 40 
5 *1095:30 *1095:39 9.0022 
6 *1095:39 *5155:A 40 
7 *1095:39 *4993:C 44.084 
*END

*D_NET *1096 0.0151664
*CONN
*I *5074:A I *D sg13g2_nor2b_1
*I *5164:B1 I *D sg13g2_a21o_1
*I *5167:B I *D sg13g2_and2_1
*I *5174:D I *D sg13g2_nand4_1
*I *5173:D I *D sg13g2_and4_1
*I *5165:A I *D sg13g2_nand4_1
*I *4993:B I *D sg13g2_nor4_1
*I *5585:Q O *D sg13g2_dfrbpq_1
*CAP
1 *5074:A 7.57235e-05
2 *5164:B1 0
3 *5167:B 0
4 *5174:D 0
5 *5173:D 0
6 *5165:A 6.2679e-05
7 *4993:B 0.000548494
8 *5585:Q 0
9 *1096:76 0.000659984
10 *1096:68 0.00102769
11 *1096:58 0.000757821
12 *1096:50 0.00096652
13 *1096:20 0.000949451
14 *1096:18 0.00109287
15 *1096:12 0.000338266
16 *1096:8 0.00130822
17 *1096:4 0.00122386
18 *4993:B *1097:22 0
19 *1096:50 *1097:39 6.46834e-05
20 *1096:58 *1097:39 0.000242187
21 *1096:68 *5174:B 0
22 *1096:68 *5174:A 0
23 *1096:76 *1097:47 0.000339097
24 *1096:76 *1099:23 0.00150869
25 *5074:B_N *5074:A 0
26 *5164:A2 *1096:18 0.000129205
27 *5172:A1 *1096:68 0.000369467
28 *135:12 *1096:68 0
29 *283:6 *5165:A 7.91347e-05
30 *286:14 *1096:50 0.0001765
31 *286:35 *1096:58 0.000178401
32 *286:64 *1096:68 0.00059676
33 *286:64 *1096:76 0.000306607
34 *288:10 *1096:50 0
35 *291:12 *1096:8 0
36 *358:14 *1096:50 0
37 *367:12 *1096:12 0.00029147
38 *367:12 *1096:18 1.54008e-05
39 *367:16 *1096:18 0.000143951
40 *367:16 *1096:50 0
41 *367:16 *1096:58 0
42 *1005:78 *1096:76 0.000443216
43 *1008:23 *1096:12 0.00030502
44 *1008:23 *1096:18 4.76456e-05
45 *1008:37 *1096:58 0
46 *1008:45 *1096:58 0
47 *1008:80 *1096:76 0.000234158
48 *1015:8 *1096:50 4.75166e-05
49 *1018:10 *1096:18 0.00029039
50 *1018:10 *1096:20 0.000345318
*RES
1 *5585:Q *1096:4 20 
2 *1096:4 *1096:8 30.4854 
3 *1096:8 *1096:12 22.0497 
4 *1096:12 *1096:18 22.3072 
5 *1096:18 *1096:20 3.5638 
6 *1096:20 *4993:B 44.3878 
7 *1096:20 *5165:A 40.5356 
8 *1096:18 *1096:50 25.3148 
9 *1096:50 *1096:58 44.532 
10 *1096:58 *1096:68 44.2642 
11 *1096:68 *1096:76 49.2906 
12 *1096:76 *5173:D 20 
13 *1096:68 *5174:D 20 
14 *1096:50 *5167:B 20 
15 *1096:12 *5164:B1 20 
16 *1096:4 *5074:A 21.0197 
*END

*D_NET *1097 0.0160793
*CONN
*I *4977:A I *D sg13g2_inv_1
*I *5167:A I *D sg13g2_and2_1
*I *5174:C I *D sg13g2_nand4_1
*I *5173:C I *D sg13g2_and4_1
*I *4993:A I *D sg13g2_nor4_1
*I *5587:Q O *D sg13g2_dfrbpq_1
*CAP
1 *4977:A 0.000159382
2 *5167:A 0
3 *5174:C 0
4 *5173:C 5.16178e-05
5 *4993:A 0
6 *5587:Q 0.000152822
7 *1097:47 0.000839267
8 *1097:41 0.00078765
9 *1097:39 0.000894779
10 *1097:29 0.000894779
11 *1097:22 0.00114941
12 *1097:16 0.00240535
13 *1097:10 0.00141532
14 *1097:8 0.000152822
15 *5173:C *5173:B 1.53311e-05
16 *1097:47 *5174:A 0.000274266
17 *4993:B *1097:22 0
18 *5012:A *1097:22 0
19 *5170:D *1097:47 0.000664044
20 *5585:CLK *1097:16 0
21 *261:25 *4977:A 0.000112651
22 *279:12 *1097:22 0
23 *284:22 *1097:22 0
24 *286:64 *1097:47 0
25 *358:14 *1097:39 0.00037174
26 *358:22 *1097:39 0.000371269
27 *358:36 *1097:39 0.000467401
28 *367:16 *1097:39 0.000889079
29 *384:8 *1097:22 0.000240531
30 *384:22 *1097:22 0.000468819
31 *385:12 *1097:22 0
32 *393:12 *1097:16 0.000158332
33 *393:12 *1097:22 0.000179386
34 *393:30 *1097:16 0.000982577
35 *632:42 *5173:C 0
36 *639:38 *1097:8 0
37 *639:38 *1097:16 0
38 *657:16 *4977:A 0
39 *657:16 *1097:16 0
40 *657:16 *1097:22 0
41 *1005:78 *1097:47 0.000496248
42 *1008:37 *1097:16 0
43 *1008:37 *1097:22 0
44 *1008:45 *1097:47 0
45 *1008:80 *1097:47 0.000235378
46 *1015:20 *1097:47 0.000603088
47 *1096:50 *1097:39 6.46834e-05
48 *1096:58 *1097:39 0.000242187
49 *1096:76 *1097:47 0.000339097
*RES
1 *5587:Q *1097:8 41.5862 
2 *1097:8 *1097:10 20 
3 *1097:10 *1097:16 34.0183 
4 *1097:16 *1097:22 31.33 
5 *1097:22 *4993:A 20 
6 *1097:16 *1097:29 20 
7 *1097:29 *1097:39 30.609 
8 *1097:39 *1097:41 20 
9 *1097:41 *1097:47 30.2176 
10 *1097:47 *5173:C 40.3508 
11 *1097:41 *5174:C 20 
12 *1097:29 *5167:A 20 
13 *1097:10 *4977:A 21.6171 
*END

*D_NET *1098 0.00876962
*CONN
*I *5173:B I *D sg13g2_and4_1
*I *5170:A I *D sg13g2_nand4_1
*I *4976:A I *D sg13g2_inv_1
*I *5174:B I *D sg13g2_nand4_1
*I *4991:D I *D sg13g2_nor4_1
*I *5171:A I *D sg13g2_and4_1
*I *5589:Q O *D sg13g2_dfrbpq_1
*CAP
1 *5173:B 0.000411515
2 *5170:A 0
3 *4976:A 9.00352e-05
4 *5174:B 0.000122551
5 *4991:D 0.00059032
6 *5171:A 0.000274616
7 *5589:Q 0.000334991
8 *1098:38 0.000212586
9 *1098:16 0.000922815
10 *1098:14 0.000508114
11 *1098:12 0.000525587
12 *1098:10 0.000821858
13 *4976:A *5174:A 0
14 *4991:D *4991:C 0.00033819
15 *4991:D *1101:42 0
16 *5174:B *5174:A 4.79124e-05
17 *5170:D *5173:B 0
18 *5171:B *5171:A 0.000112667
19 *5172:B1 *4976:A 0
20 *5172:A1 *4976:A 0
21 *5172:A1 *1098:14 0.000106064
22 *5172:A1 *1098:16 7.51285e-05
23 *5173:C *5173:B 1.53311e-05
24 *5176:B2 *5173:B 0.000207881
25 *5176:C1 *5173:B 0
26 *5176:B1 *5173:B 0.000143934
27 *260:8 *5174:B 4.72458e-05
28 *260:14 *5171:A 0.00023701
29 *260:14 *1098:16 0.00021237
30 *269:14 *4991:D 8.01445e-05
31 *269:14 *5171:A 0.000404044
32 *358:64 *5171:A 0
33 *385:18 *5171:A 0.000235055
34 *385:18 *1098:14 0.00140487
35 *385:18 *1098:16 0.000286789
36 *390:18 *1098:10 0
37 *390:28 *5173:B 0
38 *605:29 *1098:10 0
39 *632:38 *1098:10 0
40 *632:42 *5173:B 0
41 *1008:45 *4991:D 0
42 *1008:45 *5174:B 0
43 *1096:68 *5174:B 0
*RES
1 *5589:Q *1098:10 43.3887 
2 *1098:10 *1098:12 0.8446 
3 *1098:12 *1098:14 6.7774 
4 *1098:14 *1098:16 1.339 
5 *1098:16 *5171:A 43.7904 
6 *1098:16 *4991:D 45.6388 
7 *1098:14 *1098:38 20 
8 *1098:38 *5174:B 21.1845 
9 *1098:38 *4976:A 21.133 
10 *1098:12 *5170:A 40 
11 *1098:10 *5173:B 44.3672 
*END

*D_NET *1099 0.00710948
*CONN
*I *4975:A I *D sg13g2_inv_1
*I *5174:A I *D sg13g2_nand4_1
*I *4991:C I *D sg13g2_nor4_1
*I *5173:A I *D sg13g2_and4_1
*I *5591:Q O *D sg13g2_dfrbpq_1
*CAP
1 *4975:A 0
2 *5174:A 0.000273818
3 *4991:C 0.000295489
4 *5173:A 0
5 *5591:Q 0.000641344
6 *1099:23 0.00122862
7 *1099:12 0.000749075
8 *1099:10 0.000731103
9 *4991:C *1101:42 4.77425e-05
10 *4991:C *1101:51 6.46834e-05
11 *4976:A *5174:A 0
12 *4991:D *4991:C 0.00033819
13 *5174:B *5174:A 4.79124e-05
14 *5182:C *4991:C 0
15 *5591:CLK *1099:10 0
16 *5685:CLK *1099:10 0
17 *259:24 *1099:12 0
18 *288:35 *4991:C 0.00023464
19 *288:35 *1099:23 0.000497464
20 *632:34 *1099:23 0
21 *632:38 *1099:10 0
22 *632:38 *1099:12 0
23 *1008:45 *4991:C 0.000176436
24 *1008:45 *5174:A 0
25 *1096:68 *5174:A 0
26 *1096:76 *1099:23 0.00150869
27 *1097:47 *5174:A 0.000274266
*RES
1 *5591:Q *1099:10 47.9001 
2 *1099:10 *1099:12 1.0918 
3 *1099:12 *5173:A 40 
4 *1099:12 *1099:23 8.5799 
5 *1099:23 *4991:C 43.3578 
6 *1099:23 *5174:A 42.9355 
7 *1099:10 *4975:A 40 
*END

*D_NET *1100 0.0087575
*CONN
*I *5030:A I *D sg13g2_nor2b_1
*I *5111:B1 I *D sg13g2_a21o_1
*I *5004:D I *D sg13g2_nand4_1
*I *5006:C I *D sg13g2_and4_1
*I *5007:C I *D sg13g2_nand4_1
*I *5115:C I *D sg13g2_and4_1
*I *5112:C I *D sg13g2_nand3_1
*I *5555:Q O *D sg13g2_dfrbpq_1
*CAP
1 *5030:A 0.000522314
2 *5111:B1 0.000183596
3 *5004:D 0
4 *5006:C 0
5 *5007:C 0.000214373
6 *5115:C 0.000161478
7 *5112:C 2.60565e-05
8 *5555:Q 0.00113259
9 *1100:62 0.000122043
10 *1100:42 0.000237865
11 *1100:40 0.00066824
12 *1100:25 0.000821659
13 *1100:14 0.000579521
14 *1100:8 0.00120986
15 *5007:C *5007:B 0.000135651
16 *5007:C *5007:A 0
17 *5112:C *5036:A 4.77425e-05
18 *5115:C *1111:23 4.78853e-05
19 *5115:C *1111:27 1.54285e-05
20 *1100:14 *5036:A 0.000209374
21 *1100:40 *1111:33 0
22 *1100:42 *1111:33 0
23 *1100:62 *5004:C 0.000287672
24 *5110:B1 *5030:A 0
25 *5112:B *5112:C 4.77425e-05
26 *5112:B *1100:14 6.46834e-05
27 *5115:A *5115:C 0.000182023
28 *5115:A *1100:25 0.000159598
29 *5115:B *5115:C 4.77425e-05
30 *5553:D *5030:A 0.000177388
31 *358:80 *1100:62 4.77425e-05
32 *643:42 *1100:8 0
33 *646:39 *1100:8 0
34 *692:12 *1100:14 0
35 *692:14 *1100:25 0
36 *692:29 *1100:40 0.000855495
37 *692:29 *1100:42 3.23417e-05
38 *692:35 *5007:C 0.000306903
39 *692:35 *1100:42 1.54008e-05
40 *707:27 *5111:B1 0
41 *708:14 *5030:A 0
42 *1016:27 *5111:B1 1.54008e-05
43 *1016:31 *1100:25 0.000181694
44 *1018:114 *5115:C 0
*RES
1 *5555:Q *1100:8 46.0358 
2 *1100:8 *1100:14 24.7174 
3 *1100:14 *5112:C 20.3193 
4 *1100:14 *1100:25 21.5862 
5 *1100:25 *5115:C 41.6583 
6 *1100:25 *1100:40 25.7268 
7 *1100:40 *1100:42 0.3193 
8 *1100:42 *5007:C 22.266 
9 *1100:42 *5006:C 20 
10 *1100:40 *1100:62 41.6583 
11 *1100:62 *5004:D 20 
12 *1100:8 *5111:B1 41.6171 
13 *5555:Q *5030:A 45.6444 
*END

*D_NET *1101 0.00851065
*CONN
*I *5177:A I *D sg13g2_nand4_1
*I *5183:C I *D sg13g2_nand3_1
*I *4991:B I *D sg13g2_nor4_1
*I *5192:D I *D sg13g2_nand4_1
*I *4974:A I *D sg13g2_inv_1
*I *5593:Q O *D sg13g2_dfrbpq_1
*CAP
1 *5177:A 0.000356689
2 *5183:C 0.000264676
3 *4991:B 0
4 *5192:D 8.83723e-05
5 *4974:A 3.25982e-05
6 *5593:Q 0.000420968
7 *1101:51 0.000670879
8 *1101:42 0.000255613
9 *1101:27 0.000958783
10 *1101:10 0.000696911
11 *1101:8 0.000420968
12 *5192:D *5192:C 0.000283754
13 *1101:27 *5192:C 5.30319e-05
14 *1101:27 *1102:10 0.000181192
15 *1101:27 *1104:28 0
16 *1101:42 *1102:25 0.00037174
17 *1101:51 *1102:25 1.54008e-05
18 *4991:C *1101:42 4.77425e-05
19 *4991:C *1101:51 6.46834e-05
20 *4991:D *1101:42 0
21 *5084:A2 *4974:A 0
22 *5084:A2 *1101:27 0
23 *5177:B *5177:A 0.000337633
24 *5180:B *1101:27 0
25 *5180:C *1101:27 0
26 *5182:D *1101:27 0.000316354
27 *5593:D *1101:27 0
28 *258:25 *1101:27 0
29 *268:20 *5183:C 1.54556e-05
30 *286:64 *1101:27 0
31 *367:20 *5177:A 0.000530735
32 *367:20 *5183:C 0.000607524
33 *403:10 *1101:27 0
34 *631:49 *4974:A 0
35 *631:49 *1101:8 0.000875383
36 *631:62 *1101:8 0.000643568
37 *1008:95 *5192:D 0
38 *1015:20 *5177:A 0
39 *1015:20 *5183:C 0
40 *1018:56 *1101:8 0
*RES
1 *5593:Q *1101:8 47.0246 
2 *1101:8 *1101:10 20 
3 *1101:10 *4974:A 20.3965 
4 *1101:10 *1101:27 26.3416 
5 *1101:27 *5192:D 41.4111 
6 *1101:27 *1101:42 22.4823 
7 *1101:42 *4991:B 20 
8 *1101:42 *1101:51 20.5356 
9 *1101:51 *5183:C 43.3578 
10 *1101:51 *5177:A 44.3054 
*END

*D_NET *1102 0.00658627
*CONN
*I *4973:A I *D sg13g2_inv_1
*I *4991:A I *D sg13g2_nor4_1
*I *5183:B I *D sg13g2_nand3_1
*I *5192:C I *D sg13g2_nand4_1
*I *5595:Q O *D sg13g2_dfrbpq_1
*CAP
1 *4973:A 4.85372e-05
2 *4991:A 0
3 *5183:B 0
4 *5192:C 0.00016506
5 *5595:Q 0.000865439
6 *1102:31 0.00013279
7 *1102:25 0.000348309
8 *1102:10 0.000806071
9 *1102:8 0.00133947
10 *5192:C *1103:40 4.79124e-05
11 *5178:A *4973:A 8.00842e-05
12 *5180:A *1102:10 0
13 *5181:B1 *1102:10 0
14 *5182:C *1102:25 0.000404082
15 *5192:D *5192:C 0.000283754
16 *5194:B *5192:C 0
17 *257:8 *4973:A 1.54008e-05
18 *268:20 *5192:C 0
19 *367:20 *1102:31 0.000713173
20 *1008:95 *1102:31 0.000714832
21 *1101:27 *5192:C 5.30319e-05
22 *1101:27 *1102:10 0.000181192
23 *1101:42 *1102:25 0.00037174
24 *1101:51 *1102:25 1.54008e-05
*RES
1 *5595:Q *1102:8 49.7438 
2 *1102:8 *1102:10 3.5638 
3 *1102:10 *5192:C 42.1218 
4 *1102:10 *1102:25 22.6986 
5 *1102:25 *1102:31 43.3166 
6 *1102:31 *5183:B 20 
7 *1102:25 *4991:A 20 
8 *1102:8 *4973:A 40.5356 
*END

*D_NET *1103 0.00823899
*CONN
*I *5183:A I *D sg13g2_nand3_1
*I *5192:B I *D sg13g2_nand4_1
*I *4990:D I *D sg13g2_nor4_1
*I *4972:A I *D sg13g2_inv_1
*I *5597:Q O *D sg13g2_dfrbpq_1
*CAP
1 *5183:A 0.000360063
2 *5192:B 0
3 *4990:D 0
4 *4972:A 0.000180176
5 *5597:Q 0.000331451
6 *1103:40 0.000221325
7 *1103:32 0.000740223
8 *1103:25 7.20941e-05
9 *1103:19 0.00109466
10 *1103:10 0.00104391
11 *1103:8 0.000331451
12 *1103:19 *1104:10 0
13 *1103:19 *1104:28 0
14 *1103:25 *1104:32 0.000340789
15 *1103:40 *5192:A 7.95529e-05
16 *5088:A2 *4972:A 0
17 *5182:C *1103:40 0
18 *5186:B *1103:19 0.000112426
19 *5186:A *1103:19 0.000404076
20 *5187:A1 *4972:A 0
21 *5192:C *1103:40 4.79124e-05
22 *5194:B *1103:40 0.000502364
23 *5533:CLK *1103:8 0.000448514
24 *5597:RESET_B *4972:A 0.000274676
25 *5597:D *4972:A 0
26 *5597:D *1103:19 0
27 *256:8 *4972:A 4.78556e-05
28 *268:20 *5183:A 0
29 *268:20 *1103:40 0
30 *406:26 *5183:A 0.000194649
31 *406:26 *1103:19 0.000274682
32 *406:26 *1103:32 7.92691e-05
33 *412:8 *1103:25 0.000287757
34 *631:8 *1103:19 0
35 *631:34 *1103:8 0.000769109
*RES
1 *5597:Q *1103:8 45.5414 
2 *1103:8 *1103:10 20 
3 *1103:10 *4972:A 22.0497 
4 *1103:10 *1103:19 9.4039 
5 *1103:19 *1103:25 41.5862 
6 *1103:25 *4990:D 20 
7 *1103:19 *1103:32 1.4008 
8 *1103:32 *1103:40 43.0797 
9 *1103:40 *5192:B 20 
10 *1103:32 *5183:A 23.4814 
*END

*D_NET *1104 0.00562293
*CONN
*I *5192:A I *D sg13g2_nand4_1
*I *4990:C I *D sg13g2_nor4_1
*I *4971:A I *D sg13g2_inv_1
*I *5188:B I *D sg13g2_nand3_1
*I *5599:Q O *D sg13g2_dfrbpq_1
*CAP
1 *5192:A 0.00015248
2 *4990:C 0
3 *4971:A 0.000392948
4 *5188:B 2.60565e-05
5 *5599:Q 0.000726199
6 *1104:32 0.000639399
7 *1104:28 0.00076258
8 *1104:10 0.000388607
9 *5182:B *5192:A 0
10 *5182:A *5192:A 0
11 *5188:C *5188:B 4.77425e-05
12 *5190:A2 *4971:A 0
13 *5194:A *4971:A 0
14 *5194:A *1104:32 0
15 *255:30 *4971:A 0.000209593
16 *398:22 *1104:32 0.000128247
17 *403:10 *1104:28 0
18 *407:8 *1104:10 0
19 *411:10 *5192:A 0.000208299
20 *411:10 *1104:32 0.000448842
21 *412:8 *4971:A 0
22 *412:8 *1104:32 0
23 *629:31 *1104:10 0.000181192
24 *631:8 *5188:B 4.77425e-05
25 *631:49 *1104:10 0
26 *700:92 *1104:32 0
27 *709:64 *4971:A 0
28 *1018:56 *1104:10 0.000449344
29 *1018:69 *1104:10 0.00039332
30 *1101:27 *1104:28 0
31 *1103:19 *1104:10 0
32 *1103:19 *1104:28 0
33 *1103:25 *1104:32 0.000340789
34 *1103:40 *5192:A 7.95529e-05
*RES
1 *5599:Q *1104:10 45.2118 
2 *1104:10 *5188:B 40.3193 
3 *5599:Q *1104:28 23.9449 
4 *1104:28 *1104:32 23.811 
5 *1104:32 *4971:A 43.3887 
6 *1104:32 *4990:C 40 
7 *1104:28 *5192:A 21.6171 
*END

*D_NET *1105 0.0168774
*CONN
*I *4990:B I *D sg13g2_nor4_1
*I *5195:A I *D sg13g2_nor2_1
*I *5196:A I *D sg13g2_nand4_1
*I *5199:B I *D sg13g2_and2_1
*I *5205:D I *D sg13g2_and4_1
*I *5202:C I *D sg13g2_and3_1
*I *5091:A1 I *D sg13g2_mux2_1
*I *5601:Q O *D sg13g2_dfrbpq_1
*CAP
1 *4990:B 0
2 *5195:A 3.47831e-05
3 *5196:A 0.000333899
4 *5199:B 0.000268237
5 *5205:D 0.000514855
6 *5202:C 2.58415e-05
7 *5091:A1 0
8 *5601:Q 0.000325691
9 *1105:102 0.000742617
10 *1105:38 0.00164219
11 *1105:32 0.00195037
12 *1105:26 0.00120956
13 *1105:22 0.00111852
14 *1105:18 0.0011744
15 *1105:12 0.000950242
16 *1105:6 0.00158118
17 *5199:B *5199:A 0.000435605
18 *5205:D *5205:C 0
19 *1105:12 *1106:18 0
20 *1105:22 *1106:33 0
21 *1105:26 *1106:33 0
22 *1105:26 *1106:35 0
23 *1105:26 *1106:37 0
24 *1105:32 *5202:B 0
25 *1105:32 *1106:37 0
26 *1105:38 *5202:B 0
27 *1105:102 *4990:A 0.000305104
28 *1105:102 *1106:18 0.000371752
29 *5087:B1 *1105:6 0
30 *5091:S *1105:38 0
31 *5092:A *1105:38 0
32 *5094:A2 *1105:32 0
33 *5200:B *5196:A 0
34 *5200:A *5196:A 0
35 *5200:D *5196:A 0
36 *5200:D *5199:B 0
37 *5203:B2 *5205:D 0.000112558
38 *5203:B2 *1105:32 0.000177334
39 *5541:RESET_B *1105:38 0
40 *5541:D *1105:38 0
41 *5605:RESET_B *1105:38 0
42 *140:10 *1105:102 0.000287759
43 *143:10 *1105:38 0
44 *255:8 *1105:6 0.00056625
45 *255:8 *1105:102 0.00029113
46 *403:10 *1105:102 0
47 *412:18 *5196:A 0
48 *412:40 *5196:A 0
49 *415:6 *5196:A 0.000338761
50 *415:6 *1105:18 0.000177203
51 *416:8 *1105:12 0
52 *416:8 *1105:18 0
53 *418:10 *5196:A 0
54 *418:10 *1105:22 0
55 *419:14 *5205:D 8.94836e-05
56 *419:14 *1105:32 0
57 *419:31 *5205:D 0.000403532
58 *620:25 *5205:D 0
59 *629:10 *5196:A 0
60 *629:10 *5199:B 0
61 *629:10 *1105:18 0
62 *629:31 *1105:12 0
63 *629:31 *1105:18 0.000288173
64 *629:45 *1105:22 0
65 *629:47 *1105:26 0
66 *631:8 *1105:102 0.00040406
67 *704:25 *1105:22 0
68 *704:31 *1105:18 0
69 *709:64 *1105:12 0.000181694
70 *753:12 *1105:38 0.000177526
71 *1008:124 *1105:26 0
72 *1018:81 *1105:6 4.77425e-05
73 *1018:81 *1105:102 0.000349317
74 *1028:37 *1105:38 0
*RES
1 *5601:Q *1105:6 23.7801 
2 *1105:6 *1105:12 25.1191 
3 *1105:12 *1105:18 24.4702 
4 *1105:18 *1105:22 24.5526 
5 *1105:22 *1105:26 23.5638 
6 *1105:26 *1105:32 22.987 
7 *1105:32 *1105:38 38.3134 
8 *1105:38 *5091:A1 20 
9 *1105:32 *5202:C 40.3193 
10 *1105:26 *5205:D 25.9843 
11 *1105:22 *5199:B 42.9149 
12 *1105:18 *5196:A 23.6977 
13 *1105:12 *5195:A 40.3193 
14 *1105:6 *1105:102 48.858 
15 *1105:102 *4990:B 20 
*END

*D_NET *1106 0.0113109
*CONN
*I *5199:A I *D sg13g2_and2_1
*I *4970:A I *D sg13g2_inv_1
*I *5205:C I *D sg13g2_and4_1
*I *5202:B I *D sg13g2_and3_1
*I *4990:A I *D sg13g2_nor4_1
*I *5603:Q O *D sg13g2_dfrbpq_1
*CAP
1 *5199:A 0.000350413
2 *4970:A 5.76345e-05
3 *5205:C 0.000594763
4 *5202:B 0.000109223
5 *4990:A 0.000189876
6 *5603:Q 0.000198902
7 *1106:37 0.00100488
8 *1106:35 0.000532778
9 *1106:33 0.00102192
10 *1106:18 0.000986047
11 *1106:8 0.00149233
12 *5205:C *5202:A 0
13 *5205:C *1107:6 0
14 *5205:C *1107:15 8.03692e-05
15 *5205:C *1107:24 0.000274638
16 *5205:C *1107:35 1.54556e-05
17 *5094:A2 *1106:37 0
18 *5186:B *1106:18 0
19 *5190:A1 *1106:18 0
20 *5190:A2 *4990:A 0.000209385
21 *5190:A2 *1106:18 0
22 *5190:B1 *1106:18 8.02431e-05
23 *5195:B *1106:8 0
24 *5199:B *5199:A 0.000435605
25 *5201:B1 *5199:A 0.000435441
26 *5203:B2 *1106:35 0
27 *5203:B2 *1106:37 0
28 *5205:D *5205:C 0
29 *5609:CLK *5199:A 0
30 *140:10 *1106:18 0
31 *413:14 *1106:33 0.00127932
32 *413:14 *1106:35 0.000181695
33 *416:8 *1106:18 0
34 *419:14 *5205:C 1.54008e-05
35 *419:31 *5205:C 0
36 *629:10 *5199:A 0
37 *704:25 *1106:33 0
38 *704:31 *1106:8 0
39 *704:31 *1106:33 0
40 *1018:81 *1106:18 0.00108772
41 *1105:12 *1106:18 0
42 *1105:22 *1106:33 0
43 *1105:26 *1106:33 0
44 *1105:26 *1106:35 0
45 *1105:26 *1106:37 0
46 *1105:32 *5202:B 0
47 *1105:32 *1106:37 0
48 *1105:38 *5202:B 0
49 *1105:102 *4990:A 0.000305104
50 *1105:102 *1106:18 0.000371752
*RES
1 *5603:Q *1106:8 21.9982 
2 *1106:8 *1106:18 49.5481 
3 *1106:18 *4990:A 22.2454 
4 *1106:8 *1106:33 26.7877 
5 *1106:33 *1106:35 1.8334 
6 *1106:35 *1106:37 2.8222 
7 *1106:37 *5202:B 41.133 
8 *1106:37 *5205:C 45.7474 
9 *1106:35 *4970:A 40.5356 
10 *1106:33 *5199:A 43.9964 
*END

*D_NET *1107 0.00620413
*CONN
*I *5000:B I *D sg13g2_nor2_1
*I *5001:D I *D sg13g2_nor4_1
*I *5205:B I *D sg13g2_and4_1
*I *4969:A I *D sg13g2_inv_1
*I *5202:A I *D sg13g2_and3_1
*I *5605:Q O *D sg13g2_dfrbpq_1
*CAP
1 *5000:B 0
2 *5001:D 0
3 *5205:B 0
4 *4969:A 4.32204e-05
5 *5202:A 0.000231315
6 *5605:Q 2.79904e-05
7 *1107:48 0.000116767
8 *1107:35 0.00148748
9 *1107:24 0.0015489
10 *1107:15 0.000388157
11 *1107:6 0.000426052
12 *1107:35 *4999:A 0
13 *1107:35 *4999:B 0
14 *1107:35 *5001:B 0
15 *1107:35 *1110:38 0
16 *1107:48 *4999:A 0
17 *1107:48 *5001:C 0.000234726
18 *5204:C *1107:35 0
19 *5204:D *1107:35 0.000533952
20 *5205:C *5202:A 0
21 *5205:C *1107:6 0
22 *5205:C *1107:15 8.03692e-05
23 *5205:C *1107:24 0.000274638
24 *5205:C *1107:35 1.54556e-05
25 *5206:C *1107:35 0
26 *5206:D *1107:35 4.7803e-05
27 *5848:A *1107:35 0
28 *253:8 *5202:A 0
29 *253:8 *1107:15 0
30 *278:8 *1107:48 0.000287757
31 *388:24 *1107:35 0
32 *419:31 *4969:A 0
33 *419:31 *1107:24 0
34 *419:31 *1107:35 0
35 *421:10 *1107:35 0
36 *421:21 *1107:35 0
37 *1034:12 *1107:35 0.000434904
38 *1034:32 *1107:35 2.46413e-05
*RES
1 *5605:Q *1107:6 20.3502 
2 *1107:6 *5202:A 22.0497 
3 *1107:6 *1107:15 1.6171 
4 *1107:15 *4969:A 20.5974 
5 *1107:15 *1107:24 1.8334 
6 *1107:24 *5205:B 20 
7 *1107:24 *1107:35 13.9668 
8 *1107:35 *5001:D 20 
9 *1107:35 *1107:48 41.8746 
10 *1107:48 *5000:B 20 
*END

*D_NET *1108 0.00454945
*CONN
*I *5000:A I *D sg13g2_nor2_1
*I *5001:C I *D sg13g2_nor4_1
*I *4968:A I *D sg13g2_inv_1
*I *5205:A I *D sg13g2_and4_1
*I *5607:Q O *D sg13g2_dfrbpq_1
*CAP
1 *5000:A 0
2 *5001:C 0.000182656
3 *4968:A 0
4 *5205:A 0
5 *5607:Q 0.00145006
6 *1108:41 0.000409396
7 *1108:37 0.00152501
8 *1108:12 0.000257863
9 *1108:6 0.000409654
10 *5001:C *1110:19 0
11 *1108:12 *1109:14 0
12 *1108:37 *4966:A 0
13 *1108:41 *4966:A 0
14 *1108:41 *1110:19 0
15 *5162:B1 *1108:41 0
16 *5209:A1 *1108:6 0
17 *5209:B1 *1108:37 0
18 *5218:A1 *1108:37 8.00842e-05
19 *5218:A2 *1108:37 0
20 *5607:CLK *1108:37 0
21 *5611:CLK *1108:37 0
22 *5858:A *1108:37 0
23 *278:8 *5001:C 0
24 *348:32 *1108:37 0
25 *388:14 *5001:C 0
26 *388:14 *1108:41 0
27 *1015:60 *1108:37 0
28 *1107:48 *5001:C 0.000234726
*RES
1 *5607:Q *1108:6 21.6171 
2 *1108:6 *1108:12 43.0694 
3 *1108:12 *5205:A 20 
4 *1108:6 *4968:A 20 
5 *5607:Q *1108:37 33.2458 
6 *1108:37 *1108:41 22.3278 
7 *1108:41 *5001:C 41.9055 
8 *1108:41 *5000:A 40 
*END

*D_NET *1109 0.0139544
*CONN
*I *4967:A I *D sg13g2_inv_1
*I *5215:C I *D sg13g2_nand3_1
*I *4999:B I *D sg13g2_nor2_1
*I *5001:B I *D sg13g2_nor4_1
*I *5099:B I *D sg13g2_and2_1
*I *5214:C I *D sg13g2_and3_1
*I *5100:A1 I *D sg13g2_mux2_1
*I *5609:Q O *D sg13g2_dfrbpq_1
*CAP
1 *4967:A 0.000376857
2 *5215:C 0.000231783
3 *4999:B 0.000329978
4 *5001:B 0.000343893
5 *5099:B 0.000301007
6 *5214:C 0
7 *5100:A1 0
8 *5609:Q 0.000194683
9 *1109:42 0.000854059
10 *1109:40 0.000792945
11 *1109:38 0.000575088
12 *1109:29 0.000891979
13 *1109:21 0.00137617
14 *1109:14 0.00147225
15 *1109:8 0.00186376
16 *4999:B *4999:A 0.000112552
17 *4999:B *5214:B 0
18 *4999:B *1110:38 0.000241979
19 *5001:B *5001:A 0.000112426
20 *1109:29 *5214:B 3.58069e-05
21 *1109:38 *5214:B 0
22 *5002:A *4999:B 0
23 *5002:B *4999:B 0
24 *5097:B1 *1109:14 0
25 *5098:A1 *1109:14 1.54008e-05
26 *5099:A *5099:B 4.77425e-05
27 *5100:A0 *1109:14 4.77425e-05
28 *5101:A *1109:14 0
29 *5214:A *1109:38 4.77425e-05
30 *5218:A2 *5099:B 0
31 *5609:D *4967:A 1.54556e-05
32 *5609:CLK *1109:29 0
33 *5848:A *1109:29 0
34 *144:8 *1109:14 0
35 *348:55 *5099:B 0
36 *388:24 *5001:B 0
37 *388:38 *1109:14 0
38 *410:20 *1109:29 0
39 *421:10 *1109:8 0
40 *430:12 *5215:C 0
41 *430:12 *1109:29 4.77425e-05
42 *430:12 *1109:38 0.000144388
43 *430:20 *5099:B 0
44 *430:20 *5215:C 0
45 *430:20 *1109:40 0
46 *430:20 *1109:42 0
47 *430:35 *4999:B 0
48 *620:25 *1109:29 0.000760679
49 *656:20 *5215:C 0
50 *656:20 *1109:40 0
51 *656:24 *1109:40 0
52 *656:24 *1109:42 0
53 *809:8 *1109:14 0.00093235
54 *809:12 *1109:14 0.000194368
55 *856:10 *4967:A 0
56 *856:10 *1109:8 0
57 *1008:105 *4967:A 0.000122871
58 *1015:60 *5099:B 0.000144179
59 *1034:32 *5099:B 0.000553662
60 *1034:65 *1109:14 0.000772838
61 *1107:35 *4999:B 0
62 *1107:35 *5001:B 0
63 *1108:12 *1109:14 0
*RES
1 *5609:Q *1109:8 41.8334 
2 *1109:8 *1109:14 38.9932 
3 *1109:14 *5100:A1 20 
4 *1109:8 *1109:21 2.3278 
5 *1109:21 *1109:29 28.7756 
6 *1109:29 *5214:C 20 
7 *1109:29 *1109:38 20.9682 
8 *1109:38 *1109:40 2.0806 
9 *1109:40 *1109:42 1.8334 
10 *1109:42 *5099:B 43.5432 
11 *1109:42 *5001:B 43.2342 
12 *1109:40 *4999:B 43.4814 
13 *1109:38 *5215:C 41.8128 
14 *1109:21 *4967:A 44.5938 
*END

*D_NET *1110 0.00458006
*CONN
*I *4999:A I *D sg13g2_nor2_1
*I *5215:B I *D sg13g2_nand3_1
*I *5214:B I *D sg13g2_and3_1
*I *5001:A I *D sg13g2_nor4_1
*I *4966:A I *D sg13g2_inv_1
*I *5611:Q O *D sg13g2_dfrbpq_1
*CAP
1 *4999:A 6.65399e-05
2 *5215:B 9.37615e-05
3 *5214:B 0.00025828
4 *5001:A 6.76918e-05
5 *4966:A 0.000295347
6 *5611:Q 0
7 *1110:38 0.000607317
8 *1110:32 0.000472794
9 *1110:19 0.000508319
10 *1110:6 0.000584995
11 *4999:B *4999:A 0.000112552
12 *4999:B *5214:B 0
13 *4999:B *1110:38 0.000241979
14 *5001:B *5001:A 0.000112426
15 *5001:C *1110:19 0
16 *5162:B1 *4966:A 0
17 *5214:A *5214:B 4.77425e-05
18 *146:8 *4966:A 0
19 *279:12 *1110:32 0.000182023
20 *279:12 *1110:38 0
21 *280:16 *5215:B 0
22 *280:16 *1110:38 0
23 *348:55 *5215:B 0.000316444
24 *348:55 *1110:19 0
25 *348:55 *1110:32 0
26 *348:55 *1110:38 0.000395067
27 *388:24 *5001:A 0
28 *430:12 *5214:B 0
29 *430:35 *5215:B 0.000180972
30 *1107:35 *4999:A 0
31 *1107:35 *1110:38 0
32 *1107:48 *4999:A 0
33 *1108:37 *4966:A 0
34 *1108:41 *4966:A 0
35 *1108:41 *1110:19 0
36 *1109:29 *5214:B 3.58069e-05
37 *1109:38 *5214:B 0
*RES
1 *5611:Q *1110:6 40 
2 *1110:6 *4966:A 42.9561 
3 *1110:6 *1110:19 2.8222 
4 *1110:19 *5001:A 40.7519 
5 *1110:19 *1110:32 21.8334 
6 *1110:32 *1110:38 23.4505 
7 *1110:38 *5214:B 42.6394 
8 *1110:38 *5215:B 41.5862 
9 *1110:32 *4999:A 20.7519 
*END

*D_NET *1111 0.0069365
*CONN
*I *5115:D I *D sg13g2_and4_1
*I *5114:A I *D sg13g2_nor2b_1
*I *5004:C I *D sg13g2_nand4_1
*I *5006:B I *D sg13g2_and4_1
*I *5007:B I *D sg13g2_nand4_1
*I *5033:A I *D sg13g2_nor2b_1
*I *5557:Q O *D sg13g2_dfrbpq_1
*CAP
1 *5115:D 0
2 *5114:A 0
3 *5004:C 8.9082e-05
4 *5006:B 0
5 *5007:B 0.000363849
6 *5033:A 0.000426318
7 *5557:Q 0.00023687
8 *1111:35 0.000363849
9 *1111:33 0.000569569
10 *1111:27 0.00068448
11 *1111:23 0.000755536
12 *1111:8 0.00121473
13 *5004:C *5006:A 0.000159096
14 *5004:C *1114:31 0.00023464
15 *5007:B *5006:A 4.77425e-05
16 *5007:B *5007:A 4.79124e-05
17 *1111:33 *5006:A 7.51285e-05
18 *5007:C *5007:B 0.000135651
19 *5115:B *1111:23 0
20 *5115:C *1111:23 4.78853e-05
21 *5115:C *1111:27 1.54285e-05
22 *5557:CLK *1111:23 0.000907769
23 *5557:CLK *1111:27 0.000273287
24 *5940:A *5033:A 0
25 *282:8 *1111:33 0
26 *282:12 *5007:B 0
27 *358:80 *1111:33 0
28 *707:21 *5033:A 0
29 *707:21 *1111:8 0
30 *1100:40 *1111:33 0
31 *1100:42 *1111:33 0
32 *1100:62 *5004:C 0.000287672
*RES
1 *5557:Q *1111:8 42.8222 
2 *1111:8 *5033:A 44.7174 
3 *1111:8 *1111:23 26.592 
4 *1111:23 *1111:27 2.1836 
5 *1111:27 *1111:33 25.0882 
6 *1111:33 *1111:35 20 
7 *1111:35 *5007:B 24.3157 
8 *1111:35 *5006:B 20 
9 *1111:33 *5004:C 41.8334 
10 *1111:27 *5114:A 20 
11 *1111:23 *5115:D 20 
*END

*D_NET *1112 0.000896865
*CONN
*I *4997:B I *D sg13g2_nor3_1
*I *4965:A I *D sg13g2_inv_1
*I *5613:Q O *D sg13g2_dfrbpq_1
*CAP
1 *4997:B 0
2 *4965:A 0.000214883
3 *5613:Q 0
4 *1112:21 0.000169564
5 *1112:4 0.000384447
6 *4965:A *1113:27 0
7 *1112:21 *4997:A 0
8 *4997:C *1112:21 1.54556e-05
9 *5224:A *4965:A 0
10 *249:46 *4965:A 0
11 *280:16 *4965:A 0.000112516
12 *280:16 *1112:21 0
*RES
1 *5613:Q *1112:4 20 
2 *1112:4 *4965:A 22.1836 
3 *1112:4 *1112:21 41.8746 
4 *1112:21 *4997:B 20 
*END

*D_NET *1113 0.00472053
*CONN
*I *4997:A I *D sg13g2_nor3_1
*I *4964:A I *D sg13g2_inv_1
*I *5223:B I *D sg13g2_nand2_1
*I *5615:Q O *D sg13g2_dfrbpq_1
*CAP
1 *4997:A 0.000347592
2 *4964:A 0
3 *5223:B 0.000120145
4 *5615:Q 0.000552204
5 *1113:27 0.000290883
6 *1113:19 0.000891875
7 *1113:10 0.000373546
8 *1113:8 0.000552204
9 *4965:A *1113:27 0
10 *5223:A *1113:8 0
11 *5224:A *1113:27 0
12 *5226:B *5223:B 0
13 *5227:A2 *5223:B 5.70106e-05
14 *5227:A2 *1113:19 0
15 *5615:D *1113:19 8.03692e-05
16 *249:10 *1113:19 0
17 *249:10 *1113:27 0
18 *279:12 *1113:8 0
19 *279:12 *1113:27 0
20 *280:16 *4997:A 0
21 *280:16 *1113:19 0
22 *280:16 *1113:27 0.000242236
23 *387:14 *4997:A 0.00056637
24 *387:14 *5223:B 0.000209676
25 *387:14 *1113:19 0.000436424
26 *389:43 *1113:8 0
27 *410:12 *1113:8 0
28 *657:33 *1113:8 0
29 *1112:21 *4997:A 0
*RES
1 *5615:Q *1113:8 46.0358 
2 *1113:8 *1113:10 20 
3 *1113:10 *5223:B 21.4008 
4 *1113:10 *1113:19 2.9149 
5 *1113:19 *1113:27 43.2033 
6 *1113:27 *4964:A 20 
7 *1113:19 *4997:A 24.1303 
*END

*D_NET *1114 0.0073175
*CONN
*I *5036:A I *D sg13g2_nor2b_1
*I *5004:B I *D sg13g2_nand4_1
*I *5007:A I *D sg13g2_nand4_1
*I *5006:A I *D sg13g2_and4_1
*I *5117:A I *D sg13g2_nor2_1
*I *5559:Q O *D sg13g2_dfrbpq_1
*CAP
1 *5036:A 0.000899393
2 *5004:B 0
3 *5007:A 0.000253888
4 *5006:A 0.000127131
5 *5117:A 3.34444e-05
6 *5559:Q 7.9714e-05
7 *1114:31 0.000503248
8 *1114:25 0.000512448
9 *1114:23 0.00166247
10 *1114:10 0.000486017
11 *1114:25 *5004:A 4.79124e-05
12 *1114:31 *5004:A 1.54556e-05
13 *1114:31 *1117:29 0
14 *5004:C *5006:A 0.000159096
15 *5004:C *1114:31 0.00023464
16 *5007:B *5006:A 4.77425e-05
17 *5007:B *5007:A 4.79124e-05
18 *5007:C *5007:A 0
19 *5038:B *5036:A 0
20 *5112:C *5036:A 4.77425e-05
21 *5113:A *5036:A 0
22 *5116:C *1114:10 1.54008e-05
23 *5555:D *5036:A 0.000241973
24 *5557:CLK *5117:A 4.77425e-05
25 *282:8 *5006:A 0
26 *284:8 *1114:31 0.000235141
27 *285:6 *5007:A 1.54556e-05
28 *349:25 *1114:23 0
29 *354:12 *1114:23 0.000287757
30 *355:8 *1114:10 0.000234224
31 *355:8 *1114:23 0.000234726
32 *358:80 *5007:A 0
33 *358:80 *1114:25 0
34 *636:48 *1114:10 0.000234726
35 *636:48 *1114:23 5.30319e-05
36 *692:29 *1114:25 0
37 *692:35 *5007:A 0.000274561
38 *707:67 *5036:A 0
39 *1008:19 *1114:10 0
40 *1008:19 *1114:23 0
41 *1008:23 *1114:25 0
42 *1100:14 *5036:A 0.000209374
43 *1111:33 *5006:A 7.51285e-05
*RES
1 *5559:Q *1114:10 41.4111 
2 *1114:10 *5117:A 40.3193 
3 *1114:10 *1114:23 23.811 
4 *1114:23 *1114:25 3.9964 
5 *1114:25 *1114:31 21.8746 
6 *1114:31 *5006:A 41.4111 
7 *1114:31 *5007:A 42.4823 
8 *1114:25 *5004:B 20 
9 *1114:23 *5036:A 29.7541 
*END

*D_NET *1115 0.00994297
*CONN
*I *5039:A I *D sg13g2_nor2b_1
*I *5120:B1 I *D sg13g2_a21oi_1
*I *5121:B1 I *D sg13g2_o21ai_1
*I *5008:D I *D sg13g2_and4_1
*I *5009:D I *D sg13g2_nand4_1
*I *5004:A I *D sg13g2_nand4_1
*I *5561:Q O *D sg13g2_dfrbpq_1
*CAP
1 *5039:A 5.17022e-05
2 *5120:B1 3.13955e-05
3 *5121:B1 0.000257964
4 *5008:D 0
5 *5009:D 0.000125928
6 *5004:A 0.000269973
7 *5561:Q 2.8616e-05
8 *1115:37 0.000316431
9 *1115:35 0.00100698
10 *1115:18 0.000963937
11 *1115:16 0.00121635
12 *1115:8 0.00112981
13 *5004:A *1117:29 0.000447567
14 *5009:D *5009:C 0
15 *5009:D *1116:14 0
16 *5009:D *1118:41 0
17 *5121:B1 *1116:12 0
18 *1115:16 *1117:12 0
19 *1115:16 *1117:23 0.000534684
20 *1115:16 *1117:29 0.000393611
21 *1115:16 *1118:14 0
22 *1115:18 *1117:29 0.000393653
23 *1115:37 *1116:12 0
24 *1115:37 *1116:14 0
25 *1115:37 *1118:41 0
26 *5120:A1 *1115:18 0
27 *5124:B1 *5121:B1 0
28 *5561:CLK *5039:A 0
29 *5561:CLK *1115:16 0
30 *121:8 *1115:16 0.00166775
31 *284:8 *5004:A 0
32 *348:10 *5121:B1 0
33 *348:10 *1115:37 0
34 *361:8 *5121:B1 0
35 *646:8 *1115:8 0
36 *666:30 *1115:8 4.77425e-05
37 *707:33 *5120:B1 4.77425e-05
38 *732:8 *1115:16 0
39 *1016:12 *1115:35 0
40 *1018:108 *1115:35 0.00094778
41 *1114:25 *5004:A 4.79124e-05
42 *1114:31 *5004:A 1.54556e-05
*RES
1 *5561:Q *1115:8 40.3193 
2 *1115:8 *1115:16 15.8929 
3 *1115:16 *1115:18 1.8334 
4 *1115:18 *5004:A 43.1415 
5 *1115:18 *1115:35 46.3757 
6 *1115:35 *1115:37 1.5862 
7 *1115:37 *5009:D 41.0918 
8 *1115:37 *5008:D 40 
9 *1115:35 *5121:B1 42.0806 
10 *1115:16 *5120:B1 40.3193 
11 *1115:8 *5039:A 40.5974 
*END

*D_NET *1116 0.011382
*CONN
*I *5042:A I *D sg13g2_nor2b_1
*I *5127:B I *D sg13g2_and3_1
*I *5126:A1 I *D sg13g2_a21oi_1
*I *5125:A1 I *D sg13g2_a21oi_1
*I *5124:A1 I *D sg13g2_o21ai_1
*I *5008:C I *D sg13g2_and4_1
*I *5003:C I *D sg13g2_nand4_1
*I *5009:C I *D sg13g2_nand4_1
*I *5563:Q O *D sg13g2_dfrbpq_1
*CAP
1 *5042:A 0
2 *5127:B 4.6152e-05
3 *5126:A1 0
4 *5125:A1 6.03436e-05
5 *5124:A1 6.26389e-05
6 *5008:C 3.39083e-05
7 *5003:C 0.000316298
8 *5009:C 0.000155765
9 *5563:Q 0
10 *1116:97 0.00102647
11 *1116:79 0.000186482
12 *1116:71 0.000801757
13 *1116:54 0.000629467
14 *1116:14 0.000531769
15 *1116:12 0.000491072
16 *1116:10 0.00061227
17 *1116:8 0.00152067
18 *1116:6 0.00239496
19 *5003:C *5008:B 0
20 *5003:C *5009:B 0.000242203
21 *5003:C *1117:31 4.77425e-05
22 *5008:C *5008:B 0.000112689
23 *5009:C *5009:B 0.000112826
24 *5009:C *1118:41 0
25 *5009:D *5009:C 0
26 *5009:D *1116:14 0
27 *5014:A1 *1116:97 0
28 *5121:B1 *1116:12 0
29 *5124:A2 *5124:A1 3.14288e-05
30 *5125:A2 *5125:A1 7.44751e-05
31 *5125:A2 *1116:8 5.25851e-05
32 *5125:A2 *1116:10 0.000340227
33 *5126:A2 *1116:79 0.000261293
34 *5127:C *5127:B 4.77425e-05
35 *5128:B *1116:71 0
36 *5131:C *5125:A1 0.000106817
37 *5131:C *1116:71 0.000288643
38 *5823:RESET_B *1116:97 0
39 *5823:CLK *1116:97 0
40 *5932:A *1116:97 0
41 *5962:A *5124:A1 0.000112183
42 *121:8 *1116:79 0
43 *122:10 *1116:8 0
44 *349:46 *1116:71 4.77425e-05
45 *361:8 *1116:10 5.15366e-05
46 *361:8 *1116:12 0.000394474
47 *361:25 *5124:A1 6.46561e-05
48 *361:25 *5127:B 0
49 *361:25 *1116:71 0
50 *361:29 *1116:79 7.49652e-05
51 *363:10 *1116:79 0
52 *364:18 *1116:71 4.77425e-05
53 *611:6 *1116:97 0
54 *612:25 *1116:97 0
55 *646:14 *1116:8 0
56 *661:59 *1116:71 0
57 *661:59 *1116:79 0
58 *665:40 *1116:97 0
59 *718:14 *1116:97 0
60 *1115:37 *1116:12 0
61 *1115:37 *1116:14 0
*RES
1 *5563:Q *1116:6 40 
2 *1116:6 *1116:8 13.699 
3 *1116:8 *1116:10 1.8334 
4 *1116:10 *1116:12 4.3054 
5 *1116:12 *1116:14 0.5974 
6 *1116:14 *5009:C 41.8437 
7 *1116:14 *5003:C 43.3475 
8 *1116:12 *5008:C 40.7519 
9 *1116:10 *5124:A1 40.7519 
10 *1116:8 *1116:54 20 
11 *1116:54 *5125:A1 20.7159 
12 *1116:54 *1116:71 6.2315 
13 *1116:71 *1116:79 42.1218 
14 *1116:79 *5126:A1 20 
15 *1116:71 *5127:B 20.5356 
16 *1116:6 *1116:97 30.8047 
17 *1116:97 *5042:A 20 
*END

*D_NET *1117 0.0108312
*CONN
*I *5045:A I *D sg13g2_nor2b_1
*I *5127:A I *D sg13g2_and3_1
*I *5008:B I *D sg13g2_and4_1
*I *5003:B I *D sg13g2_nand4_1
*I *5009:B I *D sg13g2_nand4_1
*I *5126:B1 I *D sg13g2_a21oi_1
*I *5565:Q O *D sg13g2_dfrbpq_1
*CAP
1 *5045:A 0.00086365
2 *5127:A 1.66931e-05
3 *5008:B 0.000469536
4 *5003:B 0
5 *5009:B 0.000427472
6 *5126:B1 4.90887e-05
7 *5565:Q 0
8 *1117:31 0.000487221
9 *1117:29 0.0011246
10 *1117:23 0.000773701
11 *1117:12 0.000972643
12 *1117:6 0.00162551
13 *5008:B *1118:33 0.000550838
14 *5008:B *1118:41 1.54008e-05
15 *5009:B *5003:A 4.78028e-05
16 *5009:B *1118:41 0
17 *5003:C *5008:B 0
18 *5003:C *5009:B 0.000242203
19 *5003:C *1117:31 4.77425e-05
20 *5004:A *1117:29 0.000447567
21 *5008:C *5008:B 0.000112689
22 *5009:C *5009:B 0.000112826
23 *5501:RESET_B *5045:A 0
24 *5561:CLK *5045:A 0
25 *281:12 *5009:B 0.000339623
26 *358:80 *5009:B 0
27 *358:80 *1117:29 0
28 *358:80 *1117:31 0
29 *661:59 *5126:B1 8.00842e-05
30 *661:59 *1117:12 0.000306925
31 *665:66 *5045:A 0
32 *666:30 *5045:A 0
33 *719:25 *5045:A 0
34 *719:25 *1117:12 0
35 *732:8 *5045:A 0.000106894
36 *732:8 *1117:12 0.000288588
37 *1008:23 *5008:B 0
38 *1008:23 *1117:29 0
39 *1114:31 *1117:29 0
40 *1115:16 *1117:12 0
41 *1115:16 *1117:23 0.000534684
42 *1115:16 *1117:29 0.000393611
43 *1115:18 *1117:29 0.000393653
*RES
1 *5565:Q *1117:6 40 
2 *1117:6 *1117:12 28.8271 
3 *1117:12 *5126:B1 20.5356 
4 *1117:12 *1117:23 22.575 
5 *1117:23 *1117:29 27.4378 
6 *1117:29 *1117:31 0.7519 
7 *1117:31 *5009:B 25.1912 
8 *1117:31 *5003:B 20 
9 *1117:29 *5008:B 25.5208 
10 *1117:23 *5127:A 40.2112 
11 *1117:6 *5045:A 48.6417 
*END

*D_NET *1118 0.00881395
*CONN
*I *5048:A I *D sg13g2_nor2b_1
*I *5129:A I *D sg13g2_nor2_1
*I *5008:A I *D sg13g2_and4_1
*I *5009:A I *D sg13g2_nand4_1
*I *5003:A I *D sg13g2_nand4_1
*I *5567:Q O *D sg13g2_dfrbpq_1
*CAP
1 *5048:A 0.000805729
2 *5129:A 0
3 *5008:A 0
4 *5009:A 0
5 *5003:A 0.000150342
6 *5567:Q 0.000316471
7 *1118:41 0.000249307
8 *1118:33 0.000545419
9 *1118:18 0.00090666
10 *1118:14 0.00116041
11 *1118:6 0.0018224
12 *5003:D *5003:A 0.00018128
13 *5008:B *1118:33 0.000550838
14 *5008:B *1118:41 1.54008e-05
15 *5009:B *5003:A 4.78028e-05
16 *5009:B *1118:41 0
17 *5009:C *1118:41 0
18 *5009:D *1118:41 0
19 *5120:A1 *1118:18 0
20 *5561:RESET_B *5048:A 0.000339524
21 *5561:CLK *5048:A 0
22 *5565:CLK *5048:A 0
23 *5896:A *5048:A 0
24 *121:8 *1118:14 0
25 *123:8 *1118:14 0
26 *261:31 *5048:A 0
27 *281:12 *5003:A 0
28 *281:12 *1118:41 0
29 *284:8 *5003:A 0
30 *284:8 *1118:18 0
31 *348:10 *1118:41 0.000559867
32 *349:46 *1118:14 0.000234256
33 *358:80 *5003:A 0
34 *361:29 *1118:18 0
35 *364:18 *1118:14 0.000286447
36 *660:18 *5048:A 0
37 *662:38 *5048:A 0
38 *662:38 *1118:6 0
39 *1008:23 *1118:33 0.000561715
40 *1008:23 *1118:41 8.00842e-05
41 *1115:16 *1118:14 0
42 *1115:37 *1118:41 0
*RES
1 *5567:Q *1118:6 23.1312 
2 *1118:6 *1118:14 28.6829 
3 *1118:14 *1118:18 4.6247 
4 *1118:18 *5003:A 41.9055 
5 *1118:18 *1118:33 23.7801 
6 *1118:33 *1118:41 43.1106 
7 *1118:41 *5009:A 20 
8 *1118:33 *5008:A 20 
9 *1118:14 *5129:A 40 
10 *1118:6 *5048:A 28.9507 
*END

*D_NET *1119 0.0158776
*CONN
*I *5134:A1 I *D sg13g2_a21oi_1
*I *5133:A1 I *D sg13g2_o21ai_1
*I *5135:A1 I *D sg13g2_a21oi_1
*I *5141:D I *D sg13g2_nand4_1
*I *4996:B I *D sg13g2_nand2_1
*I *5155:D I *D sg13g2_nand4_1
*I *4998:D I *D sg13g2_nand4_1
*I *5051:A I *D sg13g2_nor2b_1
*I *5569:Q O *D sg13g2_dfrbpq_1
*CAP
1 *5134:A1 0
2 *5133:A1 4.53647e-05
3 *5135:A1 0
4 *5141:D 0
5 *4996:B 0
6 *5155:D 0
7 *4998:D 0.000421332
8 *5051:A 0
9 *5569:Q 0
10 *1119:105 0.000203764
11 *1119:90 0.000557233
12 *1119:74 0.000107792
13 *1119:58 0.00046852
14 *1119:50 0.000676322
15 *1119:35 0.000671595
16 *1119:33 0.000639779
17 *1119:23 0.000701349
18 *1119:14 0.00124081
19 *1119:8 0.00170893
20 *1119:6 0.000564394
21 *4998:D *4998:C 0.000792229
22 *5133:A1 *1120:8 0
23 *1119:14 *5054:A 0
24 *1119:23 *5054:A 0
25 *1119:33 *5054:A 0
26 *1119:33 *1120:26 0
27 *1119:35 *4998:C 4.77425e-05
28 *1119:58 *5155:C 0.000865478
29 *1119:58 *1120:10 0.000320354
30 *1119:58 *1120:12 0.00012816
31 *1119:74 *1120:16 0.000390334
32 *4997:C *1119:50 4.77425e-05
33 *5133:B1 *1119:105 0
34 *5134:A2 *1119:105 1.54556e-05
35 *5136:A *1119:50 3.23417e-05
36 *5136:D *1119:33 0
37 *5142:D *1119:33 0.00014491
38 *5569:CLK *1119:90 0.000181192
39 *5569:CLK *1119:105 0
40 *5571:D *1119:14 0
41 *125:10 *1119:90 0
42 *125:10 *1119:105 0
43 *270:14 *1119:50 0.000501045
44 *270:14 *1119:58 0.000715662
45 *270:14 *1119:74 0.000443366
46 *282:12 *1119:105 0
47 *348:10 *1119:105 0
48 *367:79 *5133:A1 1.54556e-05
49 *367:96 *5133:A1 3.23472e-05
50 *367:96 *1119:105 7.51285e-05
51 *369:10 *1119:14 0.00023464
52 *369:10 *1119:23 0
53 *370:8 *1119:33 0.00023464
54 *378:8 *1119:50 0
55 *608:23 *1119:14 4.78192e-05
56 *636:10 *1119:8 0.000288502
57 *636:20 *1119:8 0.000159511
58 *636:20 *1119:14 7.51285e-05
59 *636:20 *1119:23 4.77425e-05
60 *636:31 *4998:D 0.000792229
61 *636:31 *1119:23 0
62 *636:31 *1119:33 0.000226315
63 *636:31 *1119:35 6.46834e-05
64 *636:38 *1119:8 0.000502791
65 *636:38 *1119:90 0.00031935
66 *705:117 *1119:14 0
67 *723:10 *5133:A1 0
68 *723:10 *1119:90 0.00012816
69 *723:10 *1119:105 0
70 *1019:16 *1119:33 0
*RES
1 *5569:Q *1119:6 40 
2 *1119:6 *1119:8 4.3054 
3 *1119:8 *1119:14 31.4227 
4 *1119:14 *5051:A 20 
5 *1119:8 *1119:23 22.0497 
6 *1119:23 *1119:33 45.1912 
7 *1119:33 *1119:35 0.5356 
8 *1119:35 *4998:D 25.2942 
9 *1119:35 *1119:50 42.8634 
10 *1119:50 *1119:58 47.313 
11 *1119:58 *5155:D 20 
12 *1119:50 *4996:B 20 
13 *1119:33 *1119:74 42.0806 
14 *1119:74 *5141:D 20 
15 *1119:23 *5135:A1 20 
16 *1119:6 *1119:90 23.9449 
17 *1119:90 *5133:A1 20.5356 
18 *1119:90 *1119:105 42.369 
19 *1119:105 *5134:A1 20 
*END

*D_NET *1120 0.0152768
*CONN
*I *5155:C I *D sg13g2_nand4_1
*I *4996:A I *D sg13g2_nand2_1
*I *4998:C I *D sg13g2_nand4_1
*I *5141:C I *D sg13g2_nand4_1
*I *5135:B1 I *D sg13g2_a21oi_1
*I *5054:A I *D sg13g2_nor2b_1
*I *5571:Q O *D sg13g2_dfrbpq_1
*CAP
1 *5155:C 0.000458047
2 *4996:A 2.75384e-05
3 *4998:C 0.000612795
4 *5141:C 0.000160438
5 *5135:B1 2.77263e-05
6 *5054:A 0.00198743
7 *5571:Q 0.000731676
8 *1120:26 0.00246612
9 *1120:16 0.000782785
10 *1120:12 0.000928796
11 *1120:10 0.000231439
12 *1120:8 0.001249
13 *4998:B *4998:C 3.39354e-05
14 *4998:A *4998:C 0
15 *4998:D *4998:C 0.000792229
16 *5011:C *4998:C 0
17 *5055:B1 *5054:A 0
18 *5133:A1 *1120:8 0
19 *5136:A *4996:A 4.77425e-05
20 *5141:B *5141:C 4.77702e-05
21 *5141:B *1120:26 0
22 *5142:D *1120:26 0
23 *5156:A *5155:C 0
24 *5571:D *5054:A 0.000177273
25 *270:14 *5155:C 0
26 *270:14 *1120:12 0
27 *287:39 *4998:C 8.00842e-05
28 *367:79 *1120:8 0
29 *369:10 *5054:A 0.000242088
30 *373:8 *1120:16 0.000234329
31 *374:8 *1120:26 0
32 *383:10 *5155:C 0
33 *384:8 *5155:C 0
34 *608:23 *5054:A 0
35 *636:20 *5054:A 0
36 *636:42 *1120:8 0
37 *658:10 *5054:A 8.00842e-05
38 *658:75 *5054:A 0.000274709
39 *658:86 *5054:A 0
40 *662:44 *5054:A 0.00014514
41 *705:117 *5054:A 0
42 *705:117 *1120:26 0
43 *706:94 *5054:A 0
44 *723:10 *1120:8 0
45 *1017:70 *5155:C 0.000341949
46 *1017:70 *1120:10 0.000341949
47 *1017:70 *1120:12 0.000448012
48 *1017:70 *1120:16 5.30319e-05
49 *1017:78 *1120:16 0.000181301
50 *1090:12 *5054:A 0.000339294
51 *1119:14 *5054:A 0
52 *1119:23 *5054:A 0
53 *1119:33 *5054:A 0
54 *1119:33 *1120:26 0
55 *1119:35 *4998:C 4.77425e-05
56 *1119:58 *5155:C 0.000865478
57 *1119:58 *1120:10 0.000320354
58 *1119:58 *1120:12 0.00012816
59 *1119:74 *1120:16 0.000390334
*RES
1 *5571:Q *1120:8 47.2409 
2 *1120:8 *1120:10 1.5862 
3 *1120:10 *1120:12 2.0806 
4 *1120:12 *1120:16 22.575 
5 *1120:16 *1120:26 4.6865 
6 *1120:26 *5054:A 40.4146 
7 *1120:26 *5135:B1 20.3502 
8 *1120:16 *5141:C 21.8849 
9 *1120:12 *4998:C 46.6435 
10 *1120:10 *4996:A 40.3193 
11 *1120:8 *5155:C 45.7989 
*END

*D_NET *1121 0.00732455
*CONN
*I *5424:B I *D sg13g2_or4_1
*I *5412:A I *D sg13g2_nand3_1
*I *5427:C I *D sg13g2_nor4_1
*I *5425:C I *D sg13g2_nor3_1
*I *5432:A1 I *D sg13g2_o21ai_1
*I *5433:B I *D sg13g2_or3_1
*I *5430:B I *D sg13g2_nand2_1
*I *5769:Q O *D sg13g2_dfrbpq_1
*CAP
1 *5424:B 0
2 *5412:A 0.000209598
3 *5427:C 0.000160558
4 *5425:C 0.000235582
5 *5432:A1 0
6 *5433:B 0
7 *5430:B 7.32142e-05
8 *5769:Q 0.000211676
9 *1121:55 0.00057043
10 *1121:51 0.000766543
11 *1121:40 0.000407158
12 *1121:33 0.000186763
13 *1121:25 0.000580211
14 *1121:12 0.000585711
15 *1121:8 0.000355226
16 *5425:C *5427:A 0
17 *5427:C *5411:C 0.000177356
18 *5427:C *5427:A 0
19 *5427:C *1124:23 4.78685e-05
20 *1121:33 *5433:A 1.54008e-05
21 *1121:51 *5432:B1 0
22 *1121:51 *1122:25 0
23 *1121:55 *1122:25 0
24 *5412:B *5412:A 0
25 *5416:A *1121:25 0.000112651
26 *5416:B *1121:25 0
27 *5424:A *1121:8 1.54008e-05
28 *5426:A *5427:C 0.000242039
29 *5430:A *1121:25 0
30 *5430:A *1121:33 0
31 *5432:A2 *1121:40 1.54008e-05
32 *5432:A2 *1121:51 4.77425e-05
33 *5434:B1 *1121:12 0
34 *552:27 *1121:33 0
35 *553:8 *5425:C 0.00023775
36 *553:8 *1121:55 0.000237686
37 *556:8 *1121:25 0.000209714
38 *556:8 *1121:40 3.23965e-05
39 *556:8 *1121:51 0.000323185
40 *556:23 *1121:33 0
41 *561:8 *1121:12 0
42 *567:8 *1121:33 0.000235141
43 *680:79 *1121:8 0.000225786
44 *693:41 *5412:A 0
45 *693:41 *5430:B 0.000234726
46 *693:41 *1121:12 7.51285e-05
47 *693:47 *1121:8 0
48 *693:47 *1121:25 4.77425e-05
49 *714:19 *1121:12 0
50 *714:19 *1121:25 0
51 *719:43 *1121:25 0
52 *719:43 *1121:33 4.77425e-05
53 *719:43 *1121:51 0
54 *1004:116 *1121:25 0.000112108
55 *1012:72 *1121:12 0.000288917
*RES
1 *5769:Q *1121:8 22.4617 
2 *1121:8 *1121:12 21.8334 
3 *1121:12 *5430:B 41.0918 
4 *1121:12 *1121:25 23.7801 
5 *1121:25 *1121:33 42.1527 
6 *1121:33 *5433:B 20 
7 *1121:25 *1121:40 0.3193 
8 *1121:40 *5432:A1 20 
9 *1121:40 *1121:51 24.3466 
10 *1121:51 *1121:55 2.1527 
11 *1121:55 *5425:C 42.3999 
12 *1121:55 *5427:C 41.8334 
13 *1121:51 *5412:A 41.8334 
14 *1121:8 *5424:B 20 
*END

*D_NET *1122 0.00725281
*CONN
*I *5433:A I *D sg13g2_or3_1
*I *5427:B I *D sg13g2_nor4_1
*I *5435:A1 I *D sg13g2_o21ai_1
*I *5411:B I *D sg13g2_nor3_1
*I *5425:B I *D sg13g2_nor3_1
*I *5432:B1 I *D sg13g2_o21ai_1
*I *5771:Q O *D sg13g2_dfrbpq_1
*CAP
1 *5433:A 5.37171e-05
2 *5427:B 0.0004284
3 *5435:A1 0.000303758
4 *5411:B 0.000112338
5 *5425:B 0.000278791
6 *5432:B1 5.52301e-05
7 *5771:Q 0.000481982
8 *1122:29 0.000451945
9 *1122:27 0.000498873
10 *1122:25 0.000937154
11 *1122:12 0.000533656
12 *1122:10 0.000639671
13 *5411:B *5411:C 1.54008e-05
14 *5425:B *5425:A 0
15 *5425:B *1123:8 0
16 *5425:B *1123:47 0
17 *5427:B *5427:A 0.000386878
18 *5435:A1 *1123:47 0
19 *1122:27 *5427:A 0
20 *5412:B *5427:B 0
21 *5412:B *5435:A1 0
22 *5412:C *5427:B 0.000274452
23 *5428:B1 *5411:B 0
24 *5428:B1 *5425:B 0
25 *5432:A2 *5432:B1 4.77425e-05
26 *5435:A2 *5435:A1 1.54556e-05
27 *5436:A1 *5435:A1 0
28 *5439:A2 *1122:10 0
29 *5441:B1 *1122:10 0
30 *5771:D *5433:A 8.00842e-05
31 *228:10 *1122:10 0
32 *552:25 *1122:10 0.00127908
33 *552:25 *1122:12 0.000181192
34 *552:27 *1122:12 0.000181608
35 *557:12 *5435:A1 0
36 *562:8 *5425:B 0
37 *562:8 *1122:27 0
38 *562:8 *1122:29 0
39 *563:8 *5411:B 0
40 *563:8 *5427:B 0
41 *1121:33 *5433:A 1.54008e-05
42 *1121:51 *5432:B1 0
43 *1121:51 *1122:25 0
44 *1121:55 *1122:25 0
*RES
1 *5771:Q *1122:10 47.004 
2 *1122:10 *1122:12 1.5862 
3 *1122:12 *5432:B1 40.5356 
4 *1122:12 *1122:25 4.0994 
5 *1122:25 *1122:27 1.339 
6 *1122:27 *1122:29 0.5974 
7 *1122:29 *5425:B 42.3072 
8 *1122:29 *5411:B 40.9682 
9 *1122:27 *5435:A1 41.9406 
10 *1122:25 *5427:B 44.6968 
11 *1122:10 *5433:A 40.5356 
*END

*D_NET *1123 0.00361636
*CONN
*I *5435:B1 I *D sg13g2_o21ai_1
*I *5425:A I *D sg13g2_nor3_1
*I *5427:A I *D sg13g2_nor4_1
*I *5411:A I *D sg13g2_nor3_1
*I *5773:Q O *D sg13g2_dfrbpq_1
*CAP
1 *5435:B1 0
2 *5425:A 3.2594e-05
3 *5427:A 0.000414023
4 *5411:A 3.34444e-05
5 *5773:Q 0
6 *1123:47 0.000232413
7 *1123:12 0.000557557
8 *1123:8 0.000515962
9 *1123:4 0.000605691
10 *5425:B *5425:A 0
11 *5425:B *1123:8 0
12 *5425:B *1123:47 0
13 *5425:C *5427:A 0
14 *5426:A *5427:A 0.000274381
15 *5427:B *5427:A 0.000386878
16 *5427:C *5427:A 0
17 *5428:B1 *5411:A 4.77425e-05
18 *5428:B1 *1123:8 0
19 *5435:A1 *1123:47 0
20 *5435:A2 *1123:47 1.54556e-05
21 *5436:A1 *1123:8 0
22 *5436:A1 *1123:47 0
23 *227:8 *1123:47 0
24 *557:18 *1123:47 0
25 *562:8 *5427:A 0.000265904
26 *562:8 *1123:12 0.000234311
27 *649:25 *1123:47 0
28 *699:16 *5425:A 0
29 *699:16 *1123:8 0
30 *1122:27 *5427:A 0
*RES
1 *5773:Q *1123:4 20 
2 *1123:4 *1123:8 3.4814 
3 *1123:8 *1123:12 21.339 
4 *1123:12 *5411:A 40.3193 
5 *1123:12 *5427:A 44.5629 
6 *1123:8 *5425:A 20.3193 
7 *1123:4 *1123:47 42.3381 
8 *1123:47 *5435:B1 20 
*END

*D_NET *1124 0.00201796
*CONN
*I *5427:D I *D sg13g2_nor4_1
*I *5411:C I *D sg13g2_nor3_1
*I *5428:B2 I *D sg13g2_a221oi_1
*I *5767:Q O *D sg13g2_dfrbpq_1
*CAP
1 *5427:D 0
2 *5411:C 0.000228218
3 *5428:B2 0.000103875
4 *5767:Q 9.73174e-05
5 *1124:23 0.000582623
6 *1124:8 0.000555597
7 *5411:B *5411:C 1.54008e-05
8 *5427:C *5411:C 0.000177356
9 *5427:C *1124:23 4.78685e-05
10 *5428:B1 *5411:C 0
11 *5428:B1 *5428:B2 0
12 *5428:A2 *5411:C 0
13 *5428:A2 *1124:23 0
14 *554:6 *1124:23 0
15 *563:8 *5411:C 0
16 *1010:52 *5428:B2 0.000209703
*RES
1 *5767:Q *1124:8 40.8446 
2 *1124:8 *5428:B2 41.4008 
3 *1124:8 *1124:23 23.914 
4 *1124:23 *5411:C 22.5338 
5 *1124:23 *5427:D 20 
*END

*D_NET *1125 0.0027093
*CONN
*I *6004:A I *D sg13g2_dlygate4sd3_1
*I *5911:A I *D sg13g2_buf_1
*I *5809:Q O *D sg13g2_dfrbpq_1
*CAP
1 *6004:A 0
2 *5911:A 0.000205185
3 *5809:Q 0.000307941
4 *1125:27 0.000317069
5 *1125:12 0.000522254
6 *1125:10 0.000307941
7 *5414:A *1125:10 0
8 *5414:A *1125:27 0
9 *5420:A *5911:A 8.00842e-05
10 *5420:A *1125:27 0.00033953
11 *5420:B *1125:27 0.000287343
12 *676:28 *5911:A 0
13 *676:28 *1125:10 0
14 *676:32 *1125:10 0.000341949
15 *719:43 *5911:A 0
16 *1044:22 *1125:10 0
*RES
1 *5809:Q *1125:10 43.4814 
2 *1125:10 *1125:12 20 
3 *1125:12 *5911:A 22.0497 
4 *1125:12 *1125:27 44.0994 
5 *1125:27 *6004:A 20 
*END

*D_NET *1126 0.00902405
*CONN
*I *5417:B I *D sg13g2_nor2_1
*I *5405:B I *D sg13g2_and2_1
*I *5419:A2 I *D sg13g2_a21oi_1
*I *5406:C I *D sg13g2_and3_1
*I *5407:D I *D sg13g2_and4_1
*I *5408:D I *D sg13g2_nand4_1
*I *5759:Q O *D sg13g2_dfrbpq_1
*CAP
1 *5417:B 0
2 *5405:B 0
3 *5419:A2 3.7009e-05
4 *5406:C 0.000141758
5 *5407:D 3.30268e-05
6 *5408:D 0.000175395
7 *5759:Q 0.00073114
8 *1126:50 0.000274769
9 *1126:46 0.00029657
10 *1126:42 0.000445172
11 *1126:18 0.000464406
12 *1126:12 0.000500589
13 *1126:10 0.00073114
14 *5406:C *1127:25 4.77425e-05
15 *5406:C *1127:60 0
16 *5408:D *5408:B 0.000339728
17 *5408:D *1127:36 4.78356e-05
18 *5408:D *1127:42 0.000445441
19 *5408:D *1128:10 0.000104884
20 *1126:10 *5995:A 0
21 *1126:10 *1128:8 0
22 *1126:10 *1128:10 0
23 *1126:18 *1128:10 0.000554076
24 *1126:50 *1127:60 0
25 *5406:A *5406:C 4.78521e-05
26 *5418:A *1126:46 0.000178621
27 *5418:A *1126:50 0.000287776
28 *5418:D *1126:42 0
29 *5437:A *5407:D 4.78356e-05
30 *69:39 *5408:D 0
31 *222:10 *1126:18 0.00012816
32 *549:21 *1126:18 0.000181695
33 *559:8 *5406:C 0.000287672
34 *651:25 *1126:46 0
35 *676:59 *1126:46 0.000528474
36 *676:59 *1126:50 7.48178e-05
37 *926:8 *1126:10 0.00060844
38 *926:8 *1126:46 0
39 *936:8 *5406:C 0.000393736
40 *1009:24 *1126:18 0.000209615
41 *1009:24 *1126:42 9.72391e-05
42 *1010:12 *5408:D 0
43 *1052:16 *1126:18 0.000209505
44 *1052:16 *1126:42 0.000371932
*RES
1 *5759:Q *1126:10 49.0743 
2 *1126:10 *1126:12 20 
3 *1126:12 *1126:18 23.9758 
4 *1126:18 *5408:D 42.8943 
5 *1126:18 *5407:D 40.3193 
6 *1126:12 *1126:42 2.8325 
7 *1126:42 *1126:46 23.0694 
8 *1126:46 *1126:50 1.6583 
9 *1126:50 *5406:C 42.3999 
10 *1126:50 *5419:A2 40.3193 
11 *1126:46 *5405:B 40 
12 *1126:42 *5417:B 20 
*END

*D_NET *1127 0.00404895
*CONN
*I *5421:A1 I *D sg13g2_a21oi_1
*I *5408:C I *D sg13g2_nand4_1
*I *5407:C I *D sg13g2_and4_1
*I *5406:B I *D sg13g2_and3_1
*I *5419:B1 I *D sg13g2_a21oi_1
*I *5761:Q O *D sg13g2_dfrbpq_1
*CAP
1 *5421:A1 0
2 *5408:C 0
3 *5407:C 0
4 *5406:B 0
5 *5419:B1 0
6 *5761:Q 0.000252414
7 *1127:60 0.000254391
8 *1127:42 8.53186e-05
9 *1127:36 0.000253718
10 *1127:34 0.000615148
11 *1127:25 0.000182852
12 *1127:17 0.000473065
13 *1127:8 0.000350269
14 *1127:36 *5408:B 4.7803e-05
15 *1127:60 *5408:B 0
16 *1127:60 *1128:10 0
17 *5405:A *1127:8 0
18 *5406:A *1127:25 0
19 *5406:C *1127:25 4.77425e-05
20 *5406:C *1127:60 0
21 *5408:A *1127:36 0
22 *5408:D *1127:36 4.78356e-05
23 *5408:D *1127:42 0.000445441
24 *5437:A *1127:8 0
25 *69:39 *1127:8 0
26 *69:39 *1127:34 0
27 *69:39 *1127:36 0
28 *559:8 *1127:25 0.00023464
29 *676:36 *1127:25 0
30 *676:36 *1127:60 0.00012816
31 *676:49 *1127:60 0.000181608
32 *676:51 *1127:17 0
33 *676:51 *1127:34 0
34 *676:59 *1127:60 0
35 *1010:12 *1127:42 0.000448547
36 *1126:50 *1127:60 0
*RES
1 *5761:Q *1127:8 22.3999 
2 *1127:8 *5419:B1 20 
3 *1127:8 *1127:17 1.1021 
4 *1127:17 *1127:25 42.0909 
5 *1127:25 *5406:B 20 
6 *1127:17 *1127:34 0.7052 
7 *1127:34 *1127:36 1.6171 
8 *1127:36 *1127:42 42.0806 
9 *1127:42 *5407:C 20 
10 *1127:36 *5408:C 20 
11 *1127:34 *1127:60 42.8943 
12 *1127:60 *5421:A1 20 
*END

*D_NET *1128 0.00337723
*CONN
*I *5995:A I *D sg13g2_dlygate4sd3_1
*I *5407:B I *D sg13g2_and4_1
*I *5408:B I *D sg13g2_nand4_1
*I *5763:Q O *D sg13g2_dfrbpq_1
*CAP
1 *5995:A 0.000143719
2 *5407:B 6.72489e-05
3 *5408:B 0.000146232
4 *5763:Q 0.000177665
5 *1128:10 0.000804331
6 *1128:8 0.000912234
7 *5407:A *5407:B 6.39133e-05
8 *5408:A *5408:B 1.54008e-05
9 *5408:D *5408:B 0.000339728
10 *5408:D *1128:10 0.000104884
11 *222:10 *1128:10 0
12 *676:49 *5408:B 0
13 *926:8 *1128:10 0
14 *1035:39 *1128:8 0
15 *1035:39 *1128:10 0
16 *1126:10 *5995:A 0
17 *1126:10 *1128:8 0
18 *1126:10 *1128:10 0
19 *1126:18 *1128:10 0.000554076
20 *1127:36 *5408:B 4.7803e-05
21 *1127:60 *5408:B 0
22 *1127:60 *1128:10 0
*RES
1 *5763:Q *1128:8 42.3278 
2 *1128:8 *1128:10 7.519 
3 *1128:10 *5408:B 41.9055 
4 *1128:10 *5407:B 40.6437 
5 *1128:8 *5995:A 41.4008 
*END

*D_NET *1129 0.000785249
*CONN
*I *5916:A I *D sg13g2_buf_1
*I *5765:Q O *D sg13g2_dfrbpq_1
*CAP
1 *5916:A 0.000248704
2 *5765:Q 0.000248704
3 *678:81 *5916:A 7.98619e-05
4 *678:85 *5916:A 0.000207978
5 *682:10 *5916:A 0
*RES
1 *5765:Q *5916:A 42.781 
*END

*D_NET *1130 0.00104909
*CONN
*I *5438:C I *D sg13g2_nand3_1
*I *5775:Q O *D sg13g2_dfrbpq_1
*CAP
1 *5438:C 0
2 *5775:Q 0.000235128
3 *1130:10 0.000235128
4 *5423:B *1130:10 0.000182525
5 *1014:29 *1130:10 0.000396312
*RES
1 *5775:Q *1130:10 43.2342 
2 *1130:10 *5438:C 40 
*END

*D_NET *1131 0.00135814
*CONN
*I *5443:B I *D sg13g2_nor4_1
*I *6024:A I *D sg13g2_dlygate4sd3_1
*I *5777:Q O *D sg13g2_dfrbpq_1
*CAP
1 *5443:B 0.000255149
2 *6024:A 0
3 *5777:Q 0
4 *1131:12 0.000328593
5 *1131:4 0.000583742
6 *5486:B1 *5443:B 0
7 *5486:A1 *1131:12 0
8 *5777:CLK *1131:12 0
9 *573:8 *5443:B 0
10 *680:12 *1131:12 0
11 *680:16 *5443:B 3.24568e-05
12 *680:20 *5443:B 3.1684e-05
13 *958:8 *1131:12 0.00012651
14 *1009:38 *5443:B 0
*RES
1 *5777:Q *1131:4 20 
2 *1131:4 *1131:12 42.8634 
3 *1131:12 *6024:A 20 
4 *1131:4 *5443:B 22.5287 
*END

*D_NET *1132 0.0029868
*CONN
*I *6019:A I *D sg13g2_dlygate4sd3_1
*I *5447:B I *D sg13g2_nor4_1
*I *5779:Q O *D sg13g2_dfrbpq_1
*CAP
1 *6019:A 6.59258e-05
2 *5447:B 0.000767838
3 *5779:Q 0.000340422
4 *1132:10 0.00117419
5 *5443:D *5447:B 0
6 *5444:B *5447:B 0
7 *5445:A *5447:B 0
8 *5445:A *1132:10 0
9 *5447:A *5447:B 0.000176902
10 *605:229 *5447:B 0
11 *605:229 *1132:10 0
12 *650:64 *5447:B 0
13 *681:12 *1132:10 0
14 *694:25 *6019:A 0
15 *694:25 *1132:10 0.000307287
16 *952:8 *5447:B 0
17 *1009:48 *5447:B 7.52158e-05
18 *1011:81 *5447:B 0
19 *1027:10 *5447:B 7.90195e-05
*RES
1 *5779:Q *1132:10 43.6359 
2 *1132:10 *5447:B 48.1473 
3 *1132:10 *6019:A 40.7519 
*END

*D_NET *1133 0.00256838
*CONN
*I *5450:B I *D sg13g2_nor4_1
*I *5446:A I *D sg13g2_nor2_1
*I *5781:Q O *D sg13g2_dfrbpq_1
*CAP
1 *5450:B 0.000368287
2 *5446:A 2.89347e-05
3 *5781:Q 0.000585211
4 *1133:8 0.000982433
5 *5450:B *1134:8 0
6 *1133:8 *1134:8 0
7 *5446:B *5446:A 0
8 *5448:A *1133:8 0
9 *5450:C *5450:B 4.79124e-05
10 *5781:D *5446:A 0
11 *69:20 *5450:B 0
12 *69:39 *5450:B 0
13 *577:10 *1133:8 0
14 *1004:50 *5446:A 4.79124e-05
15 *1009:56 *5450:B 0.000395068
16 *1009:56 *1133:8 0
17 *1011:81 *1133:8 0
18 *1027:24 *5450:B 0.000112618
*RES
1 *5781:Q *1133:8 47.2718 
2 *1133:8 *5446:A 40.3193 
3 *1133:8 *5450:B 44.3513 
*END

*D_NET *1134 0.0019077
*CONN
*I *5449:A I *D sg13g2_nor2_1
*I *5453:B I *D sg13g2_nor4_1
*I *5783:Q O *D sg13g2_dfrbpq_1
*CAP
1 *5449:A 0
2 *5453:B 0
3 *5783:Q 0.000334474
4 *1134:18 0.000311762
5 *1134:12 0.000475332
6 *1134:8 0.000498044
7 *5449:B *1134:12 0
8 *5450:B *1134:8 0
9 *69:20 *1134:12 0
10 *232:10 *1134:18 0
11 *578:8 *1134:18 0.000288087
12 *581:8 *1134:18 0
13 *1004:29 *1134:18 0
14 *1004:44 *1134:8 0
15 *1004:44 *1134:18 0
16 *1009:56 *1134:8 0
17 *1009:56 *1134:18 0
18 *1009:58 *1134:18 0
19 *1133:8 *1134:8 0
*RES
1 *5783:Q *1134:8 43.3166 
2 *1134:8 *1134:12 21.4008 
3 *1134:12 *1134:18 43.5638 
4 *1134:18 *5453:B 20 
5 *1134:12 *5449:A 20 
*END

*D_NET *1135 0.00164352
*CONN
*I *5452:A I *D sg13g2_nor2_1
*I *5456:B I *D sg13g2_nor4_1
*I *5785:Q O *D sg13g2_dfrbpq_1
*CAP
1 *5452:A 0
2 *5456:B 0
3 *5785:Q 0.000185847
4 *1135:22 9.40993e-05
5 *1135:14 0.000468643
6 *1135:8 0.00056039
7 *5454:D *1135:8 0
8 *5456:A *1135:22 3.8502e-05
9 *5456:C *1135:22 4.77425e-05
10 *614:10 *1135:22 0.000126047
11 *680:55 *1135:22 1.54008e-05
12 *693:55 *1135:14 0
13 *1004:18 *1135:8 0
14 *1009:75 *1135:14 0
15 *1027:49 *1135:22 7.45103e-05
16 *1027:64 *1135:22 3.23417e-05
*RES
1 *5785:Q *1135:8 21.751 
2 *1135:8 *1135:14 44.429 
3 *1135:14 *1135:22 41.133 
4 *1135:22 *5456:B 20 
5 *1135:8 *5452:A 20 
*END

*D_NET *1136 0.000920123
*CONN
*I *5455:A I *D sg13g2_nor2_1
*I *5459:B I *D sg13g2_nor4_1
*I *5787:Q O *D sg13g2_dfrbpq_1
*CAP
1 *5455:A 0.000126402
2 *5459:B 0.000237761
3 *5787:Q 0.000364163
4 *5457:C *5455:A 0
5 *5457:C *5459:B 0
6 *5457:D *5459:B 9.62229e-05
7 *5459:C *5459:B 4.77866e-05
8 *5769:CLK *5455:A 0
9 *648:31 *5459:B 0
10 *693:47 *5455:A 0
11 *1004:116 *5455:A 0
12 *1011:46 *5459:B 0
13 *1011:61 *5459:B 0
14 *1027:49 *5459:B 4.77866e-05
*RES
1 *5787:Q *5459:B 42.4205 
2 *5787:Q *5455:A 41.4008 
*END
