*SPEF "ieee 1481-1999"
*DESIGN "boot_spi_macro"
*DATE "14:31:50 Saturday September 19, 2026"
*VENDOR "The OpenROAD Project"
*PROGRAM "OpenROAD"
*VERSION "dcf36133a369abc8f3c5e5738cd4d82e4903c0e0"
*DESIGN_FLOW "NAME_SCOPE LOCAL" "PIN_CAP NONE"
*DIVIDER /
*DELIMITER :
*BUS_DELIMITER []
*T_UNIT 1 NS
*C_UNIT 1 PF
*R_UNIT 1 OHM
*L_UNIT 1 HENRY

*NAME_MAP
*3 net
*4 boot_addr[10]
*5 boot_addr[11]
*6 boot_addr[12]
*7 boot_addr[13]
*8 boot_addr[14]
*9 boot_addr[15]
*10 boot_addr[16]
*11 boot_addr[17]
*12 boot_addr[18]
*13 boot_addr[19]
*14 net159
*15 boot_addr[20]
*16 boot_addr[21]
*17 boot_addr[22]
*18 boot_addr[23]
*19 boot_addr[24]
*20 boot_addr[25]
*21 boot_addr[26]
*22 boot_addr[27]
*23 boot_addr[28]
*24 boot_addr[29]
*25 boot_addr[2]
*26 boot_addr[30]
*27 boot_addr[31]
*28 boot_addr[3]
*29 boot_addr[4]
*30 boot_addr[5]
*31 boot_addr[6]
*32 boot_addr[7]
*33 boot_addr[8]
*34 boot_addr[9]
*35 boot_done
*36 boot_wdata[0]
*37 boot_wdata[10]
*38 boot_wdata[11]
*39 boot_wdata[12]
*40 boot_wdata[13]
*41 boot_wdata[14]
*42 boot_wdata[15]
*43 boot_wdata[16]
*44 boot_wdata[17]
*45 boot_wdata[18]
*46 boot_wdata[19]
*47 boot_wdata[1]
*48 boot_wdata[20]
*49 boot_wdata[21]
*50 boot_wdata[22]
*51 boot_wdata[23]
*52 boot_wdata[24]
*53 boot_wdata[25]
*54 boot_wdata[26]
*55 boot_wdata[27]
*56 boot_wdata[28]
*57 boot_wdata[29]
*58 boot_wdata[2]
*59 boot_wdata[30]
*60 boot_wdata[31]
*61 boot_wdata[3]
*62 boot_wdata[4]
*63 boot_wdata[5]
*64 boot_wdata[6]
*65 boot_wdata[7]
*66 boot_wdata[8]
*67 boot_wdata[9]
*68 boot_we
*69 clk_i
*70 cpu_rst_n
*71 rst_ni
*72 spi_cs_n
*73 spi_miso
*74 spi_mosi
*75 spi_sclk
*76 _0000_
*77 _0001_
*78 _0002_
*79 _0003_
*80 _0004_
*81 _0005_
*82 _0006_
*83 _0007_
*84 _0008_
*85 _0009_
*86 _0010_
*87 _0011_
*88 _0012_
*89 _0013_
*90 _0014_
*91 _0015_
*92 _0016_
*93 _0017_
*94 _0018_
*95 _0019_
*96 _0020_
*97 _0021_
*98 _0022_
*99 _0023_
*100 _0024_
*101 _0025_
*102 _0026_
*103 _0027_
*104 _0028_
*105 _0029_
*106 _0030_
*107 _0031_
*108 _0032_
*109 _0033_
*110 _0034_
*111 _0035_
*112 _0036_
*113 _0037_
*114 _0038_
*115 _0039_
*116 _0040_
*117 _0041_
*118 _0042_
*119 _0043_
*120 _0044_
*121 _0045_
*122 _0046_
*123 _0047_
*124 _0048_
*125 _0049_
*126 _0050_
*127 _0051_
*128 _0052_
*129 _0053_
*130 _0054_
*131 _0055_
*132 _0056_
*133 _0057_
*134 _0058_
*135 _0059_
*136 _0060_
*137 _0061_
*138 _0062_
*139 _0063_
*140 _0064_
*141 _0065_
*142 _0066_
*143 _0067_
*144 _0068_
*145 _0069_
*146 _0070_
*147 _0071_
*148 _0072_
*149 _0073_
*150 _0074_
*151 _0075_
*152 _0076_
*153 _0077_
*154 _0078_
*155 _0079_
*156 _0080_
*157 _0081_
*158 _0082_
*159 _0083_
*160 _0084_
*161 _0085_
*162 _0086_
*163 _0087_
*164 _0088_
*165 _0089_
*166 _0090_
*167 _0091_
*168 _0092_
*169 _0093_
*170 _0094_
*171 _0095_
*172 _0096_
*173 _0097_
*174 _0098_
*175 _0099_
*176 _0100_
*177 _0101_
*178 _0102_
*179 _0103_
*180 _0104_
*181 _0105_
*182 _0106_
*183 _0107_
*184 _0108_
*185 _0109_
*186 _0110_
*187 _0111_
*188 _0112_
*189 _0113_
*190 _0114_
*191 _0115_
*192 _0116_
*193 _0117_
*194 _0118_
*195 _0119_
*196 _0120_
*197 _0121_
*198 _0122_
*199 _0123_
*200 _0124_
*201 _0125_
*202 _0126_
*203 _0127_
*204 _0128_
*205 _0129_
*206 _0130_
*207 _0131_
*208 _0132_
*209 _0133_
*210 _0134_
*211 _0135_
*212 _0136_
*213 _0137_
*214 _0138_
*215 _0139_
*216 _0140_
*217 _0141_
*218 _0142_
*219 _0143_
*220 _0144_
*221 _0145_
*222 _0146_
*223 _0147_
*224 _0148_
*225 _0149_
*226 _0150_
*227 _0151_
*228 _0152_
*229 _0153_
*230 _0154_
*231 _0155_
*232 _0156_
*233 _0157_
*234 _0158_
*235 _0159_
*236 _0160_
*237 _0161_
*238 _0162_
*239 _0163_
*240 _0164_
*241 _0165_
*242 _0166_
*243 _0167_
*244 _0168_
*245 _0169_
*246 _0170_
*247 _0171_
*248 _0172_
*249 _0173_
*250 _0174_
*251 _0175_
*252 _0176_
*253 _0177_
*254 _0178_
*255 _0179_
*256 _0180_
*257 _0181_
*258 _0182_
*259 _0183_
*260 _0184_
*261 _0185_
*262 _0186_
*263 _0187_
*264 _0188_
*265 _0189_
*266 _0190_
*267 _0191_
*268 _0192_
*269 _0193_
*270 _0194_
*271 _0195_
*272 _0196_
*273 _0197_
*274 _0198_
*275 _0199_
*276 _0200_
*277 _0201_
*278 _0202_
*279 _0203_
*280 _0204_
*281 _0205_
*282 _0206_
*283 _0207_
*284 _0208_
*285 _0209_
*286 _0210_
*287 _0211_
*288 _0212_
*289 _0213_
*290 _0214_
*291 _0215_
*292 _0216_
*293 _0217_
*294 _0218_
*295 _0219_
*296 _0220_
*297 _0221_
*298 _0222_
*299 _0223_
*300 _0224_
*301 _0225_
*302 _0226_
*303 _0227_
*304 _0228_
*305 _0229_
*306 _0230_
*307 _0231_
*308 _0232_
*309 _0233_
*310 _0234_
*311 _0235_
*312 _0236_
*313 _0237_
*314 _0238_
*315 _0239_
*316 _0240_
*317 _0241_
*318 _0242_
*319 _0243_
*320 _0244_
*321 _0245_
*322 _0246_
*323 _0247_
*324 _0248_
*325 _0249_
*326 _0250_
*327 _0251_
*328 _0252_
*329 _0253_
*330 _0254_
*331 _0255_
*332 _0256_
*333 _0257_
*334 _0258_
*335 _0259_
*336 _0260_
*337 _0261_
*338 _0262_
*339 _0263_
*340 _0264_
*341 _0265_
*342 _0266_
*343 _0267_
*344 _0268_
*345 _0269_
*346 _0270_
*347 _0271_
*348 _0272_
*349 _0273_
*350 _0274_
*351 _0275_
*352 _0276_
*353 _0277_
*354 _0278_
*355 _0279_
*356 _0280_
*357 _0281_
*358 _0282_
*359 _0283_
*360 _0284_
*361 _0285_
*362 _0286_
*363 _0287_
*364 _0288_
*365 _0289_
*366 _0290_
*367 _0291_
*368 _0292_
*369 _0293_
*370 _0294_
*371 _0295_
*372 _0296_
*373 _0297_
*374 _0298_
*375 _0299_
*376 _0300_
*377 _0301_
*378 _0302_
*379 _0303_
*380 _0304_
*381 _0305_
*382 _0306_
*383 _0307_
*384 _0308_
*385 _0309_
*386 _0310_
*387 _0311_
*388 _0312_
*389 _0313_
*390 _0314_
*391 _0315_
*392 _0316_
*393 _0317_
*394 _0318_
*395 _0319_
*396 _0320_
*397 _0321_
*398 _0322_
*399 _0323_
*400 _0324_
*401 _0325_
*402 _0326_
*403 _0327_
*404 _0328_
*405 _0329_
*406 _0330_
*407 _0331_
*408 _0332_
*409 _0333_
*410 _0334_
*411 _0335_
*412 _0336_
*413 _0337_
*414 _0338_
*415 _0339_
*416 _0340_
*417 _0341_
*418 _0342_
*419 _0343_
*420 _0344_
*421 _0345_
*422 _0346_
*423 _0347_
*424 _0348_
*425 _0349_
*426 _0350_
*427 _0351_
*428 _0352_
*429 _0353_
*430 _0354_
*431 _0355_
*432 _0356_
*433 _0357_
*434 _0358_
*435 _0359_
*436 _0360_
*437 _0361_
*438 _0362_
*439 _0363_
*440 _0364_
*441 _0365_
*442 _0366_
*443 _0367_
*444 _0368_
*445 _0369_
*446 _0370_
*447 _0371_
*448 _0372_
*449 _0373_
*450 _0374_
*451 _0375_
*452 _0376_
*453 _0377_
*454 _0378_
*455 _0379_
*456 _0380_
*457 _0381_
*458 _0382_
*459 _0383_
*460 _0384_
*461 _0385_
*462 _0386_
*463 _0387_
*464 _0388_
*465 _0389_
*466 _0390_
*467 _0391_
*468 _0392_
*469 _0393_
*470 _0394_
*471 _0395_
*472 _0396_
*473 _0397_
*474 _0398_
*475 _0399_
*476 _0400_
*477 _0401_
*478 _0402_
*479 _0403_
*480 _0404_
*481 _0405_
*482 _0406_
*483 _0407_
*484 _0408_
*485 _0409_
*486 _0410_
*487 _0411_
*488 _0412_
*489 _0413_
*490 _0414_
*491 _0415_
*492 _0416_
*493 _0417_
*494 _0418_
*495 _0419_
*496 _0420_
*497 _0421_
*498 _0422_
*499 _0423_
*500 _0424_
*501 _0425_
*502 _0426_
*503 _0427_
*504 _0428_
*505 _0429_
*506 _0430_
*507 _0431_
*508 _0432_
*509 _0433_
*510 _0434_
*511 _0435_
*512 _0436_
*513 _0437_
*514 _0438_
*515 _0439_
*516 _0440_
*517 _0441_
*518 _0442_
*519 _0443_
*520 _0444_
*521 _0445_
*522 _0446_
*523 _0447_
*524 _0448_
*525 _0449_
*526 _0450_
*527 _0451_
*528 _0452_
*529 _0453_
*530 _0454_
*531 _0455_
*532 _0456_
*533 _0457_
*534 _0458_
*535 _0459_
*536 _0460_
*537 _0461_
*538 _0462_
*539 _0463_
*540 _0464_
*541 _0465_
*542 _0466_
*543 _0467_
*544 _0468_
*545 _0469_
*546 _0470_
*547 _0471_
*548 _0472_
*549 _0473_
*550 _0474_
*551 _0475_
*552 _0476_
*553 _0477_
*554 _0478_
*555 _0479_
*556 _0480_
*557 _0481_
*558 _0482_
*559 _0483_
*560 _0484_
*561 _0485_
*562 _0486_
*563 _0487_
*564 _0488_
*565 _0489_
*566 _0490_
*567 _0491_
*568 _0492_
*569 _0493_
*570 _0494_
*571 _0495_
*572 _0496_
*573 _0497_
*574 _0498_
*575 _0499_
*576 _0500_
*577 _0501_
*578 _0502_
*579 _0503_
*580 _0504_
*581 _0505_
*582 _0506_
*583 _0507_
*584 _0508_
*585 _0509_
*586 _0510_
*587 _0511_
*588 _0512_
*589 _0513_
*590 _0514_
*591 _0515_
*592 _0516_
*593 _0517_
*594 _0518_
*595 _0519_
*596 _0520_
*597 _0521_
*598 _0522_
*599 _0523_
*600 _0524_
*601 _0525_
*602 _0526_
*603 _0527_
*604 _0528_
*605 clknet_0_clk_i
*606 clknet_4_0_0_clk_i
*607 clknet_4_10_0_clk_i
*608 clknet_4_11_0_clk_i
*609 clknet_4_12_0_clk_i
*610 clknet_4_13_0_clk_i
*611 clknet_4_14_0_clk_i
*612 clknet_4_15_0_clk_i
*613 clknet_4_1_0_clk_i
*614 clknet_4_2_0_clk_i
*615 clknet_4_3_0_clk_i
*616 clknet_4_4_0_clk_i
*617 clknet_4_5_0_clk_i
*618 clknet_4_6_0_clk_i
*619 clknet_4_7_0_clk_i
*620 clknet_4_8_0_clk_i
*621 clknet_4_9_0_clk_i
*622 clknet_5_0__leaf_clk_i
*623 clknet_5_10__leaf_clk_i
*624 clknet_5_11__leaf_clk_i
*625 clknet_5_12__leaf_clk_i
*626 clknet_5_13__leaf_clk_i
*627 clknet_5_14__leaf_clk_i
*628 clknet_5_15__leaf_clk_i
*629 clknet_5_16__leaf_clk_i
*630 clknet_5_17__leaf_clk_i
*631 clknet_5_18__leaf_clk_i
*632 clknet_5_19__leaf_clk_i
*633 clknet_5_1__leaf_clk_i
*634 clknet_5_20__leaf_clk_i
*635 clknet_5_21__leaf_clk_i
*636 clknet_5_22__leaf_clk_i
*637 clknet_5_23__leaf_clk_i
*638 clknet_5_24__leaf_clk_i
*639 clknet_5_25__leaf_clk_i
*640 clknet_5_26__leaf_clk_i
*641 clknet_5_27__leaf_clk_i
*642 clknet_5_28__leaf_clk_i
*643 clknet_5_29__leaf_clk_i
*644 clknet_5_2__leaf_clk_i
*645 clknet_5_30__leaf_clk_i
*646 clknet_5_31__leaf_clk_i
*647 clknet_5_3__leaf_clk_i
*648 clknet_5_4__leaf_clk_i
*649 clknet_5_5__leaf_clk_i
*650 clknet_5_6__leaf_clk_i
*651 clknet_5_7__leaf_clk_i
*652 clknet_5_8__leaf_clk_i
*653 clknet_5_9__leaf_clk_i
*654 net1
*655 net10
*656 net100
*657 net101
*658 net102
*659 net103
*660 net104
*661 net105
*662 net106
*663 net107
*664 net108
*665 net109
*666 net11
*667 net110
*668 net111
*669 net112
*670 net113
*671 net114
*672 net115
*673 net116
*674 net117
*675 net118
*676 net119
*677 net12
*678 net120
*679 net121
*680 net122
*681 net123
*682 net124
*683 net125
*684 net126
*685 net127
*686 net128
*687 net129
*688 net13
*689 net130
*690 net131
*691 net132
*692 net133
*693 net134
*694 net135
*695 net136
*696 net137
*697 net138
*698 net139
*699 net14
*700 net140
*701 net141
*702 net142
*703 net143
*704 net144
*705 net145
*706 net146
*707 net147
*708 net148
*709 net149
*710 net15
*711 net150
*712 net151
*713 net152
*714 net153
*715 net154
*716 net155
*717 net156
*718 net157
*719 net158
*720 net16
*721 net160
*722 net161
*723 net162
*724 net163
*725 net164
*726 net165
*727 net166
*728 net167
*729 net168
*730 net169
*731 net17
*732 net170
*733 net171
*734 net172
*735 net173
*736 net174
*737 net175
*738 net176
*739 net177
*740 net178
*741 net179
*742 net18
*743 net180
*744 net181
*745 net182
*746 net183
*747 net184
*748 net185
*749 net186
*750 net187
*751 net188
*752 net189
*753 net19
*754 net190
*755 net191
*756 net192
*757 net193
*758 net194
*759 net195
*760 net196
*761 net197
*762 net198
*763 net199
*764 net2
*765 net20
*766 net200
*767 net201
*768 net202
*769 net203
*770 net204
*771 net205
*772 net206
*773 net207
*774 net208
*775 net209
*776 net21
*777 net210
*778 net211
*779 net212
*780 net213
*781 net214
*782 net215
*783 net216
*784 net217
*785 net218
*786 net219
*787 net22
*788 net220
*789 net221
*790 net222
*791 net223
*792 net224
*793 net225
*794 net226
*795 net227
*796 net228
*797 net229
*798 net23
*799 net230
*800 net231
*801 net232
*802 net233
*803 net234
*804 net235
*805 net236
*806 net237
*807 net238
*808 net239
*809 net24
*810 net240
*811 net241
*812 net242
*813 net243
*814 net244
*815 net245
*816 net246
*817 net247
*818 net248
*819 net249
*820 net25
*821 net250
*822 net251
*823 net252
*824 net253
*825 net254
*826 net255
*827 net256
*828 net257
*829 net258
*830 net259
*831 net26
*832 net260
*833 net261
*834 net262
*835 net263
*836 net264
*837 net265
*838 net266
*839 net267
*840 net268
*841 net269
*842 net27
*843 net270
*844 net271
*845 net272
*846 net273
*847 net274
*848 net275
*849 net276
*850 net277
*851 net278
*852 net279
*853 net28
*854 net280
*855 net281
*856 net282
*857 net283
*858 net284
*859 net285
*860 net286
*861 net287
*862 net288
*863 net289
*864 net29
*865 net290
*866 net291
*867 net292
*868 net293
*869 net294
*870 net295
*871 net296
*872 net297
*873 net298
*874 net299
*875 net3
*876 net30
*877 net300
*878 net301
*879 net302
*880 net303
*881 net304
*882 net305
*883 net306
*884 net307
*885 net308
*886 net309
*887 net31
*888 net310
*889 net311
*890 net312
*891 net313
*892 net314
*893 net315
*894 net316
*895 net317
*896 net318
*897 net319
*898 net32
*899 net320
*900 net321
*901 net322
*902 net323
*903 net324
*904 net325
*905 net326
*906 net327
*907 net328
*908 net329
*909 net33
*910 net330
*911 net331
*912 net332
*913 net333
*914 net334
*915 net335
*916 net336
*917 net337
*918 net338
*919 net339
*920 net34
*921 net340
*922 net341
*923 net342
*924 net343
*925 net344
*926 net345
*927 net346
*928 net347
*929 net348
*930 net349
*931 net35
*932 net350
*933 net351
*934 net352
*935 net353
*936 net354
*937 net355
*938 net356
*939 net357
*940 net358
*941 net359
*942 net36
*943 net360
*944 net361
*945 net362
*946 net363
*947 net364
*948 net365
*949 net366
*950 net367
*951 net368
*952 net369
*953 net37
*954 net370
*955 net371
*956 net372
*957 net373
*958 net374
*959 net375
*960 net376
*961 net377
*962 net378
*963 net379
*964 net38
*965 net39
*966 net4
*967 net40
*968 net41
*969 net42
*970 net43
*971 net44
*972 net45
*973 net46
*974 net47
*975 net48
*976 net49
*977 net5
*978 net50
*979 net51
*980 net52
*981 net53
*982 net54
*983 net55
*984 net56
*985 net57
*986 net58
*987 net59
*988 net6
*989 net60
*990 net61
*991 net62
*992 net63
*993 net64
*994 net65
*995 net66
*996 net67
*997 net68
*998 net69
*999 net7
*1000 net70
*1001 net71
*1002 net72
*1003 net73
*1004 net74
*1005 net75
*1006 net76
*1007 net77
*1008 net78
*1009 net79
*1010 net8
*1011 net80
*1012 net81
*1013 net82
*1014 net83
*1015 net84
*1016 net85
*1017 net86
*1018 net87
*1019 net88
*1020 net89
*1021 net9
*1022 net90
*1023 net91
*1024 net92
*1025 net93
*1026 net94
*1027 net95
*1028 net96
*1029 net97
*1030 net98
*1031 net99
*1032 spi_done
*1033 spi_rx\[0\]
*1034 spi_rx\[1\]
*1035 spi_rx\[2\]
*1036 spi_rx\[3\]
*1037 spi_rx\[4\]
*1038 spi_rx\[5\]
*1039 spi_rx\[6\]
*1040 spi_rx\[7\]
*1041 spi_start
*1042 spi_tx\[0\]
*1043 u_boot_ctrl\.byte_cnt\[0\]
*1044 u_boot_ctrl\.byte_cnt\[1\]
*1045 u_boot_ctrl\.state\[0\]
*1046 u_boot_ctrl\.state\[1\]
*1047 u_boot_ctrl\.state\[2\]
*1048 u_boot_ctrl\.state\[3\]
*1049 u_boot_ctrl\.state\[4\]
*1050 u_boot_ctrl\.state\[5\]
*1051 u_boot_ctrl\.state\[7\]
*1052 u_boot_ctrl\.state\[8\]
*1053 u_boot_ctrl\.state\[9\]
*1054 u_boot_ctrl\.word_asm\[0\]
*1055 u_boot_ctrl\.word_asm\[10\]
*1056 u_boot_ctrl\.word_asm\[11\]
*1057 u_boot_ctrl\.word_asm\[12\]
*1058 u_boot_ctrl\.word_asm\[13\]
*1059 u_boot_ctrl\.word_asm\[14\]
*1060 u_boot_ctrl\.word_asm\[15\]
*1061 u_boot_ctrl\.word_asm\[16\]
*1062 u_boot_ctrl\.word_asm\[17\]
*1063 u_boot_ctrl\.word_asm\[18\]
*1064 u_boot_ctrl\.word_asm\[19\]
*1065 u_boot_ctrl\.word_asm\[1\]
*1066 u_boot_ctrl\.word_asm\[20\]
*1067 u_boot_ctrl\.word_asm\[21\]
*1068 u_boot_ctrl\.word_asm\[22\]
*1069 u_boot_ctrl\.word_asm\[23\]
*1070 u_boot_ctrl\.word_asm\[24\]
*1071 u_boot_ctrl\.word_asm\[25\]
*1072 u_boot_ctrl\.word_asm\[26\]
*1073 u_boot_ctrl\.word_asm\[27\]
*1074 u_boot_ctrl\.word_asm\[28\]
*1075 u_boot_ctrl\.word_asm\[29\]
*1076 u_boot_ctrl\.word_asm\[2\]
*1077 u_boot_ctrl\.word_asm\[30\]
*1078 u_boot_ctrl\.word_asm\[31\]
*1079 u_boot_ctrl\.word_asm\[3\]
*1080 u_boot_ctrl\.word_asm\[4\]
*1081 u_boot_ctrl\.word_asm\[5\]
*1082 u_boot_ctrl\.word_asm\[6\]
*1083 u_boot_ctrl\.word_asm\[7\]
*1084 u_boot_ctrl\.word_asm\[8\]
*1085 u_boot_ctrl\.word_asm\[9\]
*1086 u_boot_ctrl\.word_cnt\[0\]
*1087 u_boot_ctrl\.word_cnt\[10\]
*1088 u_boot_ctrl\.word_cnt\[11\]
*1089 u_boot_ctrl\.word_cnt\[12\]
*1090 u_boot_ctrl\.word_cnt\[13\]
*1091 u_boot_ctrl\.word_cnt\[14\]
*1092 u_boot_ctrl\.word_cnt\[15\]
*1093 u_boot_ctrl\.word_cnt\[16\]
*1094 u_boot_ctrl\.word_cnt\[17\]
*1095 u_boot_ctrl\.word_cnt\[18\]
*1096 u_boot_ctrl\.word_cnt\[19\]
*1097 u_boot_ctrl\.word_cnt\[1\]
*1098 u_boot_ctrl\.word_cnt\[20\]
*1099 u_boot_ctrl\.word_cnt\[21\]
*1100 u_boot_ctrl\.word_cnt\[22\]
*1101 u_boot_ctrl\.word_cnt\[23\]
*1102 u_boot_ctrl\.word_cnt\[24\]
*1103 u_boot_ctrl\.word_cnt\[25\]
*1104 u_boot_ctrl\.word_cnt\[26\]
*1105 u_boot_ctrl\.word_cnt\[27\]
*1106 u_boot_ctrl\.word_cnt\[28\]
*1107 u_boot_ctrl\.word_cnt\[29\]
*1108 u_boot_ctrl\.word_cnt\[2\]
*1109 u_boot_ctrl\.word_cnt\[30\]
*1110 u_boot_ctrl\.word_cnt\[31\]
*1111 u_boot_ctrl\.word_cnt\[3\]
*1112 u_boot_ctrl\.word_cnt\[4\]
*1113 u_boot_ctrl\.word_cnt\[5\]
*1114 u_boot_ctrl\.word_cnt\[6\]
*1115 u_boot_ctrl\.word_cnt\[7\]
*1116 u_boot_ctrl\.word_cnt\[8\]
*1117 u_boot_ctrl\.word_cnt\[9\]
*1118 u_spi\.bit_cnt\[0\]
*1119 u_spi\.bit_cnt\[1\]
*1120 u_spi\.bit_cnt\[2\]
*1121 u_spi\.bit_cnt\[3\]
*1122 u_spi\.busy
*1123 u_spi\.div_cnt\[0\]
*1124 u_spi\.div_cnt\[1\]
*1125 u_spi\.div_cnt\[2\]
*1126 u_spi\.div_cnt\[3\]
*1127 u_spi\.tx_shift\[0\]
*1128 u_spi\.tx_shift\[1\]
*1129 u_spi\.tx_shift\[2\]
*1130 u_spi\.tx_shift\[3\]
*1131 u_spi\.tx_shift\[4\]
*1132 u_spi\.tx_shift\[5\]
*1133 u_spi\.tx_shift\[6\]
*1134 FILLER_0_0
*1135 FILLER_0_105
*1136 FILLER_0_112
*1137 FILLER_0_119
*1138 FILLER_0_126
*1139 FILLER_0_133
*1140 FILLER_0_14
*1141 FILLER_0_140
*1142 FILLER_0_144
*1143 FILLER_0_149
*1144 FILLER_0_156
*1145 FILLER_0_163
*1146 FILLER_0_170
*1147 FILLER_0_179
*1148 FILLER_0_185
*1149 FILLER_0_192
*1150 FILLER_0_199
*1151 FILLER_0_206
*1152 FILLER_0_21
*1153 FILLER_0_213
*1154 FILLER_0_219
*1155 FILLER_0_226
*1156 FILLER_0_230
*1157 FILLER_0_235
*1158 FILLER_0_242
*1159 FILLER_0_247
*1160 FILLER_0_254
*1161 FILLER_0_261
*1162 FILLER_0_268
*1163 FILLER_0_270
*1164 FILLER_0_275
*1165 FILLER_0_28
*1166 FILLER_0_282
*1167 FILLER_0_289
*1168 FILLER_0_295
*1169 FILLER_0_302
*1170 FILLER_0_309
*1171 FILLER_0_316
*1172 FILLER_0_323
*1173 FILLER_0_330
*1174 FILLER_0_337
*1175 FILLER_0_344
*1176 FILLER_0_35
*1177 FILLER_0_351
*1178 FILLER_0_358
*1179 FILLER_0_365
*1180 FILLER_0_372
*1181 FILLER_0_379
*1182 FILLER_0_386
*1183 FILLER_0_405
*1184 FILLER_0_412
*1185 FILLER_0_419
*1186 FILLER_0_42
*1187 FILLER_0_426
*1188 FILLER_0_430
*1189 FILLER_0_439
*1190 FILLER_0_446
*1191 FILLER_0_453
*1192 FILLER_0_460
*1193 FILLER_0_467
*1194 FILLER_0_474
*1195 FILLER_0_481
*1196 FILLER_0_488
*1197 FILLER_0_49
*1198 FILLER_0_495
*1199 FILLER_0_502
*1200 FILLER_0_56
*1201 FILLER_0_63
*1202 FILLER_0_7
*1203 FILLER_0_70
*1204 FILLER_0_77
*1205 FILLER_0_84
*1206 FILLER_0_91
*1207 FILLER_0_98
*1208 FILLER_10_0
*1209 FILLER_10_105
*1210 FILLER_10_112
*1211 FILLER_10_119
*1212 FILLER_10_126
*1213 FILLER_10_133
*1214 FILLER_10_14
*1215 FILLER_10_140
*1216 FILLER_10_147
*1217 FILLER_10_154
*1218 FILLER_10_161
*1219 FILLER_10_168
*1220 FILLER_10_175
*1221 FILLER_10_182
*1222 FILLER_10_189
*1223 FILLER_10_196
*1224 FILLER_10_203
*1225 FILLER_10_21
*1226 FILLER_10_210
*1227 FILLER_10_217
*1228 FILLER_10_224
*1229 FILLER_10_231
*1230 FILLER_10_238
*1231 FILLER_10_245
*1232 FILLER_10_262
*1233 FILLER_10_269
*1234 FILLER_10_273
*1235 FILLER_10_279
*1236 FILLER_10_28
*1237 FILLER_10_286
*1238 FILLER_10_293
*1239 FILLER_10_300
*1240 FILLER_10_307
*1241 FILLER_10_314
*1242 FILLER_10_321
*1243 FILLER_10_328
*1244 FILLER_10_335
*1245 FILLER_10_340
*1246 FILLER_10_344
*1247 FILLER_10_35
*1248 FILLER_10_368
*1249 FILLER_10_372
*1250 FILLER_10_377
*1251 FILLER_10_384
*1252 FILLER_10_391
*1253 FILLER_10_398
*1254 FILLER_10_402
*1255 FILLER_10_42
*1256 FILLER_10_436
*1257 FILLER_10_443
*1258 FILLER_10_447
*1259 FILLER_10_457
*1260 FILLER_10_459
*1261 FILLER_10_49
*1262 FILLER_10_56
*1263 FILLER_10_63
*1264 FILLER_10_7
*1265 FILLER_10_70
*1266 FILLER_10_77
*1267 FILLER_10_84
*1268 FILLER_10_91
*1269 FILLER_10_98
*1270 FILLER_11_0
*1271 FILLER_11_105
*1272 FILLER_11_112
*1273 FILLER_11_119
*1274 FILLER_11_126
*1275 FILLER_11_133
*1276 FILLER_11_14
*1277 FILLER_11_140
*1278 FILLER_11_147
*1279 FILLER_11_154
*1280 FILLER_11_161
*1281 FILLER_11_168
*1282 FILLER_11_175
*1283 FILLER_11_182
*1284 FILLER_11_189
*1285 FILLER_11_196
*1286 FILLER_11_203
*1287 FILLER_11_21
*1288 FILLER_11_210
*1289 FILLER_11_216
*1290 FILLER_11_223
*1291 FILLER_11_227
*1292 FILLER_11_233
*1293 FILLER_11_235
*1294 FILLER_11_263
*1295 FILLER_11_28
*1296 FILLER_11_297
*1297 FILLER_11_304
*1298 FILLER_11_311
*1299 FILLER_11_318
*1300 FILLER_11_325
*1301 FILLER_11_330
*1302 FILLER_11_337
*1303 FILLER_11_35
*1304 FILLER_11_391
*1305 FILLER_11_398
*1306 FILLER_11_400
*1307 FILLER_11_405
*1308 FILLER_11_415
*1309 FILLER_11_42
*1310 FILLER_11_422
*1311 FILLER_11_429
*1312 FILLER_11_436
*1313 FILLER_11_443
*1314 FILLER_11_447
*1315 FILLER_11_461
*1316 FILLER_11_474
*1317 FILLER_11_481
*1318 FILLER_11_489
*1319 FILLER_11_49
*1320 FILLER_11_496
*1321 FILLER_11_503
*1322 FILLER_11_505
*1323 FILLER_11_56
*1324 FILLER_11_63
*1325 FILLER_11_7
*1326 FILLER_11_70
*1327 FILLER_11_77
*1328 FILLER_11_84
*1329 FILLER_11_91
*1330 FILLER_11_98
*1331 FILLER_12_0
*1332 FILLER_12_105
*1333 FILLER_12_112
*1334 FILLER_12_119
*1335 FILLER_12_126
*1336 FILLER_12_133
*1337 FILLER_12_14
*1338 FILLER_12_140
*1339 FILLER_12_147
*1340 FILLER_12_154
*1341 FILLER_12_161
*1342 FILLER_12_168
*1343 FILLER_12_175
*1344 FILLER_12_182
*1345 FILLER_12_189
*1346 FILLER_12_196
*1347 FILLER_12_203
*1348 FILLER_12_21
*1349 FILLER_12_240
*1350 FILLER_12_246
*1351 FILLER_12_253
*1352 FILLER_12_264
*1353 FILLER_12_271
*1354 FILLER_12_273
*1355 FILLER_12_28
*1356 FILLER_12_284
*1357 FILLER_12_291
*1358 FILLER_12_35
*1359 FILLER_12_357
*1360 FILLER_12_362
*1361 FILLER_12_369
*1362 FILLER_12_376
*1363 FILLER_12_401
*1364 FILLER_12_403
*1365 FILLER_12_413
*1366 FILLER_12_415
*1367 FILLER_12_42
*1368 FILLER_12_421
*1369 FILLER_12_429
*1370 FILLER_12_436
*1371 FILLER_12_443
*1372 FILLER_12_479
*1373 FILLER_12_486
*1374 FILLER_12_49
*1375 FILLER_12_493
*1376 FILLER_12_500
*1377 FILLER_12_56
*1378 FILLER_12_63
*1379 FILLER_12_7
*1380 FILLER_12_70
*1381 FILLER_12_77
*1382 FILLER_12_84
*1383 FILLER_12_91
*1384 FILLER_12_98
*1385 FILLER_13_0
*1386 FILLER_13_105
*1387 FILLER_13_112
*1388 FILLER_13_119
*1389 FILLER_13_126
*1390 FILLER_13_133
*1391 FILLER_13_14
*1392 FILLER_13_140
*1393 FILLER_13_147
*1394 FILLER_13_154
*1395 FILLER_13_161
*1396 FILLER_13_168
*1397 FILLER_13_175
*1398 FILLER_13_182
*1399 FILLER_13_189
*1400 FILLER_13_196
*1401 FILLER_13_203
*1402 FILLER_13_21
*1403 FILLER_13_210
*1404 FILLER_13_217
*1405 FILLER_13_224
*1406 FILLER_13_231
*1407 FILLER_13_238
*1408 FILLER_13_245
*1409 FILLER_13_252
*1410 FILLER_13_259
*1411 FILLER_13_266
*1412 FILLER_13_273
*1413 FILLER_13_28
*1414 FILLER_13_280
*1415 FILLER_13_288
*1416 FILLER_13_301
*1417 FILLER_13_306
*1418 FILLER_13_313
*1419 FILLER_13_320
*1420 FILLER_13_327
*1421 FILLER_13_339
*1422 FILLER_13_346
*1423 FILLER_13_35
*1424 FILLER_13_353
*1425 FILLER_13_360
*1426 FILLER_13_367
*1427 FILLER_13_374
*1428 FILLER_13_376
*1429 FILLER_13_419
*1430 FILLER_13_42
*1431 FILLER_13_447
*1432 FILLER_13_454
*1433 FILLER_13_461
*1434 FILLER_13_468
*1435 FILLER_13_475
*1436 FILLER_13_49
*1437 FILLER_13_491
*1438 FILLER_13_56
*1439 FILLER_13_63
*1440 FILLER_13_7
*1441 FILLER_13_70
*1442 FILLER_13_77
*1443 FILLER_13_84
*1444 FILLER_13_91
*1445 FILLER_13_98
*1446 FILLER_14_0
*1447 FILLER_14_105
*1448 FILLER_14_112
*1449 FILLER_14_119
*1450 FILLER_14_126
*1451 FILLER_14_133
*1452 FILLER_14_14
*1453 FILLER_14_140
*1454 FILLER_14_147
*1455 FILLER_14_154
*1456 FILLER_14_161
*1457 FILLER_14_168
*1458 FILLER_14_175
*1459 FILLER_14_182
*1460 FILLER_14_189
*1461 FILLER_14_196
*1462 FILLER_14_203
*1463 FILLER_14_21
*1464 FILLER_14_210
*1465 FILLER_14_217
*1466 FILLER_14_224
*1467 FILLER_14_231
*1468 FILLER_14_238
*1469 FILLER_14_245
*1470 FILLER_14_274
*1471 FILLER_14_28
*1472 FILLER_14_281
*1473 FILLER_14_288
*1474 FILLER_14_295
*1475 FILLER_14_305
*1476 FILLER_14_312
*1477 FILLER_14_319
*1478 FILLER_14_326
*1479 FILLER_14_333
*1480 FILLER_14_346
*1481 FILLER_14_35
*1482 FILLER_14_353
*1483 FILLER_14_360
*1484 FILLER_14_367
*1485 FILLER_14_374
*1486 FILLER_14_385
*1487 FILLER_14_390
*1488 FILLER_14_394
*1489 FILLER_14_399
*1490 FILLER_14_42
*1491 FILLER_14_423
*1492 FILLER_14_430
*1493 FILLER_14_437
*1494 FILLER_14_441
*1495 FILLER_14_447
*1496 FILLER_14_454
*1497 FILLER_14_461
*1498 FILLER_14_465
*1499 FILLER_14_49
*1500 FILLER_14_56
*1501 FILLER_14_63
*1502 FILLER_14_7
*1503 FILLER_14_70
*1504 FILLER_14_77
*1505 FILLER_14_84
*1506 FILLER_14_91
*1507 FILLER_14_98
*1508 FILLER_15_0
*1509 FILLER_15_105
*1510 FILLER_15_112
*1511 FILLER_15_119
*1512 FILLER_15_126
*1513 FILLER_15_133
*1514 FILLER_15_14
*1515 FILLER_15_140
*1516 FILLER_15_147
*1517 FILLER_15_154
*1518 FILLER_15_161
*1519 FILLER_15_168
*1520 FILLER_15_175
*1521 FILLER_15_182
*1522 FILLER_15_189
*1523 FILLER_15_196
*1524 FILLER_15_203
*1525 FILLER_15_21
*1526 FILLER_15_210
*1527 FILLER_15_217
*1528 FILLER_15_224
*1529 FILLER_15_262
*1530 FILLER_15_269
*1531 FILLER_15_276
*1532 FILLER_15_28
*1533 FILLER_15_283
*1534 FILLER_15_308
*1535 FILLER_15_312
*1536 FILLER_15_318
*1537 FILLER_15_320
*1538 FILLER_15_330
*1539 FILLER_15_337
*1540 FILLER_15_344
*1541 FILLER_15_35
*1542 FILLER_15_357
*1543 FILLER_15_385
*1544 FILLER_15_392
*1545 FILLER_15_399
*1546 FILLER_15_406
*1547 FILLER_15_410
*1548 FILLER_15_417
*1549 FILLER_15_42
*1550 FILLER_15_424
*1551 FILLER_15_431
*1552 FILLER_15_472
*1553 FILLER_15_479
*1554 FILLER_15_481
*1555 FILLER_15_49
*1556 FILLER_15_499
*1557 FILLER_15_56
*1558 FILLER_15_63
*1559 FILLER_15_7
*1560 FILLER_15_70
*1561 FILLER_15_77
*1562 FILLER_15_84
*1563 FILLER_15_91
*1564 FILLER_15_98
*1565 FILLER_16_0
*1566 FILLER_16_105
*1567 FILLER_16_112
*1568 FILLER_16_119
*1569 FILLER_16_126
*1570 FILLER_16_133
*1571 FILLER_16_14
*1572 FILLER_16_140
*1573 FILLER_16_147
*1574 FILLER_16_154
*1575 FILLER_16_161
*1576 FILLER_16_168
*1577 FILLER_16_175
*1578 FILLER_16_182
*1579 FILLER_16_189
*1580 FILLER_16_196
*1581 FILLER_16_203
*1582 FILLER_16_21
*1583 FILLER_16_210
*1584 FILLER_16_217
*1585 FILLER_16_224
*1586 FILLER_16_228
*1587 FILLER_16_234
*1588 FILLER_16_241
*1589 FILLER_16_248
*1590 FILLER_16_254
*1591 FILLER_16_261
*1592 FILLER_16_263
*1593 FILLER_16_269
*1594 FILLER_16_276
*1595 FILLER_16_28
*1596 FILLER_16_283
*1597 FILLER_16_294
*1598 FILLER_16_308
*1599 FILLER_16_35
*1600 FILLER_16_359
*1601 FILLER_16_367
*1602 FILLER_16_374
*1603 FILLER_16_381
*1604 FILLER_16_388
*1605 FILLER_16_395
*1606 FILLER_16_42
*1607 FILLER_16_431
*1608 FILLER_16_438
*1609 FILLER_16_445
*1610 FILLER_16_449
*1611 FILLER_16_455
*1612 FILLER_16_462
*1613 FILLER_16_469
*1614 FILLER_16_473
*1615 FILLER_16_480
*1616 FILLER_16_484
*1617 FILLER_16_489
*1618 FILLER_16_49
*1619 FILLER_16_496
*1620 FILLER_16_56
*1621 FILLER_16_63
*1622 FILLER_16_7
*1623 FILLER_16_70
*1624 FILLER_16_77
*1625 FILLER_16_84
*1626 FILLER_16_91
*1627 FILLER_16_98
*1628 FILLER_17_0
*1629 FILLER_17_105
*1630 FILLER_17_112
*1631 FILLER_17_119
*1632 FILLER_17_126
*1633 FILLER_17_133
*1634 FILLER_17_14
*1635 FILLER_17_140
*1636 FILLER_17_147
*1637 FILLER_17_154
*1638 FILLER_17_161
*1639 FILLER_17_168
*1640 FILLER_17_175
*1641 FILLER_17_182
*1642 FILLER_17_189
*1643 FILLER_17_196
*1644 FILLER_17_203
*1645 FILLER_17_21
*1646 FILLER_17_210
*1647 FILLER_17_217
*1648 FILLER_17_224
*1649 FILLER_17_231
*1650 FILLER_17_233
*1651 FILLER_17_247
*1652 FILLER_17_254
*1653 FILLER_17_261
*1654 FILLER_17_268
*1655 FILLER_17_28
*1656 FILLER_17_310
*1657 FILLER_17_317
*1658 FILLER_17_324
*1659 FILLER_17_331
*1660 FILLER_17_338
*1661 FILLER_17_345
*1662 FILLER_17_349
*1663 FILLER_17_35
*1664 FILLER_17_366
*1665 FILLER_17_373
*1666 FILLER_17_380
*1667 FILLER_17_387
*1668 FILLER_17_394
*1669 FILLER_17_398
*1670 FILLER_17_404
*1671 FILLER_17_408
*1672 FILLER_17_413
*1673 FILLER_17_42
*1674 FILLER_17_420
*1675 FILLER_17_427
*1676 FILLER_17_434
*1677 FILLER_17_442
*1678 FILLER_17_449
*1679 FILLER_17_456
*1680 FILLER_17_463
*1681 FILLER_17_477
*1682 FILLER_17_49
*1683 FILLER_17_56
*1684 FILLER_17_63
*1685 FILLER_17_7
*1686 FILLER_17_70
*1687 FILLER_17_77
*1688 FILLER_17_84
*1689 FILLER_17_91
*1690 FILLER_17_98
*1691 FILLER_18_0
*1692 FILLER_18_105
*1693 FILLER_18_112
*1694 FILLER_18_119
*1695 FILLER_18_126
*1696 FILLER_18_133
*1697 FILLER_18_14
*1698 FILLER_18_140
*1699 FILLER_18_147
*1700 FILLER_18_154
*1701 FILLER_18_161
*1702 FILLER_18_168
*1703 FILLER_18_175
*1704 FILLER_18_182
*1705 FILLER_18_189
*1706 FILLER_18_196
*1707 FILLER_18_203
*1708 FILLER_18_21
*1709 FILLER_18_210
*1710 FILLER_18_217
*1711 FILLER_18_224
*1712 FILLER_18_228
*1713 FILLER_18_260
*1714 FILLER_18_267
*1715 FILLER_18_274
*1716 FILLER_18_279
*1717 FILLER_18_28
*1718 FILLER_18_286
*1719 FILLER_18_293
*1720 FILLER_18_302
*1721 FILLER_18_309
*1722 FILLER_18_316
*1723 FILLER_18_323
*1724 FILLER_18_330
*1725 FILLER_18_337
*1726 FILLER_18_346
*1727 FILLER_18_35
*1728 FILLER_18_352
*1729 FILLER_18_359
*1730 FILLER_18_366
*1731 FILLER_18_377
*1732 FILLER_18_388
*1733 FILLER_18_401
*1734 FILLER_18_408
*1735 FILLER_18_415
*1736 FILLER_18_42
*1737 FILLER_18_422
*1738 FILLER_18_429
*1739 FILLER_18_436
*1740 FILLER_18_447
*1741 FILLER_18_454
*1742 FILLER_18_465
*1743 FILLER_18_472
*1744 FILLER_18_479
*1745 FILLER_18_486
*1746 FILLER_18_49
*1747 FILLER_18_493
*1748 FILLER_18_500
*1749 FILLER_18_504
*1750 FILLER_18_56
*1751 FILLER_18_63
*1752 FILLER_18_7
*1753 FILLER_18_70
*1754 FILLER_18_77
*1755 FILLER_18_84
*1756 FILLER_18_91
*1757 FILLER_18_98
*1758 FILLER_19_0
*1759 FILLER_19_105
*1760 FILLER_19_112
*1761 FILLER_19_119
*1762 FILLER_19_126
*1763 FILLER_19_133
*1764 FILLER_19_14
*1765 FILLER_19_140
*1766 FILLER_19_147
*1767 FILLER_19_154
*1768 FILLER_19_161
*1769 FILLER_19_168
*1770 FILLER_19_175
*1771 FILLER_19_182
*1772 FILLER_19_189
*1773 FILLER_19_196
*1774 FILLER_19_203
*1775 FILLER_19_207
*1776 FILLER_19_21
*1777 FILLER_19_213
*1778 FILLER_19_220
*1779 FILLER_19_227
*1780 FILLER_19_236
*1781 FILLER_19_238
*1782 FILLER_19_248
*1783 FILLER_19_266
*1784 FILLER_19_273
*1785 FILLER_19_28
*1786 FILLER_19_280
*1787 FILLER_19_287
*1788 FILLER_19_294
*1789 FILLER_19_298
*1790 FILLER_19_308
*1791 FILLER_19_310
*1792 FILLER_19_35
*1793 FILLER_19_365
*1794 FILLER_19_372
*1795 FILLER_19_416
*1796 FILLER_19_42
*1797 FILLER_19_423
*1798 FILLER_19_430
*1799 FILLER_19_437
*1800 FILLER_19_466
*1801 FILLER_19_483
*1802 FILLER_19_489
*1803 FILLER_19_49
*1804 FILLER_19_496
*1805 FILLER_19_56
*1806 FILLER_19_63
*1807 FILLER_19_7
*1808 FILLER_19_70
*1809 FILLER_19_77
*1810 FILLER_19_84
*1811 FILLER_19_91
*1812 FILLER_19_98
*1813 FILLER_1_0
*1814 FILLER_1_105
*1815 FILLER_1_112
*1816 FILLER_1_119
*1817 FILLER_1_126
*1818 FILLER_1_133
*1819 FILLER_1_14
*1820 FILLER_1_140
*1821 FILLER_1_147
*1822 FILLER_1_154
*1823 FILLER_1_161
*1824 FILLER_1_168
*1825 FILLER_1_175
*1826 FILLER_1_182
*1827 FILLER_1_189
*1828 FILLER_1_196
*1829 FILLER_1_203
*1830 FILLER_1_21
*1831 FILLER_1_210
*1832 FILLER_1_217
*1833 FILLER_1_224
*1834 FILLER_1_231
*1835 FILLER_1_238
*1836 FILLER_1_245
*1837 FILLER_1_252
*1838 FILLER_1_259
*1839 FILLER_1_266
*1840 FILLER_1_273
*1841 FILLER_1_28
*1842 FILLER_1_280
*1843 FILLER_1_287
*1844 FILLER_1_294
*1845 FILLER_1_301
*1846 FILLER_1_329
*1847 FILLER_1_336
*1848 FILLER_1_343
*1849 FILLER_1_347
*1850 FILLER_1_35
*1851 FILLER_1_408
*1852 FILLER_1_42
*1853 FILLER_1_439
*1854 FILLER_1_473
*1855 FILLER_1_480
*1856 FILLER_1_487
*1857 FILLER_1_49
*1858 FILLER_1_494
*1859 FILLER_1_501
*1860 FILLER_1_505
*1861 FILLER_1_56
*1862 FILLER_1_63
*1863 FILLER_1_7
*1864 FILLER_1_70
*1865 FILLER_1_77
*1866 FILLER_1_84
*1867 FILLER_1_91
*1868 FILLER_1_98
*1869 FILLER_20_0
*1870 FILLER_20_105
*1871 FILLER_20_112
*1872 FILLER_20_119
*1873 FILLER_20_126
*1874 FILLER_20_133
*1875 FILLER_20_14
*1876 FILLER_20_140
*1877 FILLER_20_147
*1878 FILLER_20_154
*1879 FILLER_20_161
*1880 FILLER_20_168
*1881 FILLER_20_175
*1882 FILLER_20_182
*1883 FILLER_20_189
*1884 FILLER_20_196
*1885 FILLER_20_203
*1886 FILLER_20_21
*1887 FILLER_20_231
*1888 FILLER_20_233
*1889 FILLER_20_239
*1890 FILLER_20_246
*1891 FILLER_20_253
*1892 FILLER_20_263
*1893 FILLER_20_270
*1894 FILLER_20_277
*1895 FILLER_20_28
*1896 FILLER_20_284
*1897 FILLER_20_291
*1898 FILLER_20_298
*1899 FILLER_20_308
*1900 FILLER_20_325
*1901 FILLER_20_332
*1902 FILLER_20_339
*1903 FILLER_20_347
*1904 FILLER_20_35
*1905 FILLER_20_354
*1906 FILLER_20_361
*1907 FILLER_20_368
*1908 FILLER_20_375
*1909 FILLER_20_382
*1910 FILLER_20_389
*1911 FILLER_20_396
*1912 FILLER_20_403
*1913 FILLER_20_407
*1914 FILLER_20_42
*1915 FILLER_20_435
*1916 FILLER_20_450
*1917 FILLER_20_457
*1918 FILLER_20_464
*1919 FILLER_20_471
*1920 FILLER_20_478
*1921 FILLER_20_49
*1922 FILLER_20_56
*1923 FILLER_20_63
*1924 FILLER_20_7
*1925 FILLER_20_70
*1926 FILLER_20_77
*1927 FILLER_20_84
*1928 FILLER_20_91
*1929 FILLER_20_98
*1930 FILLER_21_0
*1931 FILLER_21_105
*1932 FILLER_21_112
*1933 FILLER_21_119
*1934 FILLER_21_126
*1935 FILLER_21_133
*1936 FILLER_21_14
*1937 FILLER_21_140
*1938 FILLER_21_147
*1939 FILLER_21_154
*1940 FILLER_21_161
*1941 FILLER_21_168
*1942 FILLER_21_175
*1943 FILLER_21_182
*1944 FILLER_21_189
*1945 FILLER_21_196
*1946 FILLER_21_203
*1947 FILLER_21_21
*1948 FILLER_21_210
*1949 FILLER_21_217
*1950 FILLER_21_224
*1951 FILLER_21_231
*1952 FILLER_21_238
*1953 FILLER_21_245
*1954 FILLER_21_252
*1955 FILLER_21_271
*1956 FILLER_21_278
*1957 FILLER_21_28
*1958 FILLER_21_285
*1959 FILLER_21_298
*1960 FILLER_21_305
*1961 FILLER_21_312
*1962 FILLER_21_320
*1963 FILLER_21_327
*1964 FILLER_21_334
*1965 FILLER_21_338
*1966 FILLER_21_349
*1967 FILLER_21_35
*1968 FILLER_21_356
*1969 FILLER_21_363
*1970 FILLER_21_370
*1971 FILLER_21_377
*1972 FILLER_21_379
*1973 FILLER_21_384
*1974 FILLER_21_391
*1975 FILLER_21_398
*1976 FILLER_21_405
*1977 FILLER_21_412
*1978 FILLER_21_417
*1979 FILLER_21_42
*1980 FILLER_21_424
*1981 FILLER_21_431
*1982 FILLER_21_438
*1983 FILLER_21_445
*1984 FILLER_21_449
*1985 FILLER_21_455
*1986 FILLER_21_462
*1987 FILLER_21_485
*1988 FILLER_21_49
*1989 FILLER_21_492
*1990 FILLER_21_499
*1991 FILLER_21_501
*1992 FILLER_21_56
*1993 FILLER_21_63
*1994 FILLER_21_7
*1995 FILLER_21_70
*1996 FILLER_21_77
*1997 FILLER_21_84
*1998 FILLER_21_91
*1999 FILLER_21_98
*2000 FILLER_22_102
*2001 FILLER_22_109
*2002 FILLER_22_11
*2003 FILLER_22_116
*2004 FILLER_22_123
*2005 FILLER_22_130
*2006 FILLER_22_137
*2007 FILLER_22_144
*2008 FILLER_22_151
*2009 FILLER_22_158
*2010 FILLER_22_165
*2011 FILLER_22_172
*2012 FILLER_22_179
*2013 FILLER_22_18
*2014 FILLER_22_186
*2015 FILLER_22_193
*2016 FILLER_22_200
*2017 FILLER_22_207
*2018 FILLER_22_214
*2019 FILLER_22_221
*2020 FILLER_22_242
*2021 FILLER_22_249
*2022 FILLER_22_25
*2023 FILLER_22_256
*2024 FILLER_22_260
*2025 FILLER_22_288
*2026 FILLER_22_319
*2027 FILLER_22_32
*2028 FILLER_22_326
*2029 FILLER_22_333
*2030 FILLER_22_340
*2031 FILLER_22_347
*2032 FILLER_22_379
*2033 FILLER_22_385
*2034 FILLER_22_39
*2035 FILLER_22_4
*2036 FILLER_22_412
*2037 FILLER_22_421
*2038 FILLER_22_428
*2039 FILLER_22_435
*2040 FILLER_22_442
*2041 FILLER_22_46
*2042 FILLER_22_461
*2043 FILLER_22_468
*2044 FILLER_22_479
*2045 FILLER_22_483
*2046 FILLER_22_489
*2047 FILLER_22_496
*2048 FILLER_22_53
*2049 FILLER_22_60
*2050 FILLER_22_67
*2051 FILLER_22_74
*2052 FILLER_22_81
*2053 FILLER_22_88
*2054 FILLER_22_95
*2055 FILLER_23_101
*2056 FILLER_23_108
*2057 FILLER_23_113
*2058 FILLER_23_122
*2059 FILLER_23_129
*2060 FILLER_23_136
*2061 FILLER_23_143
*2062 FILLER_23_15
*2063 FILLER_23_150
*2064 FILLER_23_157
*2065 FILLER_23_164
*2066 FILLER_23_171
*2067 FILLER_23_178
*2068 FILLER_23_185
*2069 FILLER_23_192
*2070 FILLER_23_199
*2071 FILLER_23_211
*2072 FILLER_23_218
*2073 FILLER_23_22
*2074 FILLER_23_225
*2075 FILLER_23_248
*2076 FILLER_23_255
*2077 FILLER_23_262
*2078 FILLER_23_270
*2079 FILLER_23_277
*2080 FILLER_23_284
*2081 FILLER_23_29
*2082 FILLER_23_308
*2083 FILLER_23_315
*2084 FILLER_23_322
*2085 FILLER_23_328
*2086 FILLER_23_335
*2087 FILLER_23_342
*2088 FILLER_23_346
*2089 FILLER_23_353
*2090 FILLER_23_36
*2091 FILLER_23_361
*2092 FILLER_23_368
*2093 FILLER_23_375
*2094 FILLER_23_408
*2095 FILLER_23_419
*2096 FILLER_23_43
*2097 FILLER_23_50
*2098 FILLER_23_62
*2099 FILLER_23_73
*2100 FILLER_23_8
*2101 FILLER_23_80
*2102 FILLER_23_87
*2103 FILLER_23_94
*2104 FILLER_24_0
*2105 FILLER_24_103
*2106 FILLER_24_131
*2107 FILLER_24_135
*2108 FILLER_24_14
*2109 FILLER_24_140
*2110 FILLER_24_142
*2111 FILLER_24_148
*2112 FILLER_24_155
*2113 FILLER_24_162
*2114 FILLER_24_169
*2115 FILLER_24_176
*2116 FILLER_24_183
*2117 FILLER_24_190
*2118 FILLER_24_197
*2119 FILLER_24_201
*2120 FILLER_24_21
*2121 FILLER_24_229
*2122 FILLER_24_236
*2123 FILLER_24_243
*2124 FILLER_24_250
*2125 FILLER_24_257
*2126 FILLER_24_264
*2127 FILLER_24_271
*2128 FILLER_24_278
*2129 FILLER_24_28
*2130 FILLER_24_285
*2131 FILLER_24_297
*2132 FILLER_24_304
*2133 FILLER_24_306
*2134 FILLER_24_346
*2135 FILLER_24_35
*2136 FILLER_24_356
*2137 FILLER_24_363
*2138 FILLER_24_370
*2139 FILLER_24_377
*2140 FILLER_24_384
*2141 FILLER_24_388
*2142 FILLER_24_416
*2143 FILLER_24_42
*2144 FILLER_24_423
*2145 FILLER_24_429
*2146 FILLER_24_436
*2147 FILLER_24_443
*2148 FILLER_24_447
*2149 FILLER_24_453
*2150 FILLER_24_457
*2151 FILLER_24_480
*2152 FILLER_24_487
*2153 FILLER_24_49
*2154 FILLER_24_7
*2155 FILLER_24_78
*2156 FILLER_24_85
*2157 FILLER_24_92
*2158 FILLER_24_99
*2159 FILLER_25_0
*2160 FILLER_25_102
*2161 FILLER_25_109
*2162 FILLER_25_113
*2163 FILLER_25_120
*2164 FILLER_25_127
*2165 FILLER_25_14
*2166 FILLER_25_158
*2167 FILLER_25_162
*2168 FILLER_25_191
*2169 FILLER_25_198
*2170 FILLER_25_205
*2171 FILLER_25_21
*2172 FILLER_25_212
*2173 FILLER_25_219
*2174 FILLER_25_226
*2175 FILLER_25_233
*2176 FILLER_25_240
*2177 FILLER_25_244
*2178 FILLER_25_250
*2179 FILLER_25_257
*2180 FILLER_25_263
*2181 FILLER_25_270
*2182 FILLER_25_277
*2183 FILLER_25_28
*2184 FILLER_25_284
*2185 FILLER_25_291
*2186 FILLER_25_300
*2187 FILLER_25_307
*2188 FILLER_25_314
*2189 FILLER_25_321
*2190 FILLER_25_328
*2191 FILLER_25_335
*2192 FILLER_25_342
*2193 FILLER_25_346
*2194 FILLER_25_35
*2195 FILLER_25_361
*2196 FILLER_25_372
*2197 FILLER_25_379
*2198 FILLER_25_386
*2199 FILLER_25_393
*2200 FILLER_25_397
*2201 FILLER_25_402
*2202 FILLER_25_407
*2203 FILLER_25_416
*2204 FILLER_25_42
*2205 FILLER_25_423
*2206 FILLER_25_430
*2207 FILLER_25_437
*2208 FILLER_25_444
*2209 FILLER_25_451
*2210 FILLER_25_458
*2211 FILLER_25_475
*2212 FILLER_25_49
*2213 FILLER_25_60
*2214 FILLER_25_67
*2215 FILLER_25_7
*2216 FILLER_25_74
*2217 FILLER_25_81
*2218 FILLER_25_88
*2219 FILLER_25_95
*2220 FILLER_26_0
*2221 FILLER_26_101
*2222 FILLER_26_108
*2223 FILLER_26_115
*2224 FILLER_26_122
*2225 FILLER_26_129
*2226 FILLER_26_136
*2227 FILLER_26_14
*2228 FILLER_26_143
*2229 FILLER_26_149
*2230 FILLER_26_156
*2231 FILLER_26_163
*2232 FILLER_26_167
*2233 FILLER_26_177
*2234 FILLER_26_184
*2235 FILLER_26_191
*2236 FILLER_26_198
*2237 FILLER_26_204
*2238 FILLER_26_21
*2239 FILLER_26_211
*2240 FILLER_26_218
*2241 FILLER_26_225
*2242 FILLER_26_233
*2243 FILLER_26_240
*2244 FILLER_26_242
*2245 FILLER_26_248
*2246 FILLER_26_28
*2247 FILLER_26_281
*2248 FILLER_26_288
*2249 FILLER_26_299
*2250 FILLER_26_306
*2251 FILLER_26_313
*2252 FILLER_26_320
*2253 FILLER_26_327
*2254 FILLER_26_334
*2255 FILLER_26_341
*2256 FILLER_26_345
*2257 FILLER_26_35
*2258 FILLER_26_353
*2259 FILLER_26_390
*2260 FILLER_26_42
*2261 FILLER_26_429
*2262 FILLER_26_436
*2263 FILLER_26_447
*2264 FILLER_26_454
*2265 FILLER_26_464
*2266 FILLER_26_471
*2267 FILLER_26_478
*2268 FILLER_26_489
*2269 FILLER_26_49
*2270 FILLER_26_496
*2271 FILLER_26_503
*2272 FILLER_26_505
*2273 FILLER_26_56
*2274 FILLER_26_63
*2275 FILLER_26_7
*2276 FILLER_26_70
*2277 FILLER_26_77
*2278 FILLER_26_84
*2279 FILLER_26_88
*2280 FILLER_26_94
*2281 FILLER_27_0
*2282 FILLER_27_112
*2283 FILLER_27_119
*2284 FILLER_27_124
*2285 FILLER_27_131
*2286 FILLER_27_138
*2287 FILLER_27_14
*2288 FILLER_27_145
*2289 FILLER_27_159
*2290 FILLER_27_166
*2291 FILLER_27_173
*2292 FILLER_27_180
*2293 FILLER_27_184
*2294 FILLER_27_21
*2295 FILLER_27_213
*2296 FILLER_27_220
*2297 FILLER_27_251
*2298 FILLER_27_259
*2299 FILLER_27_266
*2300 FILLER_27_273
*2301 FILLER_27_28
*2302 FILLER_27_280
*2303 FILLER_27_301
*2304 FILLER_27_330
*2305 FILLER_27_343
*2306 FILLER_27_35
*2307 FILLER_27_350
*2308 FILLER_27_354
*2309 FILLER_27_360
*2310 FILLER_27_367
*2311 FILLER_27_374
*2312 FILLER_27_381
*2313 FILLER_27_386
*2314 FILLER_27_393
*2315 FILLER_27_400
*2316 FILLER_27_411
*2317 FILLER_27_413
*2318 FILLER_27_418
*2319 FILLER_27_42
*2320 FILLER_27_425
*2321 FILLER_27_432
*2322 FILLER_27_465
*2323 FILLER_27_472
*2324 FILLER_27_474
*2325 FILLER_27_480
*2326 FILLER_27_487
*2327 FILLER_27_49
*2328 FILLER_27_494
*2329 FILLER_27_501
*2330 FILLER_27_56
*2331 FILLER_27_63
*2332 FILLER_27_7
*2333 FILLER_27_70
*2334 FILLER_27_74
*2335 FILLER_28_0
*2336 FILLER_28_105
*2337 FILLER_28_112
*2338 FILLER_28_114
*2339 FILLER_28_14
*2340 FILLER_28_142
*2341 FILLER_28_144
*2342 FILLER_28_177
*2343 FILLER_28_184
*2344 FILLER_28_197
*2345 FILLER_28_204
*2346 FILLER_28_21
*2347 FILLER_28_211
*2348 FILLER_28_218
*2349 FILLER_28_225
*2350 FILLER_28_233
*2351 FILLER_28_240
*2352 FILLER_28_247
*2353 FILLER_28_254
*2354 FILLER_28_261
*2355 FILLER_28_268
*2356 FILLER_28_275
*2357 FILLER_28_28
*2358 FILLER_28_282
*2359 FILLER_28_289
*2360 FILLER_28_296
*2361 FILLER_28_303
*2362 FILLER_28_307
*2363 FILLER_28_321
*2364 FILLER_28_328
*2365 FILLER_28_332
*2366 FILLER_28_338
*2367 FILLER_28_344
*2368 FILLER_28_348
*2369 FILLER_28_35
*2370 FILLER_28_363
*2371 FILLER_28_370
*2372 FILLER_28_377
*2373 FILLER_28_384
*2374 FILLER_28_391
*2375 FILLER_28_398
*2376 FILLER_28_405
*2377 FILLER_28_412
*2378 FILLER_28_419
*2379 FILLER_28_42
*2380 FILLER_28_426
*2381 FILLER_28_433
*2382 FILLER_28_440
*2383 FILLER_28_442
*2384 FILLER_28_447
*2385 FILLER_28_454
*2386 FILLER_28_461
*2387 FILLER_28_465
*2388 FILLER_28_476
*2389 FILLER_28_478
*2390 FILLER_28_49
*2391 FILLER_28_56
*2392 FILLER_28_63
*2393 FILLER_28_7
*2394 FILLER_28_70
*2395 FILLER_28_77
*2396 FILLER_28_84
*2397 FILLER_28_91
*2398 FILLER_28_98
*2399 FILLER_29_102
*2400 FILLER_29_109
*2401 FILLER_29_11
*2402 FILLER_29_116
*2403 FILLER_29_123
*2404 FILLER_29_130
*2405 FILLER_29_137
*2406 FILLER_29_144
*2407 FILLER_29_151
*2408 FILLER_29_158
*2409 FILLER_29_165
*2410 FILLER_29_172
*2411 FILLER_29_179
*2412 FILLER_29_18
*2413 FILLER_29_186
*2414 FILLER_29_193
*2415 FILLER_29_200
*2416 FILLER_29_207
*2417 FILLER_29_214
*2418 FILLER_29_218
*2419 FILLER_29_224
*2420 FILLER_29_231
*2421 FILLER_29_238
*2422 FILLER_29_245
*2423 FILLER_29_25
*2424 FILLER_29_251
*2425 FILLER_29_285
*2426 FILLER_29_302
*2427 FILLER_29_309
*2428 FILLER_29_316
*2429 FILLER_29_32
*2430 FILLER_29_323
*2431 FILLER_29_330
*2432 FILLER_29_337
*2433 FILLER_29_344
*2434 FILLER_29_351
*2435 FILLER_29_355
*2436 FILLER_29_360
*2437 FILLER_29_367
*2438 FILLER_29_374
*2439 FILLER_29_381
*2440 FILLER_29_387
*2441 FILLER_29_389
*2442 FILLER_29_39
*2443 FILLER_29_395
*2444 FILLER_29_4
*2445 FILLER_29_402
*2446 FILLER_29_404
*2447 FILLER_29_419
*2448 FILLER_29_426
*2449 FILLER_29_433
*2450 FILLER_29_440
*2451 FILLER_29_453
*2452 FILLER_29_46
*2453 FILLER_29_460
*2454 FILLER_29_467
*2455 FILLER_29_479
*2456 FILLER_29_483
*2457 FILLER_29_489
*2458 FILLER_29_496
*2459 FILLER_29_503
*2460 FILLER_29_505
*2461 FILLER_29_53
*2462 FILLER_29_60
*2463 FILLER_29_67
*2464 FILLER_29_74
*2465 FILLER_29_81
*2466 FILLER_29_88
*2467 FILLER_29_95
*2468 FILLER_2_0
*2469 FILLER_2_105
*2470 FILLER_2_112
*2471 FILLER_2_119
*2472 FILLER_2_126
*2473 FILLER_2_133
*2474 FILLER_2_14
*2475 FILLER_2_140
*2476 FILLER_2_147
*2477 FILLER_2_154
*2478 FILLER_2_161
*2479 FILLER_2_168
*2480 FILLER_2_175
*2481 FILLER_2_182
*2482 FILLER_2_189
*2483 FILLER_2_196
*2484 FILLER_2_203
*2485 FILLER_2_21
*2486 FILLER_2_210
*2487 FILLER_2_217
*2488 FILLER_2_224
*2489 FILLER_2_231
*2490 FILLER_2_238
*2491 FILLER_2_245
*2492 FILLER_2_252
*2493 FILLER_2_259
*2494 FILLER_2_266
*2495 FILLER_2_273
*2496 FILLER_2_28
*2497 FILLER_2_280
*2498 FILLER_2_287
*2499 FILLER_2_294
*2500 FILLER_2_315
*2501 FILLER_2_322
*2502 FILLER_2_329
*2503 FILLER_2_335
*2504 FILLER_2_342
*2505 FILLER_2_346
*2506 FILLER_2_35
*2507 FILLER_2_357
*2508 FILLER_2_363
*2509 FILLER_2_370
*2510 FILLER_2_377
*2511 FILLER_2_396
*2512 FILLER_2_403
*2513 FILLER_2_407
*2514 FILLER_2_42
*2515 FILLER_2_427
*2516 FILLER_2_434
*2517 FILLER_2_448
*2518 FILLER_2_450
*2519 FILLER_2_455
*2520 FILLER_2_462
*2521 FILLER_2_469
*2522 FILLER_2_476
*2523 FILLER_2_483
*2524 FILLER_2_49
*2525 FILLER_2_490
*2526 FILLER_2_497
*2527 FILLER_2_504
*2528 FILLER_2_56
*2529 FILLER_2_63
*2530 FILLER_2_7
*2531 FILLER_2_70
*2532 FILLER_2_77
*2533 FILLER_2_84
*2534 FILLER_2_91
*2535 FILLER_2_98
*2536 FILLER_30_0
*2537 FILLER_30_129
*2538 FILLER_30_136
*2539 FILLER_30_14
*2540 FILLER_30_157
*2541 FILLER_30_164
*2542 FILLER_30_171
*2543 FILLER_30_178
*2544 FILLER_30_183
*2545 FILLER_30_190
*2546 FILLER_30_197
*2547 FILLER_30_21
*2548 FILLER_30_233
*2549 FILLER_30_240
*2550 FILLER_30_247
*2551 FILLER_30_28
*2552 FILLER_30_281
*2553 FILLER_30_288
*2554 FILLER_30_292
*2555 FILLER_30_32
*2556 FILLER_30_324
*2557 FILLER_30_38
*2558 FILLER_30_407
*2559 FILLER_30_44
*2560 FILLER_30_459
*2561 FILLER_30_466
*2562 FILLER_30_493
*2563 FILLER_30_500
*2564 FILLER_30_51
*2565 FILLER_30_58
*2566 FILLER_30_65
*2567 FILLER_30_7
*2568 FILLER_30_72
*2569 FILLER_30_79
*2570 FILLER_30_86
*2571 FILLER_30_93
*2572 FILLER_31_105
*2573 FILLER_31_112
*2574 FILLER_31_116
*2575 FILLER_31_122
*2576 FILLER_31_129
*2577 FILLER_31_136
*2578 FILLER_31_16
*2579 FILLER_31_165
*2580 FILLER_31_169
*2581 FILLER_31_201
*2582 FILLER_31_208
*2583 FILLER_31_218
*2584 FILLER_31_224
*2585 FILLER_31_23
*2586 FILLER_31_231
*2587 FILLER_31_237
*2588 FILLER_31_244
*2589 FILLER_31_251
*2590 FILLER_31_258
*2591 FILLER_31_267
*2592 FILLER_31_27
*2593 FILLER_31_274
*2594 FILLER_31_281
*2595 FILLER_31_288
*2596 FILLER_31_295
*2597 FILLER_31_306
*2598 FILLER_31_313
*2599 FILLER_31_320
*2600 FILLER_31_327
*2601 FILLER_31_335
*2602 FILLER_31_342
*2603 FILLER_31_349
*2604 FILLER_31_356
*2605 FILLER_31_363
*2606 FILLER_31_370
*2607 FILLER_31_377
*2608 FILLER_31_388
*2609 FILLER_31_395
*2610 FILLER_31_399
*2611 FILLER_31_4
*2612 FILLER_31_425
*2613 FILLER_31_432
*2614 FILLER_31_439
*2615 FILLER_31_55
*2616 FILLER_31_63
*2617 FILLER_31_70
*2618 FILLER_31_74
*2619 FILLER_31_82
*2620 FILLER_31_89
*2621 FILLER_32_0
*2622 FILLER_32_108
*2623 FILLER_32_115
*2624 FILLER_32_122
*2625 FILLER_32_129
*2626 FILLER_32_136
*2627 FILLER_32_148
*2628 FILLER_32_155
*2629 FILLER_32_162
*2630 FILLER_32_169
*2631 FILLER_32_176
*2632 FILLER_32_182
*2633 FILLER_32_189
*2634 FILLER_32_196
*2635 FILLER_32_203
*2636 FILLER_32_210
*2637 FILLER_32_217
*2638 FILLER_32_224
*2639 FILLER_32_255
*2640 FILLER_32_269
*2641 FILLER_32_276
*2642 FILLER_32_283
*2643 FILLER_32_290
*2644 FILLER_32_297
*2645 FILLER_32_304
*2646 FILLER_32_311
*2647 FILLER_32_318
*2648 FILLER_32_32
*2649 FILLER_32_325
*2650 FILLER_32_332
*2651 FILLER_32_339
*2652 FILLER_32_346
*2653 FILLER_32_353
*2654 FILLER_32_36
*2655 FILLER_32_364
*2656 FILLER_32_371
*2657 FILLER_32_378
*2658 FILLER_32_385
*2659 FILLER_32_392
*2660 FILLER_32_394
*2661 FILLER_32_412
*2662 FILLER_32_419
*2663 FILLER_32_426
*2664 FILLER_32_433
*2665 FILLER_32_440
*2666 FILLER_32_444
*2667 FILLER_32_458
*2668 FILLER_32_46
*2669 FILLER_32_465
*2670 FILLER_32_472
*2671 FILLER_32_479
*2672 FILLER_32_483
*2673 FILLER_32_489
*2674 FILLER_32_496
*2675 FILLER_32_500
*2676 FILLER_32_88
*2677 FILLER_33_0
*2678 FILLER_33_105
*2679 FILLER_33_107
*2680 FILLER_33_114
*2681 FILLER_33_122
*2682 FILLER_33_13
*2683 FILLER_33_137
*2684 FILLER_33_144
*2685 FILLER_33_148
*2686 FILLER_33_154
*2687 FILLER_33_161
*2688 FILLER_33_165
*2689 FILLER_33_173
*2690 FILLER_33_185
*2691 FILLER_33_192
*2692 FILLER_33_199
*2693 FILLER_33_20
*2694 FILLER_33_207
*2695 FILLER_33_214
*2696 FILLER_33_221
*2697 FILLER_33_228
*2698 FILLER_33_235
*2699 FILLER_33_242
*2700 FILLER_33_249
*2701 FILLER_33_257
*2702 FILLER_33_264
*2703 FILLER_33_27
*2704 FILLER_33_271
*2705 FILLER_33_277
*2706 FILLER_33_283
*2707 FILLER_33_303
*2708 FILLER_33_310
*2709 FILLER_33_317
*2710 FILLER_33_324
*2711 FILLER_33_331
*2712 FILLER_33_338
*2713 FILLER_33_34
*2714 FILLER_33_345
*2715 FILLER_33_352
*2716 FILLER_33_356
*2717 FILLER_33_363
*2718 FILLER_33_370
*2719 FILLER_33_377
*2720 FILLER_33_379
*2721 FILLER_33_390
*2722 FILLER_33_396
*2723 FILLER_33_403
*2724 FILLER_33_41
*2725 FILLER_33_410
*2726 FILLER_33_416
*2727 FILLER_33_426
*2728 FILLER_33_446
*2729 FILLER_33_453
*2730 FILLER_33_460
*2731 FILLER_33_467
*2732 FILLER_33_474
*2733 FILLER_33_48
*2734 FILLER_33_480
*2735 FILLER_33_484
*2736 FILLER_33_489
*2737 FILLER_33_496
*2738 FILLER_33_500
*2739 FILLER_33_55
*2740 FILLER_33_62
*2741 FILLER_33_69
*2742 FILLER_33_7
*2743 FILLER_33_73
*2744 FILLER_33_77
*2745 FILLER_33_84
*2746 FILLER_33_91
*2747 FILLER_33_98
*2748 FILLER_34_104
*2749 FILLER_34_111
*2750 FILLER_34_118
*2751 FILLER_34_125
*2752 FILLER_34_132
*2753 FILLER_34_134
*2754 FILLER_34_160
*2755 FILLER_34_167
*2756 FILLER_34_174
*2757 FILLER_34_181
*2758 FILLER_34_193
*2759 FILLER_34_21
*2760 FILLER_34_224
*2761 FILLER_34_228
*2762 FILLER_34_264
*2763 FILLER_34_266
*2764 FILLER_34_28
*2765 FILLER_34_281
*2766 FILLER_34_283
*2767 FILLER_34_290
*2768 FILLER_34_318
*2769 FILLER_34_325
*2770 FILLER_34_332
*2771 FILLER_34_339
*2772 FILLER_34_346
*2773 FILLER_34_35
*2774 FILLER_34_353
*2775 FILLER_34_4
*2776 FILLER_34_42
*2777 FILLER_34_441
*2778 FILLER_34_443
*2779 FILLER_34_449
*2780 FILLER_34_456
*2781 FILLER_34_463
*2782 FILLER_34_465
*2783 FILLER_34_476
*2784 FILLER_34_478
*2785 FILLER_34_48
*2786 FILLER_34_55
*2787 FILLER_34_62
*2788 FILLER_34_66
*2789 FILLER_34_73
*2790 FILLER_34_83
*2791 FILLER_34_90
*2792 FILLER_34_97
*2793 FILLER_35_0
*2794 FILLER_35_106
*2795 FILLER_35_125
*2796 FILLER_35_132
*2797 FILLER_35_139
*2798 FILLER_35_146
*2799 FILLER_35_159
*2800 FILLER_35_166
*2801 FILLER_35_173
*2802 FILLER_35_180
*2803 FILLER_35_188
*2804 FILLER_35_195
*2805 FILLER_35_202
*2806 FILLER_35_209
*2807 FILLER_35_216
*2808 FILLER_35_223
*2809 FILLER_35_230
*2810 FILLER_35_234
*2811 FILLER_35_239
*2812 FILLER_35_246
*2813 FILLER_35_253
*2814 FILLER_35_260
*2815 FILLER_35_275
*2816 FILLER_35_282
*2817 FILLER_35_289
*2818 FILLER_35_291
*2819 FILLER_35_296
*2820 FILLER_35_303
*2821 FILLER_35_310
*2822 FILLER_35_317
*2823 FILLER_35_325
*2824 FILLER_35_332
*2825 FILLER_35_339
*2826 FILLER_35_34
*2827 FILLER_35_346
*2828 FILLER_35_353
*2829 FILLER_35_364
*2830 FILLER_35_371
*2831 FILLER_35_373
*2832 FILLER_35_38
*2833 FILLER_35_383
*2834 FILLER_35_390
*2835 FILLER_35_397
*2836 FILLER_35_404
*2837 FILLER_35_411
*2838 FILLER_35_415
*2839 FILLER_35_433
*2840 FILLER_35_435
*2841 FILLER_35_468
*2842 FILLER_35_475
*2843 FILLER_35_482
*2844 FILLER_35_489
*2845 FILLER_35_496
*2846 FILLER_35_500
*2847 FILLER_35_71
*2848 FILLER_35_78
*2849 FILLER_35_85
*2850 FILLER_35_87
*2851 FILLER_35_92
*2852 FILLER_35_99
*2853 FILLER_36_0
*2854 FILLER_36_11
*2855 FILLER_36_110
*2856 FILLER_36_127
*2857 FILLER_36_134
*2858 FILLER_36_138
*2859 FILLER_36_16
*2860 FILLER_36_173
*2861 FILLER_36_183
*2862 FILLER_36_190
*2863 FILLER_36_197
*2864 FILLER_36_210
*2865 FILLER_36_212
*2866 FILLER_36_217
*2867 FILLER_36_224
*2868 FILLER_36_23
*2869 FILLER_36_231
*2870 FILLER_36_238
*2871 FILLER_36_245
*2872 FILLER_36_252
*2873 FILLER_36_259
*2874 FILLER_36_261
*2875 FILLER_36_273
*2876 FILLER_36_280
*2877 FILLER_36_287
*2878 FILLER_36_294
*2879 FILLER_36_30
*2880 FILLER_36_301
*2881 FILLER_36_308
*2882 FILLER_36_315
*2883 FILLER_36_322
*2884 FILLER_36_329
*2885 FILLER_36_336
*2886 FILLER_36_343
*2887 FILLER_36_352
*2888 FILLER_36_359
*2889 FILLER_36_366
*2890 FILLER_36_37
*2891 FILLER_36_373
*2892 FILLER_36_377
*2893 FILLER_36_383
*2894 FILLER_36_388
*2895 FILLER_36_395
*2896 FILLER_36_402
*2897 FILLER_36_409
*2898 FILLER_36_416
*2899 FILLER_36_423
*2900 FILLER_36_430
*2901 FILLER_36_437
*2902 FILLER_36_441
*2903 FILLER_36_451
*2904 FILLER_36_467
*2905 FILLER_36_478
*2906 FILLER_36_489
*2907 FILLER_36_496
*2908 FILLER_36_500
*2909 FILLER_36_54
*2910 FILLER_36_61
*2911 FILLER_36_68
*2912 FILLER_36_7
*2913 FILLER_36_78
*2914 FILLER_36_82
*2915 FILLER_37_0
*2916 FILLER_37_106
*2917 FILLER_37_113
*2918 FILLER_37_120
*2919 FILLER_37_127
*2920 FILLER_37_134
*2921 FILLER_37_14
*2922 FILLER_37_141
*2923 FILLER_37_148
*2924 FILLER_37_156
*2925 FILLER_37_163
*2926 FILLER_37_167
*2927 FILLER_37_175
*2928 FILLER_37_182
*2929 FILLER_37_189
*2930 FILLER_37_196
*2931 FILLER_37_198
*2932 FILLER_37_207
*2933 FILLER_37_21
*2934 FILLER_37_235
*2935 FILLER_37_241
*2936 FILLER_37_248
*2937 FILLER_37_255
*2938 FILLER_37_262
*2939 FILLER_37_269
*2940 FILLER_37_28
*2941 FILLER_37_298
*2942 FILLER_37_305
*2943 FILLER_37_312
*2944 FILLER_37_319
*2945 FILLER_37_326
*2946 FILLER_37_333
*2947 FILLER_37_337
*2948 FILLER_37_356
*2949 FILLER_37_363
*2950 FILLER_37_370
*2951 FILLER_37_374
*2952 FILLER_37_39
*2953 FILLER_37_394
*2954 FILLER_37_401
*2955 FILLER_37_405
*2956 FILLER_37_417
*2957 FILLER_37_422
*2958 FILLER_37_429
*2959 FILLER_37_436
*2960 FILLER_37_443
*2961 FILLER_37_445
*2962 FILLER_37_450
*2963 FILLER_37_457
*2964 FILLER_37_467
*2965 FILLER_37_48
*2966 FILLER_37_55
*2967 FILLER_37_62
*2968 FILLER_37_66
*2969 FILLER_37_7
*2970 FILLER_37_71
*2971 FILLER_37_78
*2972 FILLER_37_85
*2973 FILLER_37_92
*2974 FILLER_37_99
*2975 FILLER_38_102
*2976 FILLER_38_109
*2977 FILLER_38_124
*2978 FILLER_38_131
*2979 FILLER_38_138
*2980 FILLER_38_145
*2981 FILLER_38_152
*2982 FILLER_38_159
*2983 FILLER_38_16
*2984 FILLER_38_166
*2985 FILLER_38_168
*2986 FILLER_38_172
*2987 FILLER_38_179
*2988 FILLER_38_186
*2989 FILLER_38_193
*2990 FILLER_38_201
*2991 FILLER_38_208
*2992 FILLER_38_215
*2993 FILLER_38_222
*2994 FILLER_38_229
*2995 FILLER_38_23
*2996 FILLER_38_231
*2997 FILLER_38_259
*2998 FILLER_38_264
*2999 FILLER_38_266
*3000 FILLER_38_274
*3001 FILLER_38_280
*3002 FILLER_38_287
*3003 FILLER_38_294
*3004 FILLER_38_307
*3005 FILLER_38_314
*3006 FILLER_38_321
*3007 FILLER_38_328
*3008 FILLER_38_335
*3009 FILLER_38_339
*3010 FILLER_38_368
*3011 FILLER_38_375
*3012 FILLER_38_4
*3013 FILLER_38_406
*3014 FILLER_38_440
*3015 FILLER_38_444
*3016 FILLER_38_455
*3017 FILLER_38_462
*3018 FILLER_38_464
*3019 FILLER_38_478
*3020 FILLER_38_485
*3021 FILLER_38_492
*3022 FILLER_38_499
*3023 FILLER_38_57
*3024 FILLER_38_64
*3025 FILLER_38_71
*3026 FILLER_38_88
*3027 FILLER_38_95
*3028 FILLER_39_0
*3029 FILLER_39_103
*3030 FILLER_39_110
*3031 FILLER_39_130
*3032 FILLER_39_136
*3033 FILLER_39_142
*3034 FILLER_39_149
*3035 FILLER_39_156
*3036 FILLER_39_160
*3037 FILLER_39_177
*3038 FILLER_39_208
*3039 FILLER_39_215
*3040 FILLER_39_222
*3041 FILLER_39_229
*3042 FILLER_39_236
*3043 FILLER_39_243
*3044 FILLER_39_250
*3045 FILLER_39_256
*3046 FILLER_39_263
*3047 FILLER_39_265
*3048 FILLER_39_273
*3049 FILLER_39_280
*3050 FILLER_39_287
*3051 FILLER_39_294
*3052 FILLER_39_298
*3053 FILLER_39_310
*3054 FILLER_39_32
*3055 FILLER_39_339
*3056 FILLER_39_346
*3057 FILLER_39_351
*3058 FILLER_39_358
*3059 FILLER_39_365
*3060 FILLER_39_372
*3061 FILLER_39_379
*3062 FILLER_39_386
*3063 FILLER_39_39
*3064 FILLER_39_390
*3065 FILLER_39_396
*3066 FILLER_39_398
*3067 FILLER_39_408
*3068 FILLER_39_419
*3069 FILLER_39_426
*3070 FILLER_39_433
*3071 FILLER_39_440
*3072 FILLER_39_444
*3073 FILLER_39_46
*3074 FILLER_39_490
*3075 FILLER_39_497
*3076 FILLER_39_504
*3077 FILLER_39_53
*3078 FILLER_39_60
*3079 FILLER_39_64
*3080 FILLER_39_80
*3081 FILLER_39_87
*3082 FILLER_39_95
*3083 FILLER_3_0
*3084 FILLER_3_105
*3085 FILLER_3_112
*3086 FILLER_3_119
*3087 FILLER_3_126
*3088 FILLER_3_133
*3089 FILLER_3_14
*3090 FILLER_3_140
*3091 FILLER_3_147
*3092 FILLER_3_154
*3093 FILLER_3_161
*3094 FILLER_3_168
*3095 FILLER_3_175
*3096 FILLER_3_182
*3097 FILLER_3_189
*3098 FILLER_3_196
*3099 FILLER_3_203
*3100 FILLER_3_21
*3101 FILLER_3_210
*3102 FILLER_3_217
*3103 FILLER_3_224
*3104 FILLER_3_231
*3105 FILLER_3_238
*3106 FILLER_3_245
*3107 FILLER_3_252
*3108 FILLER_3_259
*3109 FILLER_3_266
*3110 FILLER_3_273
*3111 FILLER_3_28
*3112 FILLER_3_280
*3113 FILLER_3_287
*3114 FILLER_3_294
*3115 FILLER_3_301
*3116 FILLER_3_308
*3117 FILLER_3_315
*3118 FILLER_3_322
*3119 FILLER_3_35
*3120 FILLER_3_353
*3121 FILLER_3_360
*3122 FILLER_3_367
*3123 FILLER_3_374
*3124 FILLER_3_381
*3125 FILLER_3_389
*3126 FILLER_3_396
*3127 FILLER_3_403
*3128 FILLER_3_410
*3129 FILLER_3_417
*3130 FILLER_3_42
*3131 FILLER_3_424
*3132 FILLER_3_431
*3133 FILLER_3_438
*3134 FILLER_3_445
*3135 FILLER_3_447
*3136 FILLER_3_452
*3137 FILLER_3_459
*3138 FILLER_3_466
*3139 FILLER_3_473
*3140 FILLER_3_480
*3141 FILLER_3_487
*3142 FILLER_3_49
*3143 FILLER_3_494
*3144 FILLER_3_501
*3145 FILLER_3_505
*3146 FILLER_3_56
*3147 FILLER_3_63
*3148 FILLER_3_7
*3149 FILLER_3_70
*3150 FILLER_3_77
*3151 FILLER_3_84
*3152 FILLER_3_91
*3153 FILLER_3_98
*3154 FILLER_40_112
*3155 FILLER_40_122
*3156 FILLER_40_126
*3157 FILLER_40_13
*3158 FILLER_40_132
*3159 FILLER_40_160
*3160 FILLER_40_167
*3161 FILLER_40_177
*3162 FILLER_40_184
*3163 FILLER_40_190
*3164 FILLER_40_197
*3165 FILLER_40_20
*3166 FILLER_40_204
*3167 FILLER_40_211
*3168 FILLER_40_218
*3169 FILLER_40_225
*3170 FILLER_40_232
*3171 FILLER_40_234
*3172 FILLER_40_239
*3173 FILLER_40_246
*3174 FILLER_40_253
*3175 FILLER_40_260
*3176 FILLER_40_27
*3177 FILLER_40_271
*3178 FILLER_40_278
*3179 FILLER_40_285
*3180 FILLER_40_292
*3181 FILLER_40_299
*3182 FILLER_40_313
*3183 FILLER_40_321
*3184 FILLER_40_328
*3185 FILLER_40_330
*3186 FILLER_40_335
*3187 FILLER_40_34
*3188 FILLER_40_342
*3189 FILLER_40_349
*3190 FILLER_40_356
*3191 FILLER_40_363
*3192 FILLER_40_370
*3193 FILLER_40_377
*3194 FILLER_40_384
*3195 FILLER_40_393
*3196 FILLER_40_4
*3197 FILLER_40_400
*3198 FILLER_40_407
*3199 FILLER_40_41
*3200 FILLER_40_418
*3201 FILLER_40_425
*3202 FILLER_40_43
*3203 FILLER_40_432
*3204 FILLER_40_439
*3205 FILLER_40_446
*3206 FILLER_40_454
*3207 FILLER_40_461
*3208 FILLER_40_468
*3209 FILLER_40_48
*3210 FILLER_40_55
*3211 FILLER_40_57
*3212 FILLER_40_66
*3213 FILLER_40_68
*3214 FILLER_40_73
*3215 FILLER_40_80
*3216 FILLER_40_87
*3217 FILLER_41_0
*3218 FILLER_41_104
*3219 FILLER_41_111
*3220 FILLER_41_118
*3221 FILLER_41_125
*3222 FILLER_41_132
*3223 FILLER_41_139
*3224 FILLER_41_14
*3225 FILLER_41_146
*3226 FILLER_41_153
*3227 FILLER_41_160
*3228 FILLER_41_167
*3229 FILLER_41_179
*3230 FILLER_41_186
*3231 FILLER_41_193
*3232 FILLER_41_200
*3233 FILLER_41_207
*3234 FILLER_41_21
*3235 FILLER_41_212
*3236 FILLER_41_219
*3237 FILLER_41_226
*3238 FILLER_41_257
*3239 FILLER_41_261
*3240 FILLER_41_28
*3241 FILLER_41_289
*3242 FILLER_41_293
*3243 FILLER_41_312
*3244 FILLER_41_319
*3245 FILLER_41_331
*3246 FILLER_41_333
*3247 FILLER_41_343
*3248 FILLER_41_35
*3249 FILLER_41_350
*3250 FILLER_41_362
*3251 FILLER_41_364
*3252 FILLER_41_370
*3253 FILLER_41_377
*3254 FILLER_41_379
*3255 FILLER_41_417
*3256 FILLER_41_424
*3257 FILLER_41_435
*3258 FILLER_41_442
*3259 FILLER_41_449
*3260 FILLER_41_456
*3261 FILLER_41_463
*3262 FILLER_41_470
*3263 FILLER_41_477
*3264 FILLER_41_484
*3265 FILLER_41_491
*3266 FILLER_41_66
*3267 FILLER_41_7
*3268 FILLER_41_70
*3269 FILLER_41_81
*3270 FILLER_41_90
*3271 FILLER_41_97
*3272 FILLER_42_0
*3273 FILLER_42_110
*3274 FILLER_42_117
*3275 FILLER_42_130
*3276 FILLER_42_137
*3277 FILLER_42_144
*3278 FILLER_42_151
*3279 FILLER_42_158
*3280 FILLER_42_165
*3281 FILLER_42_172
*3282 FILLER_42_179
*3283 FILLER_42_186
*3284 FILLER_42_193
*3285 FILLER_42_235
*3286 FILLER_42_242
*3287 FILLER_42_249
*3288 FILLER_42_256
*3289 FILLER_42_263
*3290 FILLER_42_270
*3291 FILLER_42_277
*3292 FILLER_42_287
*3293 FILLER_42_294
*3294 FILLER_42_301
*3295 FILLER_42_308
*3296 FILLER_42_315
*3297 FILLER_42_322
*3298 FILLER_42_36
*3299 FILLER_42_404
*3300 FILLER_42_411
*3301 FILLER_42_418
*3302 FILLER_42_420
*3303 FILLER_42_43
*3304 FILLER_42_457
*3305 FILLER_42_479
*3306 FILLER_42_483
*3307 FILLER_42_489
*3308 FILLER_42_496
*3309 FILLER_42_50
*3310 FILLER_42_57
*3311 FILLER_42_64
*3312 FILLER_42_71
*3313 FILLER_42_78
*3314 FILLER_42_85
*3315 FILLER_42_92
*3316 FILLER_42_99
*3317 FILLER_43_128
*3318 FILLER_43_135
*3319 FILLER_43_139
*3320 FILLER_43_147
*3321 FILLER_43_154
*3322 FILLER_43_156
*3323 FILLER_43_163
*3324 FILLER_43_170
*3325 FILLER_43_174
*3326 FILLER_43_187
*3327 FILLER_43_19
*3328 FILLER_43_194
*3329 FILLER_43_201
*3330 FILLER_43_208
*3331 FILLER_43_215
*3332 FILLER_43_225
*3333 FILLER_43_232
*3334 FILLER_43_238
*3335 FILLER_43_240
*3336 FILLER_43_245
*3337 FILLER_43_252
*3338 FILLER_43_259
*3339 FILLER_43_26
*3340 FILLER_43_263
*3341 FILLER_43_270
*3342 FILLER_43_275
*3343 FILLER_43_309
*3344 FILLER_43_316
*3345 FILLER_43_323
*3346 FILLER_43_33
*3347 FILLER_43_330
*3348 FILLER_43_338
*3349 FILLER_43_345
*3350 FILLER_43_352
*3351 FILLER_43_356
*3352 FILLER_43_365
*3353 FILLER_43_372
*3354 FILLER_43_380
*3355 FILLER_43_382
*3356 FILLER_43_395
*3357 FILLER_43_4
*3358 FILLER_43_40
*3359 FILLER_43_402
*3360 FILLER_43_408
*3361 FILLER_43_412
*3362 FILLER_43_418
*3363 FILLER_43_425
*3364 FILLER_43_432
*3365 FILLER_43_439
*3366 FILLER_43_443
*3367 FILLER_43_462
*3368 FILLER_43_464
*3369 FILLER_43_47
*3370 FILLER_43_474
*3371 FILLER_43_478
*3372 FILLER_43_64
*3373 FILLER_43_73
*3374 FILLER_43_8
*3375 FILLER_43_80
*3376 FILLER_43_84
*3377 FILLER_43_88
*3378 FILLER_43_95
*3379 FILLER_43_99
*3380 FILLER_44_0
*3381 FILLER_44_104
*3382 FILLER_44_111
*3383 FILLER_44_117
*3384 FILLER_44_124
*3385 FILLER_44_131
*3386 FILLER_44_138
*3387 FILLER_44_14
*3388 FILLER_44_145
*3389 FILLER_44_171
*3390 FILLER_44_175
*3391 FILLER_44_196
*3392 FILLER_44_200
*3393 FILLER_44_205
*3394 FILLER_44_21
*3395 FILLER_44_212
*3396 FILLER_44_219
*3397 FILLER_44_226
*3398 FILLER_44_263
*3399 FILLER_44_265
*3400 FILLER_44_28
*3401 FILLER_44_293
*3402 FILLER_44_295
*3403 FILLER_44_332
*3404 FILLER_44_339
*3405 FILLER_44_346
*3406 FILLER_44_35
*3407 FILLER_44_353
*3408 FILLER_44_360
*3409 FILLER_44_367
*3410 FILLER_44_37
*3411 FILLER_44_374
*3412 FILLER_44_380
*3413 FILLER_44_384
*3414 FILLER_44_391
*3415 FILLER_44_426
*3416 FILLER_44_433
*3417 FILLER_44_440
*3418 FILLER_44_442
*3419 FILLER_44_475
*3420 FILLER_44_482
*3421 FILLER_44_489
*3422 FILLER_44_496
*3423 FILLER_44_503
*3424 FILLER_44_505
*3425 FILLER_44_65
*3426 FILLER_44_69
*3427 FILLER_44_7
*3428 FILLER_44_97
*3429 FILLER_45_100
*3430 FILLER_45_107
*3431 FILLER_45_132
*3432 FILLER_45_139
*3433 FILLER_45_146
*3434 FILLER_45_153
*3435 FILLER_45_160
*3436 FILLER_45_166
*3437 FILLER_45_17
*3438 FILLER_45_170
*3439 FILLER_45_175
*3440 FILLER_45_182
*3441 FILLER_45_189
*3442 FILLER_45_228
*3443 FILLER_45_235
*3444 FILLER_45_24
*3445 FILLER_45_242
*3446 FILLER_45_249
*3447 FILLER_45_256
*3448 FILLER_45_263
*3449 FILLER_45_270
*3450 FILLER_45_277
*3451 FILLER_45_284
*3452 FILLER_45_291
*3453 FILLER_45_298
*3454 FILLER_45_308
*3455 FILLER_45_31
*3456 FILLER_45_314
*3457 FILLER_45_321
*3458 FILLER_45_328
*3459 FILLER_45_335
*3460 FILLER_45_347
*3461 FILLER_45_354
*3462 FILLER_45_361
*3463 FILLER_45_368
*3464 FILLER_45_38
*3465 FILLER_45_388
*3466 FILLER_45_4
*3467 FILLER_45_402
*3468 FILLER_45_42
*3469 FILLER_45_445
*3470 FILLER_45_452
*3471 FILLER_45_457
*3472 FILLER_45_464
*3473 FILLER_45_47
*3474 FILLER_45_471
*3475 FILLER_45_473
*3476 FILLER_45_484
*3477 FILLER_45_489
*3478 FILLER_45_496
*3479 FILLER_45_54
*3480 FILLER_45_61
*3481 FILLER_45_68
*3482 FILLER_45_79
*3483 FILLER_45_86
*3484 FILLER_45_93
*3485 FILLER_46_0
*3486 FILLER_46_112
*3487 FILLER_46_119
*3488 FILLER_46_126
*3489 FILLER_46_133
*3490 FILLER_46_140
*3491 FILLER_46_148
*3492 FILLER_46_155
*3493 FILLER_46_162
*3494 FILLER_46_169
*3495 FILLER_46_176
*3496 FILLER_46_183
*3497 FILLER_46_190
*3498 FILLER_46_197
*3499 FILLER_46_204
*3500 FILLER_46_211
*3501 FILLER_46_218
*3502 FILLER_46_229
*3503 FILLER_46_234
*3504 FILLER_46_240
*3505 FILLER_46_247
*3506 FILLER_46_254
*3507 FILLER_46_266
*3508 FILLER_46_273
*3509 FILLER_46_280
*3510 FILLER_46_287
*3511 FILLER_46_294
*3512 FILLER_46_296
*3513 FILLER_46_301
*3514 FILLER_46_308
*3515 FILLER_46_32
*3516 FILLER_46_355
*3517 FILLER_46_370
*3518 FILLER_46_39
*3519 FILLER_46_399
*3520 FILLER_46_411
*3521 FILLER_46_417
*3522 FILLER_46_424
*3523 FILLER_46_431
*3524 FILLER_46_433
*3525 FILLER_46_444
*3526 FILLER_46_45
*3527 FILLER_46_451
*3528 FILLER_46_458
*3529 FILLER_46_465
*3530 FILLER_46_472
*3531 FILLER_46_51
*3532 FILLER_46_73
*3533 FILLER_46_80
*3534 FILLER_46_87
*3535 FILLER_46_91
*3536 FILLER_47_0
*3537 FILLER_47_103
*3538 FILLER_47_110
*3539 FILLER_47_117
*3540 FILLER_47_124
*3541 FILLER_47_131
*3542 FILLER_47_138
*3543 FILLER_47_145
*3544 FILLER_47_15
*3545 FILLER_47_163
*3546 FILLER_47_170
*3547 FILLER_47_177
*3548 FILLER_47_195
*3549 FILLER_47_201
*3550 FILLER_47_208
*3551 FILLER_47_215
*3552 FILLER_47_22
*3553 FILLER_47_222
*3554 FILLER_47_251
*3555 FILLER_47_258
*3556 FILLER_47_268
*3557 FILLER_47_29
*3558 FILLER_47_309
*3559 FILLER_47_316
*3560 FILLER_47_323
*3561 FILLER_47_339
*3562 FILLER_47_346
*3563 FILLER_47_353
*3564 FILLER_47_36
*3565 FILLER_47_360
*3566 FILLER_47_367
*3567 FILLER_47_374
*3568 FILLER_47_376
*3569 FILLER_47_381
*3570 FILLER_47_388
*3571 FILLER_47_406
*3572 FILLER_47_421
*3573 FILLER_47_428
*3574 FILLER_47_435
*3575 FILLER_47_447
*3576 FILLER_47_451
*3577 FILLER_47_456
*3578 FILLER_47_46
*3579 FILLER_47_463
*3580 FILLER_47_470
*3581 FILLER_47_477
*3582 FILLER_47_484
*3583 FILLER_47_491
*3584 FILLER_47_498
*3585 FILLER_47_52
*3586 FILLER_47_59
*3587 FILLER_47_7
*3588 FILLER_47_71
*3589 FILLER_47_77
*3590 FILLER_47_84
*3591 FILLER_47_91
*3592 FILLER_47_95
*3593 FILLER_48_0
*3594 FILLER_48_105
*3595 FILLER_48_107
*3596 FILLER_48_120
*3597 FILLER_48_127
*3598 FILLER_48_133
*3599 FILLER_48_14
*3600 FILLER_48_140
*3601 FILLER_48_147
*3602 FILLER_48_154
*3603 FILLER_48_161
*3604 FILLER_48_165
*3605 FILLER_48_179
*3606 FILLER_48_186
*3607 FILLER_48_193
*3608 FILLER_48_200
*3609 FILLER_48_207
*3610 FILLER_48_21
*3611 FILLER_48_214
*3612 FILLER_48_221
*3613 FILLER_48_228
*3614 FILLER_48_235
*3615 FILLER_48_240
*3616 FILLER_48_247
*3617 FILLER_48_254
*3618 FILLER_48_28
*3619 FILLER_48_285
*3620 FILLER_48_291
*3621 FILLER_48_302
*3622 FILLER_48_309
*3623 FILLER_48_316
*3624 FILLER_48_323
*3625 FILLER_48_330
*3626 FILLER_48_337
*3627 FILLER_48_344
*3628 FILLER_48_35
*3629 FILLER_48_351
*3630 FILLER_48_358
*3631 FILLER_48_365
*3632 FILLER_48_372
*3633 FILLER_48_379
*3634 FILLER_48_386
*3635 FILLER_48_393
*3636 FILLER_48_400
*3637 FILLER_48_407
*3638 FILLER_48_42
*3639 FILLER_48_435
*3640 FILLER_48_442
*3641 FILLER_48_446
*3642 FILLER_48_474
*3643 FILLER_48_481
*3644 FILLER_48_488
*3645 FILLER_48_49
*3646 FILLER_48_495
*3647 FILLER_48_56
*3648 FILLER_48_7
*3649 FILLER_49_105
*3650 FILLER_49_112
*3651 FILLER_49_119
*3652 FILLER_49_127
*3653 FILLER_49_13
*3654 FILLER_49_134
*3655 FILLER_49_141
*3656 FILLER_49_148
*3657 FILLER_49_155
*3658 FILLER_49_162
*3659 FILLER_49_168
*3660 FILLER_49_175
*3661 FILLER_49_182
*3662 FILLER_49_189
*3663 FILLER_49_196
*3664 FILLER_49_20
*3665 FILLER_49_203
*3666 FILLER_49_210
*3667 FILLER_49_218
*3668 FILLER_49_225
*3669 FILLER_49_232
*3670 FILLER_49_236
*3671 FILLER_49_241
*3672 FILLER_49_248
*3673 FILLER_49_255
*3674 FILLER_49_26
*3675 FILLER_49_262
*3676 FILLER_49_267
*3677 FILLER_49_274
*3678 FILLER_49_281
*3679 FILLER_49_288
*3680 FILLER_49_295
*3681 FILLER_49_302
*3682 FILLER_49_309
*3683 FILLER_49_316
*3684 FILLER_49_323
*3685 FILLER_49_33
*3686 FILLER_49_330
*3687 FILLER_49_334
*3688 FILLER_49_338
*3689 FILLER_49_345
*3690 FILLER_49_352
*3691 FILLER_49_359
*3692 FILLER_49_366
*3693 FILLER_49_373
*3694 FILLER_49_380
*3695 FILLER_49_387
*3696 FILLER_49_394
*3697 FILLER_49_4
*3698 FILLER_49_40
*3699 FILLER_49_401
*3700 FILLER_49_408
*3701 FILLER_49_415
*3702 FILLER_49_422
*3703 FILLER_49_429
*3704 FILLER_49_436
*3705 FILLER_49_443
*3706 FILLER_49_450
*3707 FILLER_49_457
*3708 FILLER_49_464
*3709 FILLER_49_471
*3710 FILLER_49_473
*3711 FILLER_49_49
*3712 FILLER_49_56
*3713 FILLER_49_63
*3714 FILLER_49_70
*3715 FILLER_49_77
*3716 FILLER_49_84
*3717 FILLER_49_91
*3718 FILLER_49_98
*3719 FILLER_4_0
*3720 FILLER_4_105
*3721 FILLER_4_112
*3722 FILLER_4_119
*3723 FILLER_4_126
*3724 FILLER_4_133
*3725 FILLER_4_14
*3726 FILLER_4_140
*3727 FILLER_4_147
*3728 FILLER_4_154
*3729 FILLER_4_161
*3730 FILLER_4_168
*3731 FILLER_4_175
*3732 FILLER_4_182
*3733 FILLER_4_189
*3734 FILLER_4_196
*3735 FILLER_4_203
*3736 FILLER_4_21
*3737 FILLER_4_210
*3738 FILLER_4_217
*3739 FILLER_4_224
*3740 FILLER_4_231
*3741 FILLER_4_238
*3742 FILLER_4_245
*3743 FILLER_4_252
*3744 FILLER_4_256
*3745 FILLER_4_263
*3746 FILLER_4_270
*3747 FILLER_4_28
*3748 FILLER_4_282
*3749 FILLER_4_289
*3750 FILLER_4_296
*3751 FILLER_4_298
*3752 FILLER_4_304
*3753 FILLER_4_320
*3754 FILLER_4_326
*3755 FILLER_4_333
*3756 FILLER_4_35
*3757 FILLER_4_350
*3758 FILLER_4_357
*3759 FILLER_4_364
*3760 FILLER_4_371
*3761 FILLER_4_377
*3762 FILLER_4_384
*3763 FILLER_4_391
*3764 FILLER_4_398
*3765 FILLER_4_405
*3766 FILLER_4_412
*3767 FILLER_4_419
*3768 FILLER_4_42
*3769 FILLER_4_426
*3770 FILLER_4_438
*3771 FILLER_4_442
*3772 FILLER_4_452
*3773 FILLER_4_459
*3774 FILLER_4_461
*3775 FILLER_4_466
*3776 FILLER_4_470
*3777 FILLER_4_480
*3778 FILLER_4_487
*3779 FILLER_4_49
*3780 FILLER_4_494
*3781 FILLER_4_501
*3782 FILLER_4_505
*3783 FILLER_4_56
*3784 FILLER_4_63
*3785 FILLER_4_7
*3786 FILLER_4_70
*3787 FILLER_4_77
*3788 FILLER_4_84
*3789 FILLER_4_91
*3790 FILLER_4_98
*3791 FILLER_50_0
*3792 FILLER_50_105
*3793 FILLER_50_112
*3794 FILLER_50_119
*3795 FILLER_50_126
*3796 FILLER_50_133
*3797 FILLER_50_137
*3798 FILLER_50_152
*3799 FILLER_50_159
*3800 FILLER_50_166
*3801 FILLER_50_182
*3802 FILLER_50_184
*3803 FILLER_50_258
*3804 FILLER_50_274
*3805 FILLER_50_278
*3806 FILLER_50_293
*3807 FILLER_50_295
*3808 FILLER_50_301
*3809 FILLER_50_310
*3810 FILLER_50_317
*3811 FILLER_50_32
*3812 FILLER_50_324
*3813 FILLER_50_331
*3814 FILLER_50_338
*3815 FILLER_50_345
*3816 FILLER_50_352
*3817 FILLER_50_359
*3818 FILLER_50_366
*3819 FILLER_50_373
*3820 FILLER_50_380
*3821 FILLER_50_387
*3822 FILLER_50_39
*3823 FILLER_50_394
*3824 FILLER_50_401
*3825 FILLER_50_408
*3826 FILLER_50_415
*3827 FILLER_50_422
*3828 FILLER_50_429
*3829 FILLER_50_436
*3830 FILLER_50_443
*3831 FILLER_50_450
*3832 FILLER_50_457
*3833 FILLER_50_464
*3834 FILLER_50_471
*3835 FILLER_50_478
*3836 FILLER_50_489
*3837 FILLER_50_496
*3838 FILLER_50_503
*3839 FILLER_50_505
*3840 FILLER_50_52
*3841 FILLER_50_59
*3842 FILLER_50_66
*3843 FILLER_50_73
*3844 FILLER_50_80
*3845 FILLER_50_87
*3846 FILLER_50_91
*3847 FILLER_50_98
*3848 FILLER_51_0
*3849 FILLER_51_105
*3850 FILLER_51_127
*3851 FILLER_51_131
*3852 FILLER_51_15
*3853 FILLER_51_160
*3854 FILLER_51_167
*3855 FILLER_51_174
*3856 FILLER_51_181
*3857 FILLER_51_188
*3858 FILLER_51_195
*3859 FILLER_51_202
*3860 FILLER_51_209
*3861 FILLER_51_216
*3862 FILLER_51_22
*3863 FILLER_51_223
*3864 FILLER_51_230
*3865 FILLER_51_237
*3866 FILLER_51_244
*3867 FILLER_51_251
*3868 FILLER_51_258
*3869 FILLER_51_265
*3870 FILLER_51_29
*3871 FILLER_51_324
*3872 FILLER_51_331
*3873 FILLER_51_338
*3874 FILLER_51_345
*3875 FILLER_51_352
*3876 FILLER_51_359
*3877 FILLER_51_36
*3878 FILLER_51_366
*3879 FILLER_51_373
*3880 FILLER_51_380
*3881 FILLER_51_387
*3882 FILLER_51_394
*3883 FILLER_51_401
*3884 FILLER_51_408
*3885 FILLER_51_415
*3886 FILLER_51_422
*3887 FILLER_51_429
*3888 FILLER_51_43
*3889 FILLER_51_436
*3890 FILLER_51_443
*3891 FILLER_51_450
*3892 FILLER_51_457
*3893 FILLER_51_464
*3894 FILLER_51_471
*3895 FILLER_51_478
*3896 FILLER_51_485
*3897 FILLER_51_492
*3898 FILLER_51_499
*3899 FILLER_51_7
*3900 FILLER_51_71
*3901 FILLER_51_80
*3902 FILLER_51_87
*3903 FILLER_51_98
*3904 FILLER_52_0
*3905 FILLER_52_106
*3906 FILLER_52_11
*3907 FILLER_52_110
*3908 FILLER_52_139
*3909 FILLER_52_146
*3910 FILLER_52_153
*3911 FILLER_52_160
*3912 FILLER_52_168
*3913 FILLER_52_17
*3914 FILLER_52_178
*3915 FILLER_52_185
*3916 FILLER_52_189
*3917 FILLER_52_195
*3918 FILLER_52_205
*3919 FILLER_52_212
*3920 FILLER_52_219
*3921 FILLER_52_226
*3922 FILLER_52_233
*3923 FILLER_52_24
*3924 FILLER_52_240
*3925 FILLER_52_247
*3926 FILLER_52_254
*3927 FILLER_52_261
*3928 FILLER_52_268
*3929 FILLER_52_276
*3930 FILLER_52_293
*3931 FILLER_52_31
*3932 FILLER_52_312
*3933 FILLER_52_319
*3934 FILLER_52_326
*3935 FILLER_52_333
*3936 FILLER_52_340
*3937 FILLER_52_347
*3938 FILLER_52_354
*3939 FILLER_52_361
*3940 FILLER_52_368
*3941 FILLER_52_375
*3942 FILLER_52_38
*3943 FILLER_52_382
*3944 FILLER_52_389
*3945 FILLER_52_396
*3946 FILLER_52_403
*3947 FILLER_52_410
*3948 FILLER_52_417
*3949 FILLER_52_424
*3950 FILLER_52_431
*3951 FILLER_52_438
*3952 FILLER_52_445
*3953 FILLER_52_452
*3954 FILLER_52_459
*3955 FILLER_52_466
*3956 FILLER_52_473
*3957 FILLER_52_480
*3958 FILLER_52_487
*3959 FILLER_52_494
*3960 FILLER_52_501
*3961 FILLER_52_505
*3962 FILLER_52_65
*3963 FILLER_52_7
*3964 FILLER_52_99
*3965 FILLER_53_0
*3966 FILLER_53_114
*3967 FILLER_53_116
*3968 FILLER_53_121
*3969 FILLER_53_128
*3970 FILLER_53_135
*3971 FILLER_53_142
*3972 FILLER_53_149
*3973 FILLER_53_156
*3974 FILLER_53_174
*3975 FILLER_53_181
*3976 FILLER_53_185
*3977 FILLER_53_208
*3978 FILLER_53_215
*3979 FILLER_53_222
*3980 FILLER_53_260
*3981 FILLER_53_267
*3982 FILLER_53_274
*3983 FILLER_53_276
*3984 FILLER_53_282
*3985 FILLER_53_289
*3986 FILLER_53_296
*3987 FILLER_53_303
*3988 FILLER_53_310
*3989 FILLER_53_314
*3990 FILLER_53_328
*3991 FILLER_53_335
*3992 FILLER_53_342
*3993 FILLER_53_349
*3994 FILLER_53_35
*3995 FILLER_53_356
*3996 FILLER_53_363
*3997 FILLER_53_370
*3998 FILLER_53_377
*3999 FILLER_53_384
*4000 FILLER_53_391
*4001 FILLER_53_398
*4002 FILLER_53_405
*4003 FILLER_53_412
*4004 FILLER_53_419
*4005 FILLER_53_42
*4006 FILLER_53_426
*4007 FILLER_53_433
*4008 FILLER_53_440
*4009 FILLER_53_447
*4010 FILLER_53_454
*4011 FILLER_53_461
*4012 FILLER_53_468
*4013 FILLER_53_475
*4014 FILLER_53_482
*4015 FILLER_53_489
*4016 FILLER_53_49
*4017 FILLER_53_496
*4018 FILLER_53_503
*4019 FILLER_53_505
*4020 FILLER_53_56
*4021 FILLER_53_63
*4022 FILLER_53_7
*4023 FILLER_53_70
*4024 FILLER_53_81
*4025 FILLER_53_88
*4026 FILLER_53_95
*4027 FILLER_53_99
*4028 FILLER_54_117
*4029 FILLER_54_124
*4030 FILLER_54_131
*4031 FILLER_54_133
*4032 FILLER_54_139
*4033 FILLER_54_146
*4034 FILLER_54_153
*4035 FILLER_54_160
*4036 FILLER_54_167
*4037 FILLER_54_174
*4038 FILLER_54_181
*4039 FILLER_54_188
*4040 FILLER_54_195
*4041 FILLER_54_202
*4042 FILLER_54_206
*4043 FILLER_54_22
*4044 FILLER_54_279
*4045 FILLER_54_283
*4046 FILLER_54_288
*4047 FILLER_54_29
*4048 FILLER_54_294
*4049 FILLER_54_296
*4050 FILLER_54_302
*4051 FILLER_54_309
*4052 FILLER_54_316
*4053 FILLER_54_323
*4054 FILLER_54_330
*4055 FILLER_54_337
*4056 FILLER_54_344
*4057 FILLER_54_351
*4058 FILLER_54_358
*4059 FILLER_54_36
*4060 FILLER_54_365
*4061 FILLER_54_372
*4062 FILLER_54_379
*4063 FILLER_54_386
*4064 FILLER_54_393
*4065 FILLER_54_4
*4066 FILLER_54_400
*4067 FILLER_54_407
*4068 FILLER_54_414
*4069 FILLER_54_421
*4070 FILLER_54_428
*4071 FILLER_54_43
*4072 FILLER_54_435
*4073 FILLER_54_442
*4074 FILLER_54_449
*4075 FILLER_54_456
*4076 FILLER_54_463
*4077 FILLER_54_470
*4078 FILLER_54_477
*4079 FILLER_54_484
*4080 FILLER_54_491
*4081 FILLER_54_498
*4082 FILLER_54_50
*4083 FILLER_54_505
*4084 FILLER_54_57
*4085 FILLER_54_64
*4086 FILLER_54_71
*4087 FILLER_54_75
*4088 FILLER_54_81
*4089 FILLER_54_88
*4090 FILLER_55_0
*4091 FILLER_55_106
*4092 FILLER_55_113
*4093 FILLER_55_120
*4094 FILLER_55_14
*4095 FILLER_55_157
*4096 FILLER_55_16
*4097 FILLER_55_163
*4098 FILLER_55_170
*4099 FILLER_55_177
*4100 FILLER_55_184
*4101 FILLER_55_191
*4102 FILLER_55_198
*4103 FILLER_55_205
*4104 FILLER_55_21
*4105 FILLER_55_212
*4106 FILLER_55_218
*4107 FILLER_55_225
*4108 FILLER_55_232
*4109 FILLER_55_239
*4110 FILLER_55_246
*4111 FILLER_55_253
*4112 FILLER_55_261
*4113 FILLER_55_268
*4114 FILLER_55_275
*4115 FILLER_55_28
*4116 FILLER_55_282
*4117 FILLER_55_284
*4118 FILLER_55_312
*4119 FILLER_55_319
*4120 FILLER_55_326
*4121 FILLER_55_333
*4122 FILLER_55_340
*4123 FILLER_55_347
*4124 FILLER_55_35
*4125 FILLER_55_354
*4126 FILLER_55_361
*4127 FILLER_55_368
*4128 FILLER_55_375
*4129 FILLER_55_382
*4130 FILLER_55_389
*4131 FILLER_55_396
*4132 FILLER_55_403
*4133 FILLER_55_410
*4134 FILLER_55_417
*4135 FILLER_55_42
*4136 FILLER_55_424
*4137 FILLER_55_431
*4138 FILLER_55_438
*4139 FILLER_55_445
*4140 FILLER_55_452
*4141 FILLER_55_459
*4142 FILLER_55_466
*4143 FILLER_55_473
*4144 FILLER_55_480
*4145 FILLER_55_487
*4146 FILLER_55_49
*4147 FILLER_55_494
*4148 FILLER_55_501
*4149 FILLER_55_505
*4150 FILLER_55_56
*4151 FILLER_55_63
*4152 FILLER_55_7
*4153 FILLER_55_73
*4154 FILLER_55_81
*4155 FILLER_55_88
*4156 FILLER_55_99
*4157 FILLER_56_0
*4158 FILLER_56_100
*4159 FILLER_56_116
*4160 FILLER_56_123
*4161 FILLER_56_130
*4162 FILLER_56_136
*4163 FILLER_56_14
*4164 FILLER_56_145
*4165 FILLER_56_149
*4166 FILLER_56_163
*4167 FILLER_56_165
*4168 FILLER_56_186
*4169 FILLER_56_193
*4170 FILLER_56_200
*4171 FILLER_56_21
*4172 FILLER_56_210
*4173 FILLER_56_217
*4174 FILLER_56_224
*4175 FILLER_56_231
*4176 FILLER_56_237
*4177 FILLER_56_244
*4178 FILLER_56_251
*4179 FILLER_56_253
*4180 FILLER_56_272
*4181 FILLER_56_279
*4182 FILLER_56_28
*4183 FILLER_56_286
*4184 FILLER_56_293
*4185 FILLER_56_300
*4186 FILLER_56_307
*4187 FILLER_56_314
*4188 FILLER_56_321
*4189 FILLER_56_328
*4190 FILLER_56_335
*4191 FILLER_56_342
*4192 FILLER_56_349
*4193 FILLER_56_35
*4194 FILLER_56_356
*4195 FILLER_56_363
*4196 FILLER_56_370
*4197 FILLER_56_377
*4198 FILLER_56_384
*4199 FILLER_56_391
*4200 FILLER_56_398
*4201 FILLER_56_405
*4202 FILLER_56_412
*4203 FILLER_56_419
*4204 FILLER_56_42
*4205 FILLER_56_426
*4206 FILLER_56_433
*4207 FILLER_56_440
*4208 FILLER_56_447
*4209 FILLER_56_454
*4210 FILLER_56_461
*4211 FILLER_56_468
*4212 FILLER_56_475
*4213 FILLER_56_482
*4214 FILLER_56_489
*4215 FILLER_56_49
*4216 FILLER_56_496
*4217 FILLER_56_503
*4218 FILLER_56_505
*4219 FILLER_56_56
*4220 FILLER_56_58
*4221 FILLER_56_7
*4222 FILLER_56_86
*4223 FILLER_56_93
*4224 FILLER_57_0
*4225 FILLER_57_102
*4226 FILLER_57_112
*4227 FILLER_57_119
*4228 FILLER_57_126
*4229 FILLER_57_133
*4230 FILLER_57_14
*4231 FILLER_57_140
*4232 FILLER_57_147
*4233 FILLER_57_154
*4234 FILLER_57_161
*4235 FILLER_57_168
*4236 FILLER_57_175
*4237 FILLER_57_179
*4238 FILLER_57_21
*4239 FILLER_57_217
*4240 FILLER_57_224
*4241 FILLER_57_231
*4242 FILLER_57_249
*4243 FILLER_57_256
*4244 FILLER_57_258
*4245 FILLER_57_262
*4246 FILLER_57_266
*4247 FILLER_57_272
*4248 FILLER_57_28
*4249 FILLER_57_281
*4250 FILLER_57_288
*4251 FILLER_57_295
*4252 FILLER_57_302
*4253 FILLER_57_309
*4254 FILLER_57_316
*4255 FILLER_57_323
*4256 FILLER_57_330
*4257 FILLER_57_337
*4258 FILLER_57_344
*4259 FILLER_57_35
*4260 FILLER_57_351
*4261 FILLER_57_358
*4262 FILLER_57_365
*4263 FILLER_57_372
*4264 FILLER_57_379
*4265 FILLER_57_386
*4266 FILLER_57_393
*4267 FILLER_57_400
*4268 FILLER_57_407
*4269 FILLER_57_414
*4270 FILLER_57_42
*4271 FILLER_57_421
*4272 FILLER_57_428
*4273 FILLER_57_435
*4274 FILLER_57_442
*4275 FILLER_57_449
*4276 FILLER_57_456
*4277 FILLER_57_463
*4278 FILLER_57_470
*4279 FILLER_57_477
*4280 FILLER_57_484
*4281 FILLER_57_49
*4282 FILLER_57_491
*4283 FILLER_57_498
*4284 FILLER_57_505
*4285 FILLER_57_56
*4286 FILLER_57_63
*4287 FILLER_57_68
*4288 FILLER_57_7
*4289 FILLER_57_75
*4290 FILLER_57_82
*4291 FILLER_57_91
*4292 FILLER_57_98
*4293 FILLER_58_0
*4294 FILLER_58_102
*4295 FILLER_58_130
*4296 FILLER_58_137
*4297 FILLER_58_14
*4298 FILLER_58_144
*4299 FILLER_58_152
*4300 FILLER_58_159
*4301 FILLER_58_166
*4302 FILLER_58_173
*4303 FILLER_58_180
*4304 FILLER_58_184
*4305 FILLER_58_190
*4306 FILLER_58_197
*4307 FILLER_58_204
*4308 FILLER_58_21
*4309 FILLER_58_262
*4310 FILLER_58_266
*4311 FILLER_58_28
*4312 FILLER_58_294
*4313 FILLER_58_301
*4314 FILLER_58_308
*4315 FILLER_58_315
*4316 FILLER_58_322
*4317 FILLER_58_329
*4318 FILLER_58_336
*4319 FILLER_58_343
*4320 FILLER_58_35
*4321 FILLER_58_350
*4322 FILLER_58_357
*4323 FILLER_58_364
*4324 FILLER_58_371
*4325 FILLER_58_378
*4326 FILLER_58_385
*4327 FILLER_58_392
*4328 FILLER_58_399
*4329 FILLER_58_406
*4330 FILLER_58_413
*4331 FILLER_58_42
*4332 FILLER_58_420
*4333 FILLER_58_427
*4334 FILLER_58_434
*4335 FILLER_58_441
*4336 FILLER_58_448
*4337 FILLER_58_455
*4338 FILLER_58_462
*4339 FILLER_58_469
*4340 FILLER_58_476
*4341 FILLER_58_483
*4342 FILLER_58_49
*4343 FILLER_58_490
*4344 FILLER_58_497
*4345 FILLER_58_504
*4346 FILLER_58_56
*4347 FILLER_58_63
*4348 FILLER_58_7
*4349 FILLER_58_70
*4350 FILLER_58_77
*4351 FILLER_58_88
*4352 FILLER_58_95
*4353 FILLER_59_102
*4354 FILLER_59_106
*4355 FILLER_59_11
*4356 FILLER_59_112
*4357 FILLER_59_119
*4358 FILLER_59_126
*4359 FILLER_59_133
*4360 FILLER_59_140
*4361 FILLER_59_142
*4362 FILLER_59_170
*4363 FILLER_59_177
*4364 FILLER_59_18
*4365 FILLER_59_184
*4366 FILLER_59_191
*4367 FILLER_59_198
*4368 FILLER_59_205
*4369 FILLER_59_212
*4370 FILLER_59_219
*4371 FILLER_59_226
*4372 FILLER_59_233
*4373 FILLER_59_240
*4374 FILLER_59_25
*4375 FILLER_59_258
*4376 FILLER_59_265
*4377 FILLER_59_272
*4378 FILLER_59_277
*4379 FILLER_59_284
*4380 FILLER_59_291
*4381 FILLER_59_298
*4382 FILLER_59_305
*4383 FILLER_59_312
*4384 FILLER_59_319
*4385 FILLER_59_32
*4386 FILLER_59_326
*4387 FILLER_59_333
*4388 FILLER_59_340
*4389 FILLER_59_347
*4390 FILLER_59_354
*4391 FILLER_59_361
*4392 FILLER_59_368
*4393 FILLER_59_375
*4394 FILLER_59_382
*4395 FILLER_59_389
*4396 FILLER_59_39
*4397 FILLER_59_396
*4398 FILLER_59_4
*4399 FILLER_59_403
*4400 FILLER_59_410
*4401 FILLER_59_417
*4402 FILLER_59_424
*4403 FILLER_59_431
*4404 FILLER_59_438
*4405 FILLER_59_445
*4406 FILLER_59_452
*4407 FILLER_59_459
*4408 FILLER_59_46
*4409 FILLER_59_466
*4410 FILLER_59_473
*4411 FILLER_59_480
*4412 FILLER_59_487
*4413 FILLER_59_494
*4414 FILLER_59_501
*4415 FILLER_59_505
*4416 FILLER_59_53
*4417 FILLER_59_60
*4418 FILLER_59_67
*4419 FILLER_59_95
*4420 FILLER_5_0
*4421 FILLER_5_105
*4422 FILLER_5_112
*4423 FILLER_5_119
*4424 FILLER_5_126
*4425 FILLER_5_133
*4426 FILLER_5_14
*4427 FILLER_5_140
*4428 FILLER_5_147
*4429 FILLER_5_154
*4430 FILLER_5_161
*4431 FILLER_5_168
*4432 FILLER_5_175
*4433 FILLER_5_182
*4434 FILLER_5_189
*4435 FILLER_5_196
*4436 FILLER_5_203
*4437 FILLER_5_21
*4438 FILLER_5_210
*4439 FILLER_5_217
*4440 FILLER_5_224
*4441 FILLER_5_231
*4442 FILLER_5_238
*4443 FILLER_5_245
*4444 FILLER_5_252
*4445 FILLER_5_254
*4446 FILLER_5_28
*4447 FILLER_5_282
*4448 FILLER_5_289
*4449 FILLER_5_323
*4450 FILLER_5_330
*4451 FILLER_5_339
*4452 FILLER_5_35
*4453 FILLER_5_354
*4454 FILLER_5_395
*4455 FILLER_5_399
*4456 FILLER_5_404
*4457 FILLER_5_410
*4458 FILLER_5_42
*4459 FILLER_5_450
*4460 FILLER_5_456
*4461 FILLER_5_484
*4462 FILLER_5_49
*4463 FILLER_5_491
*4464 FILLER_5_498
*4465 FILLER_5_505
*4466 FILLER_5_56
*4467 FILLER_5_63
*4468 FILLER_5_7
*4469 FILLER_5_70
*4470 FILLER_5_77
*4471 FILLER_5_84
*4472 FILLER_5_91
*4473 FILLER_5_98
*4474 FILLER_60_0
*4475 FILLER_60_105
*4476 FILLER_60_112
*4477 FILLER_60_119
*4478 FILLER_60_126
*4479 FILLER_60_137
*4480 FILLER_60_14
*4481 FILLER_60_146
*4482 FILLER_60_153
*4483 FILLER_60_160
*4484 FILLER_60_167
*4485 FILLER_60_173
*4486 FILLER_60_180
*4487 FILLER_60_184
*4488 FILLER_60_191
*4489 FILLER_60_198
*4490 FILLER_60_202
*4491 FILLER_60_209
*4492 FILLER_60_21
*4493 FILLER_60_216
*4494 FILLER_60_223
*4495 FILLER_60_230
*4496 FILLER_60_237
*4497 FILLER_60_244
*4498 FILLER_60_251
*4499 FILLER_60_258
*4500 FILLER_60_265
*4501 FILLER_60_272
*4502 FILLER_60_279
*4503 FILLER_60_28
*4504 FILLER_60_286
*4505 FILLER_60_293
*4506 FILLER_60_300
*4507 FILLER_60_307
*4508 FILLER_60_314
*4509 FILLER_60_321
*4510 FILLER_60_328
*4511 FILLER_60_335
*4512 FILLER_60_342
*4513 FILLER_60_349
*4514 FILLER_60_35
*4515 FILLER_60_356
*4516 FILLER_60_363
*4517 FILLER_60_370
*4518 FILLER_60_377
*4519 FILLER_60_384
*4520 FILLER_60_391
*4521 FILLER_60_398
*4522 FILLER_60_405
*4523 FILLER_60_412
*4524 FILLER_60_419
*4525 FILLER_60_42
*4526 FILLER_60_426
*4527 FILLER_60_433
*4528 FILLER_60_440
*4529 FILLER_60_447
*4530 FILLER_60_454
*4531 FILLER_60_461
*4532 FILLER_60_468
*4533 FILLER_60_475
*4534 FILLER_60_482
*4535 FILLER_60_489
*4536 FILLER_60_49
*4537 FILLER_60_496
*4538 FILLER_60_503
*4539 FILLER_60_505
*4540 FILLER_60_56
*4541 FILLER_60_63
*4542 FILLER_60_7
*4543 FILLER_60_70
*4544 FILLER_60_72
*4545 FILLER_60_77
*4546 FILLER_60_84
*4547 FILLER_60_91
*4548 FILLER_60_98
*4549 FILLER_61_0
*4550 FILLER_61_102
*4551 FILLER_61_112
*4552 FILLER_61_119
*4553 FILLER_61_121
*4554 FILLER_61_14
*4555 FILLER_61_149
*4556 FILLER_61_156
*4557 FILLER_61_163
*4558 FILLER_61_170
*4559 FILLER_61_203
*4560 FILLER_61_207
*4561 FILLER_61_21
*4562 FILLER_61_222
*4563 FILLER_61_229
*4564 FILLER_61_236
*4565 FILLER_61_241
*4566 FILLER_61_243
*4567 FILLER_61_249
*4568 FILLER_61_256
*4569 FILLER_61_264
*4570 FILLER_61_274
*4571 FILLER_61_28
*4572 FILLER_61_281
*4573 FILLER_61_288
*4574 FILLER_61_295
*4575 FILLER_61_302
*4576 FILLER_61_309
*4577 FILLER_61_316
*4578 FILLER_61_323
*4579 FILLER_61_330
*4580 FILLER_61_337
*4581 FILLER_61_344
*4582 FILLER_61_35
*4583 FILLER_61_351
*4584 FILLER_61_358
*4585 FILLER_61_365
*4586 FILLER_61_372
*4587 FILLER_61_379
*4588 FILLER_61_386
*4589 FILLER_61_393
*4590 FILLER_61_400
*4591 FILLER_61_407
*4592 FILLER_61_414
*4593 FILLER_61_42
*4594 FILLER_61_421
*4595 FILLER_61_428
*4596 FILLER_61_435
*4597 FILLER_61_442
*4598 FILLER_61_449
*4599 FILLER_61_456
*4600 FILLER_61_463
*4601 FILLER_61_470
*4602 FILLER_61_477
*4603 FILLER_61_484
*4604 FILLER_61_49
*4605 FILLER_61_491
*4606 FILLER_61_498
*4607 FILLER_61_505
*4608 FILLER_61_56
*4609 FILLER_61_63
*4610 FILLER_61_7
*4611 FILLER_61_70
*4612 FILLER_61_77
*4613 FILLER_61_84
*4614 FILLER_61_91
*4615 FILLER_61_98
*4616 FILLER_62_0
*4617 FILLER_62_123
*4618 FILLER_62_139
*4619 FILLER_62_14
*4620 FILLER_62_146
*4621 FILLER_62_153
*4622 FILLER_62_160
*4623 FILLER_62_167
*4624 FILLER_62_174
*4625 FILLER_62_185
*4626 FILLER_62_192
*4627 FILLER_62_199
*4628 FILLER_62_203
*4629 FILLER_62_21
*4630 FILLER_62_259
*4631 FILLER_62_28
*4632 FILLER_62_288
*4633 FILLER_62_295
*4634 FILLER_62_302
*4635 FILLER_62_309
*4636 FILLER_62_316
*4637 FILLER_62_323
*4638 FILLER_62_330
*4639 FILLER_62_337
*4640 FILLER_62_344
*4641 FILLER_62_35
*4642 FILLER_62_351
*4643 FILLER_62_358
*4644 FILLER_62_365
*4645 FILLER_62_372
*4646 FILLER_62_379
*4647 FILLER_62_386
*4648 FILLER_62_393
*4649 FILLER_62_400
*4650 FILLER_62_407
*4651 FILLER_62_414
*4652 FILLER_62_42
*4653 FILLER_62_421
*4654 FILLER_62_428
*4655 FILLER_62_435
*4656 FILLER_62_442
*4657 FILLER_62_449
*4658 FILLER_62_456
*4659 FILLER_62_463
*4660 FILLER_62_470
*4661 FILLER_62_477
*4662 FILLER_62_484
*4663 FILLER_62_49
*4664 FILLER_62_491
*4665 FILLER_62_498
*4666 FILLER_62_505
*4667 FILLER_62_56
*4668 FILLER_62_63
*4669 FILLER_62_7
*4670 FILLER_62_70
*4671 FILLER_62_77
*4672 FILLER_62_84
*4673 FILLER_62_91
*4674 FILLER_62_95
*4675 FILLER_63_0
*4676 FILLER_63_100
*4677 FILLER_63_117
*4678 FILLER_63_124
*4679 FILLER_63_131
*4680 FILLER_63_138
*4681 FILLER_63_14
*4682 FILLER_63_145
*4683 FILLER_63_152
*4684 FILLER_63_159
*4685 FILLER_63_166
*4686 FILLER_63_173
*4687 FILLER_63_180
*4688 FILLER_63_187
*4689 FILLER_63_194
*4690 FILLER_63_201
*4691 FILLER_63_209
*4692 FILLER_63_21
*4693 FILLER_63_216
*4694 FILLER_63_223
*4695 FILLER_63_230
*4696 FILLER_63_237
*4697 FILLER_63_243
*4698 FILLER_63_257
*4699 FILLER_63_28
*4700 FILLER_63_284
*4701 FILLER_63_289
*4702 FILLER_63_293
*4703 FILLER_63_299
*4704 FILLER_63_306
*4705 FILLER_63_311
*4706 FILLER_63_318
*4707 FILLER_63_320
*4708 FILLER_63_325
*4709 FILLER_63_332
*4710 FILLER_63_336
*4711 FILLER_63_341
*4712 FILLER_63_348
*4713 FILLER_63_35
*4714 FILLER_63_355
*4715 FILLER_63_362
*4716 FILLER_63_369
*4717 FILLER_63_376
*4718 FILLER_63_383
*4719 FILLER_63_390
*4720 FILLER_63_397
*4721 FILLER_63_404
*4722 FILLER_63_411
*4723 FILLER_63_418
*4724 FILLER_63_42
*4725 FILLER_63_425
*4726 FILLER_63_432
*4727 FILLER_63_439
*4728 FILLER_63_446
*4729 FILLER_63_453
*4730 FILLER_63_460
*4731 FILLER_63_467
*4732 FILLER_63_474
*4733 FILLER_63_481
*4734 FILLER_63_488
*4735 FILLER_63_49
*4736 FILLER_63_495
*4737 FILLER_63_502
*4738 FILLER_63_56
*4739 FILLER_63_61
*4740 FILLER_63_68
*4741 FILLER_63_7
*4742 FILLER_63_75
*4743 FILLER_63_82
*4744 FILLER_63_86
*4745 FILLER_63_91
*4746 FILLER_63_98
*4747 FILLER_6_0
*4748 FILLER_6_105
*4749 FILLER_6_112
*4750 FILLER_6_119
*4751 FILLER_6_126
*4752 FILLER_6_133
*4753 FILLER_6_14
*4754 FILLER_6_140
*4755 FILLER_6_147
*4756 FILLER_6_154
*4757 FILLER_6_161
*4758 FILLER_6_168
*4759 FILLER_6_175
*4760 FILLER_6_182
*4761 FILLER_6_189
*4762 FILLER_6_196
*4763 FILLER_6_203
*4764 FILLER_6_21
*4765 FILLER_6_210
*4766 FILLER_6_217
*4767 FILLER_6_224
*4768 FILLER_6_231
*4769 FILLER_6_238
*4770 FILLER_6_245
*4771 FILLER_6_252
*4772 FILLER_6_259
*4773 FILLER_6_264
*4774 FILLER_6_271
*4775 FILLER_6_278
*4776 FILLER_6_28
*4777 FILLER_6_285
*4778 FILLER_6_292
*4779 FILLER_6_299
*4780 FILLER_6_308
*4781 FILLER_6_315
*4782 FILLER_6_322
*4783 FILLER_6_329
*4784 FILLER_6_336
*4785 FILLER_6_35
*4786 FILLER_6_351
*4787 FILLER_6_357
*4788 FILLER_6_364
*4789 FILLER_6_371
*4790 FILLER_6_394
*4791 FILLER_6_42
*4792 FILLER_6_422
*4793 FILLER_6_426
*4794 FILLER_6_432
*4795 FILLER_6_439
*4796 FILLER_6_446
*4797 FILLER_6_453
*4798 FILLER_6_464
*4799 FILLER_6_471
*4800 FILLER_6_473
*4801 FILLER_6_49
*4802 FILLER_6_56
*4803 FILLER_6_63
*4804 FILLER_6_7
*4805 FILLER_6_70
*4806 FILLER_6_77
*4807 FILLER_6_84
*4808 FILLER_6_91
*4809 FILLER_6_98
*4810 FILLER_7_0
*4811 FILLER_7_105
*4812 FILLER_7_112
*4813 FILLER_7_119
*4814 FILLER_7_126
*4815 FILLER_7_133
*4816 FILLER_7_14
*4817 FILLER_7_140
*4818 FILLER_7_147
*4819 FILLER_7_154
*4820 FILLER_7_161
*4821 FILLER_7_168
*4822 FILLER_7_175
*4823 FILLER_7_182
*4824 FILLER_7_189
*4825 FILLER_7_196
*4826 FILLER_7_203
*4827 FILLER_7_21
*4828 FILLER_7_210
*4829 FILLER_7_217
*4830 FILLER_7_224
*4831 FILLER_7_231
*4832 FILLER_7_238
*4833 FILLER_7_245
*4834 FILLER_7_252
*4835 FILLER_7_259
*4836 FILLER_7_266
*4837 FILLER_7_273
*4838 FILLER_7_28
*4839 FILLER_7_280
*4840 FILLER_7_287
*4841 FILLER_7_294
*4842 FILLER_7_301
*4843 FILLER_7_308
*4844 FILLER_7_315
*4845 FILLER_7_322
*4846 FILLER_7_329
*4847 FILLER_7_336
*4848 FILLER_7_35
*4849 FILLER_7_376
*4850 FILLER_7_383
*4851 FILLER_7_399
*4852 FILLER_7_406
*4853 FILLER_7_413
*4854 FILLER_7_42
*4855 FILLER_7_420
*4856 FILLER_7_427
*4857 FILLER_7_434
*4858 FILLER_7_441
*4859 FILLER_7_448
*4860 FILLER_7_455
*4861 FILLER_7_462
*4862 FILLER_7_469
*4863 FILLER_7_476
*4864 FILLER_7_49
*4865 FILLER_7_492
*4866 FILLER_7_499
*4867 FILLER_7_56
*4868 FILLER_7_63
*4869 FILLER_7_7
*4870 FILLER_7_70
*4871 FILLER_7_77
*4872 FILLER_7_84
*4873 FILLER_7_91
*4874 FILLER_7_98
*4875 FILLER_8_0
*4876 FILLER_8_105
*4877 FILLER_8_112
*4878 FILLER_8_119
*4879 FILLER_8_126
*4880 FILLER_8_133
*4881 FILLER_8_14
*4882 FILLER_8_140
*4883 FILLER_8_147
*4884 FILLER_8_154
*4885 FILLER_8_161
*4886 FILLER_8_168
*4887 FILLER_8_175
*4888 FILLER_8_182
*4889 FILLER_8_189
*4890 FILLER_8_196
*4891 FILLER_8_203
*4892 FILLER_8_21
*4893 FILLER_8_210
*4894 FILLER_8_217
*4895 FILLER_8_224
*4896 FILLER_8_231
*4897 FILLER_8_238
*4898 FILLER_8_245
*4899 FILLER_8_252
*4900 FILLER_8_259
*4901 FILLER_8_266
*4902 FILLER_8_273
*4903 FILLER_8_28
*4904 FILLER_8_280
*4905 FILLER_8_287
*4906 FILLER_8_294
*4907 FILLER_8_301
*4908 FILLER_8_334
*4909 FILLER_8_341
*4910 FILLER_8_349
*4911 FILLER_8_35
*4912 FILLER_8_356
*4913 FILLER_8_363
*4914 FILLER_8_370
*4915 FILLER_8_377
*4916 FILLER_8_388
*4917 FILLER_8_395
*4918 FILLER_8_402
*4919 FILLER_8_409
*4920 FILLER_8_416
*4921 FILLER_8_42
*4922 FILLER_8_423
*4923 FILLER_8_430
*4924 FILLER_8_437
*4925 FILLER_8_444
*4926 FILLER_8_448
*4927 FILLER_8_476
*4928 FILLER_8_483
*4929 FILLER_8_49
*4930 FILLER_8_490
*4931 FILLER_8_497
*4932 FILLER_8_501
*4933 FILLER_8_56
*4934 FILLER_8_63
*4935 FILLER_8_7
*4936 FILLER_8_70
*4937 FILLER_8_77
*4938 FILLER_8_84
*4939 FILLER_8_91
*4940 FILLER_8_98
*4941 FILLER_9_0
*4942 FILLER_9_105
*4943 FILLER_9_112
*4944 FILLER_9_119
*4945 FILLER_9_126
*4946 FILLER_9_133
*4947 FILLER_9_14
*4948 FILLER_9_140
*4949 FILLER_9_147
*4950 FILLER_9_154
*4951 FILLER_9_161
*4952 FILLER_9_168
*4953 FILLER_9_175
*4954 FILLER_9_182
*4955 FILLER_9_189
*4956 FILLER_9_196
*4957 FILLER_9_203
*4958 FILLER_9_21
*4959 FILLER_9_210
*4960 FILLER_9_217
*4961 FILLER_9_224
*4962 FILLER_9_231
*4963 FILLER_9_238
*4964 FILLER_9_245
*4965 FILLER_9_252
*4966 FILLER_9_259
*4967 FILLER_9_266
*4968 FILLER_9_273
*4969 FILLER_9_28
*4970 FILLER_9_280
*4971 FILLER_9_287
*4972 FILLER_9_294
*4973 FILLER_9_301
*4974 FILLER_9_305
*4975 FILLER_9_311
*4976 FILLER_9_318
*4977 FILLER_9_322
*4978 FILLER_9_328
*4979 FILLER_9_332
*4980 FILLER_9_337
*4981 FILLER_9_344
*4982 FILLER_9_35
*4983 FILLER_9_364
*4984 FILLER_9_368
*4985 FILLER_9_401
*4986 FILLER_9_408
*4987 FILLER_9_412
*4988 FILLER_9_418
*4989 FILLER_9_42
*4990 FILLER_9_425
*4991 FILLER_9_432
*4992 FILLER_9_436
*4993 FILLER_9_460
*4994 FILLER_9_462
*4995 FILLER_9_472
*4996 FILLER_9_479
*4997 FILLER_9_486
*4998 FILLER_9_49
*4999 FILLER_9_493
*5000 FILLER_9_500
*5001 FILLER_9_504
*5002 FILLER_9_56
*5003 FILLER_9_63
*5004 FILLER_9_7
*5005 FILLER_9_70
*5006 FILLER_9_77
*5007 FILLER_9_84
*5008 FILLER_9_91
*5009 FILLER_9_98
*5010 _0699_
*5011 _0700_
*5012 _0701_
*5013 _0702_
*5014 _0703_
*5015 _0704_
*5016 _0705_
*5017 _0706_
*5018 _0707_
*5019 _0708_
*5020 _0709_
*5021 _0710_
*5022 _0711_
*5023 _0712_
*5024 _0713_
*5025 _0714_
*5026 _0715_
*5027 _0716_
*5028 _0717_
*5029 _0718_
*5030 _0719_
*5031 _0720_
*5032 _0721_
*5033 _0722_
*5034 _0723_
*5035 _0724_
*5036 _0725_
*5037 _0726_
*5038 _0727_
*5039 _0728_
*5040 _0729_
*5041 _0730_
*5042 _0731_
*5043 _0732_
*5044 _0733_
*5045 _0734_
*5046 _0735_
*5047 _0736_
*5048 _0737_
*5049 _0738_
*5050 _0739_
*5051 _0740_
*5052 _0741_
*5053 _0742_
*5054 _0743_
*5055 _0744_
*5056 _0745_
*5057 _0746_
*5058 _0747_
*5059 _0748_
*5060 _0749_
*5061 _0750_
*5062 _0751_
*5063 _0752_
*5064 _0753_
*5065 _0754_
*5066 _0755_
*5067 _0756_
*5068 _0757_
*5069 _0758_
*5070 _0759_
*5071 _0760_
*5072 _0761_
*5073 _0762_
*5074 _0763_
*5075 _0764_
*5076 _0765_
*5077 _0766_
*5078 _0767_
*5079 _0768_
*5080 _0769_
*5081 _0770_
*5082 _0771_
*5083 _0772_
*5084 _0773_
*5085 _0774_
*5086 _0775_
*5087 _0776_
*5088 _0777_
*5089 _0778_
*5090 _0779_
*5091 _0780_
*5092 _0781_
*5093 _0782_
*5094 _0783_
*5095 _0784_
*5096 _0785_
*5097 _0786_
*5098 _0787_
*5099 _0788_
*5100 _0789_
*5101 _0790_
*5102 _0791_
*5103 _0792_
*5104 _0793_
*5105 _0794_
*5106 _0795_
*5107 _0796_
*5108 _0797_
*5109 _0798_
*5110 _0799_
*5111 _0800_
*5112 _0801_
*5113 _0802_
*5114 _0803_
*5115 _0804_
*5116 _0805_
*5117 _0806_
*5118 _0807_
*5119 _0808_
*5120 _0809_
*5121 _0810_
*5122 _0811_
*5123 _0812_
*5124 _0813_
*5125 _0814_
*5126 _0815_
*5127 _0816_
*5128 _0817_
*5129 _0818_
*5130 _0819_
*5131 _0820_
*5132 _0821_
*5133 _0822_
*5134 _0823_
*5135 _0824_
*5136 _0825_
*5137 _0826_
*5138 _0827_
*5139 _0828_
*5140 _0829_
*5141 _0830_
*5142 _0831_
*5143 _0832_
*5144 _0833_
*5145 _0834_
*5146 _0835_
*5147 _0836_
*5148 _0837_
*5149 _0838_
*5150 _0839_
*5151 _0840_
*5152 _0841_
*5153 _0842_
*5154 _0843_
*5155 _0844_
*5156 _0845_
*5157 _0846_
*5158 _0847_
*5159 _0848_
*5160 _0849_
*5161 _0850_
*5162 _0851_
*5163 _0852_
*5164 _0853_
*5165 _0854_
*5166 _0855_
*5167 _0856_
*5168 _0857_
*5169 _0858_
*5170 _0859_
*5171 _0860_
*5172 _0861_
*5173 _0862_
*5174 _0863_
*5175 _0864_
*5176 _0865_
*5177 _0866_
*5178 _0867_
*5179 _0868_
*5180 _0869_
*5181 _0870_
*5182 _0871_
*5183 _0872_
*5184 _0873_
*5185 _0874_
*5186 _0875_
*5187 _0876_
*5188 _0877_
*5189 _0878_
*5190 _0879_
*5191 _0880_
*5192 _0881_
*5193 _0882_
*5194 _0883_
*5195 _0884_
*5196 _0885_
*5197 _0886_
*5198 _0887_
*5199 _0888_
*5200 _0889_
*5201 _0890_
*5202 _0891_
*5203 _0892_
*5204 _0893_
*5205 _0894_
*5206 _0895_
*5207 _0896_
*5208 _0897_
*5209 _0898_
*5210 _0899_
*5211 _0900_
*5212 _0901_
*5213 _0902_
*5214 _0903_
*5215 _0904_
*5216 _0905_
*5217 _0906_
*5218 _0907_
*5219 _0908_
*5220 _0909_
*5221 _0910_
*5222 _0911_
*5223 _0912_
*5224 _0913_
*5225 _0914_
*5226 _0915_
*5227 _0916_
*5228 _0917_
*5229 _0918_
*5230 _0919_
*5231 _0920_
*5232 _0921_
*5233 _0922_
*5234 _0923_
*5235 _0924_
*5236 _0925_
*5237 _0926_
*5238 _0927_
*5239 _0928_
*5240 _0929_
*5241 _0930_
*5242 _0931_
*5243 _0932_
*5244 _0933_
*5245 _0934_
*5246 _0935_
*5247 _0936_
*5248 _0937_
*5249 _0938_
*5250 _0939_
*5251 _0940_
*5252 _0941_
*5253 _0942_
*5254 _0943_
*5255 _0944_
*5256 _0945_
*5257 _0946_
*5258 _0947_
*5259 _0948_
*5260 _0949_
*5261 _0950_
*5262 _0951_
*5263 _0952_
*5264 _0953_
*5265 _0954_
*5266 _0955_
*5267 _0956_
*5268 _0957_
*5269 _0958_
*5270 _0959_
*5271 _0960_
*5272 _0961_
*5273 _0962_
*5274 _0963_
*5275 _0964_
*5276 _0965_
*5277 _0966_
*5278 _0967_
*5279 _0968_
*5280 _0969_
*5281 _0970_
*5282 _0971_
*5283 _0972_
*5284 _0973_
*5285 _0974_
*5286 _0975_
*5287 _0976_
*5288 _0977_
*5289 _0978_
*5290 _0979_
*5291 _0980_
*5292 _0981_
*5293 _0982_
*5294 _0983_
*5295 _0984_
*5296 _0985_
*5297 _0986_
*5298 _0987_
*5299 _0988_
*5300 _0989_
*5301 _0990_
*5302 _0991_
*5303 _0992_
*5304 _0993_
*5305 _0994_
*5306 _0995_
*5307 _0996_
*5308 _0997_
*5309 _0998_
*5310 _0999_
*5311 _1000_
*5312 _1001_
*5313 _1002_
*5314 _1003_
*5315 _1004_
*5316 _1005_
*5317 _1006_
*5318 _1007_
*5319 _1008_
*5320 _1009_
*5321 _1010_
*5322 _1011_
*5323 _1012_
*5324 _1013_
*5325 _1014_
*5326 _1015_
*5327 _1016_
*5328 _1017_
*5329 _1018_
*5330 _1019_
*5331 _1020_
*5332 _1021_
*5333 _1022_
*5334 _1023_
*5335 _1024_
*5336 _1025_
*5337 _1026_
*5338 _1027_
*5339 _1028_
*5340 _1029_
*5341 _1030_
*5342 _1031_
*5343 _1032_
*5344 _1033_
*5345 _1034_
*5346 _1035_
*5347 _1036_
*5348 _1037_
*5349 _1038_
*5350 _1039_
*5351 _1040_
*5352 _1041_
*5353 _1042_
*5354 _1043_
*5355 _1044_
*5356 _1045_
*5357 _1046_
*5358 _1047_
*5359 _1048_
*5360 _1049_
*5361 _1050_
*5362 _1051_
*5363 _1052_
*5364 _1053_
*5365 _1054_
*5366 _1055_
*5367 _1056_
*5368 _1057_
*5369 _1058_
*5370 _1059_
*5371 _1060_
*5372 _1061_
*5373 _1062_
*5374 _1063_
*5375 _1064_
*5376 _1065_
*5377 _1066_
*5378 _1067_
*5379 _1068_
*5380 _1069_
*5381 _1070_
*5382 _1071_
*5383 _1072_
*5384 _1073_
*5385 _1074_
*5386 _1075_
*5387 _1076_
*5388 _1077_
*5389 _1078_
*5390 _1079_
*5391 _1080_
*5392 _1081_
*5393 _1082_
*5394 _1083_
*5395 _1084_
*5396 _1085_
*5397 _1086_
*5398 _1087_
*5399 _1088_
*5400 _1089_
*5401 _1090_
*5402 _1091_
*5403 _1092_
*5404 _1093_
*5405 _1094_
*5406 _1095_
*5407 _1096_
*5408 _1097_
*5409 _1098_
*5410 _1099_
*5411 _1100_
*5412 _1101_
*5413 _1102_
*5414 _1103_
*5415 _1104_
*5416 _1105_
*5417 _1106_
*5418 _1107_
*5419 _1108_
*5420 _1109_
*5421 _1110_
*5422 _1111_
*5423 _1112_
*5424 _1113_
*5425 _1114_
*5426 _1115_
*5427 _1116_
*5428 _1117_
*5429 _1118_
*5430 _1119_
*5431 _1120_
*5432 _1121_
*5433 _1122_
*5434 _1123_
*5435 _1124_
*5436 _1125_
*5437 _1126_
*5438 _1127_
*5439 _1128_
*5440 _1129_
*5441 _1130_
*5442 _1131_
*5443 _1132_
*5444 _1133_
*5445 _1134_
*5446 _1135_
*5447 _1136_
*5448 _1137_
*5449 _1138_
*5450 _1139_
*5451 _1140_
*5452 _1141_
*5453 _1142_
*5454 _1143_
*5455 _1144_
*5456 _1145_
*5457 _1146_
*5458 _1147_
*5459 _1148_
*5460 _1149_
*5461 _1150_
*5462 _1151_
*5463 _1152_
*5464 _1153_
*5465 _1154_
*5466 _1155_
*5467 _1156_
*5468 _1157_
*5469 _1158_
*5470 _1159_
*5471 _1160_
*5472 _1161_
*5473 _1162_
*5474 _1163_
*5475 _1164_
*5476 _1165_
*5477 _1166_
*5478 _1167_
*5479 _1168_
*5480 _1169_
*5481 _1170_
*5482 _1171_
*5483 _1172_
*5484 _1173_
*5485 _1174_
*5486 _1175_
*5487 _1176_
*5488 _1177_
*5489 _1178_
*5490 _1179_
*5491 _1180_
*5492 _1181_
*5493 _1182_
*5494 _1183_
*5495 _1184_
*5496 _1185_
*5497 _1186_
*5498 _1187_
*5499 _1188_
*5500 _1189_
*5501 _1190_
*5502 _1191_
*5503 _1192_
*5504 _1193_
*5505 _1194_
*5506 _1195_
*5507 _1196_
*5508 _1197_
*5509 _1198_
*5510 _1199_
*5511 _1200_
*5512 _1201_
*5513 _1202_
*5514 _1203_
*5515 _1204_
*5516 _1205_
*5517 _1206_
*5518 _1207_
*5519 _1208_
*5520 _1209_
*5521 _1210_
*5522 _1211_
*5523 _1212_
*5524 _1213_
*5525 _1214_
*5526 _1215_
*5527 _1216_
*5528 _1217_
*5529 _1218_
*5530 _1219_
*5531 _1220_
*5532 _1221_
*5533 _1222_
*5534 _1223_
*5535 _1224_
*5536 _1225_
*5537 _1226_
*5538 _1227_
*5539 _1228_
*5540 _1228__320
*5541 _1229_
*5542 _1229__238
*5543 _1230_
*5544 _1230__236
*5545 _1231_
*5546 _1231__234
*5547 _1232_
*5548 _1232__232
*5549 _1233_
*5550 _1233__230
*5551 _1234_
*5552 _1234__228
*5553 _1235_
*5554 _1235__226
*5555 _1236_
*5556 _1236__224
*5557 _1237_
*5558 _1237__222
*5559 _1238_
*5560 _1238__220
*5561 _1239_
*5562 _1239__218
*5563 _1240_
*5564 _1240__216
*5565 _1241_
*5566 _1241__214
*5567 _1242_
*5568 _1242__212
*5569 _1243_
*5570 _1243__210
*5571 _1244_
*5572 _1244__208
*5573 _1245_
*5574 _1245__206
*5575 _1246_
*5576 _1246__204
*5577 _1247_
*5578 _1247__202
*5579 _1248_
*5580 _1248__200
*5581 _1249_
*5582 _1249__198
*5583 _1250_
*5584 _1250__196
*5585 _1251_
*5586 _1251__194
*5587 _1252_
*5588 _1252__192
*5589 _1253_
*5590 _1253__190
*5591 _1254_
*5592 _1254__188
*5593 _1255_
*5594 _1255__186
*5595 _1256_
*5596 _1256__184
*5597 _1257_
*5598 _1257__182
*5599 _1258_
*5600 _1258__180
*5601 _1259_
*5602 _1259__178
*5603 _1260_
*5604 _1260__176
*5605 _1261_
*5606 _1261__174
*5607 _1262_
*5608 _1262__172
*5609 _1263_
*5610 _1263__170
*5611 _1264_
*5612 _1264__168
*5613 _1265_
*5614 _1265__166
*5615 _1266_
*5616 _1266__164
*5617 _1267_
*5618 _1267__162
*5619 _1268_
*5620 _1268__160
*5621 _1269_
*5622 _1269__318
*5623 _1270_
*5624 _1270__316
*5625 _1271_
*5626 _1271__314
*5627 _1272_
*5628 _1272__312
*5629 _1273_
*5630 _1273__310
*5631 _1274_
*5632 _1274__308
*5633 _1275_
*5634 _1275__306
*5635 _1276_
*5636 _1276__304
*5637 _1277_
*5638 _1277__302
*5639 _1278_
*5640 _1278__300
*5641 _1279_
*5642 _1279__298
*5643 _1280_
*5644 _1280__296
*5645 _1281_
*5646 _1281__294
*5647 _1282_
*5648 _1282__292
*5649 _1283_
*5650 _1283__290
*5651 _1284_
*5652 _1284__288
*5653 _1285_
*5654 _1285__286
*5655 _1286_
*5656 _1286__284
*5657 _1287_
*5658 _1287__282
*5659 _1288_
*5660 _1288__280
*5661 _1289_
*5662 _1289__278
*5663 _1290_
*5664 _1290__276
*5665 _1291_
*5666 _1291__274
*5667 _1292_
*5668 _1292__272
*5669 _1293_
*5670 _1293__270
*5671 _1294_
*5672 _1294__268
*5673 _1295_
*5674 _1295__266
*5675 _1296_
*5676 _1296__264
*5677 _1297_
*5678 _1297__262
*5679 _1298_
*5680 _1298__260
*5681 _1299_
*5682 _1299__258
*5683 _1300_
*5684 _1300__256
*5685 _1301_
*5686 _1301__254
*5687 _1302_
*5688 _1302__252
*5689 _1303_
*5690 _1303__250
*5691 _1304_
*5692 _1304__248
*5693 _1305_
*5694 _1305__246
*5695 _1306_
*5696 _1306__244
*5697 _1307_
*5698 _1307__242
*5699 _1308_
*5700 _1308__240
*5701 _1309_
*5702 _1309__237
*5703 _1310_
*5704 _1310__233
*5705 _1311_
*5706 _1311__229
*5707 _1312_
*5708 _1312__225
*5709 _1313_
*5710 _1313__221
*5711 _1314_
*5712 _1314__217
*5713 _1315_
*5714 _1315__213
*5715 _1316_
*5716 _1316__209
*5717 _1317_
*5718 _1317__205
*5719 _1318_
*5720 _1318__201
*5721 _1319_
*5722 _1319__197
*5723 _1320_
*5724 _1320__193
*5725 _1321_
*5726 _1321__189
*5727 _1322_
*5728 _1322__185
*5729 _1323_
*5730 _1323__181
*5731 _1324_
*5732 _1324__177
*5733 _1325_
*5734 _1325__173
*5735 _1326_
*5736 _1326__171
*5737 _1327_
*5738 _1327__169
*5739 _1328_
*5740 _1328__165
*5741 _1329_
*5742 _1329__161
*5743 _1330_
*5744 _1330__317
*5745 _1331_
*5746 _1331__313
*5747 _1332_
*5748 _1332__309
*5749 _1333_
*5750 _1333__305
*5751 _1334_
*5752 _1334__301
*5753 _1335_
*5754 _1335__297
*5755 _1336_
*5756 _1336__293
*5757 _1337_
*5758 _1337__289
*5759 _1338_
*5760 _1338__285
*5761 _1339_
*5762 _1339__281
*5763 _1340_
*5764 _1340__277
*5765 _1341_
*5766 _1341__273
*5767 _1342_
*5768 _1342__269
*5769 _1343_
*5770 _1343__265
*5771 _1344_
*5772 _1344__261
*5773 _1345_
*5774 _1345__257
*5775 _1346_
*5776 _1346__253
*5777 _1347_
*5778 _1347__249
*5779 _1348_
*5780 _1348__245
*5781 _1349_
*5782 _1349__241
*5783 _1350_
*5784 _1350__235
*5785 _1351_
*5786 _1351__227
*5787 _1352_
*5788 _1352__219
*5789 _1353_
*5790 _1353__211
*5791 _1354_
*5792 _1354__203
*5793 _1355_
*5794 _1355__195
*5795 _1356_
*5796 _1356__187
*5797 _1357_
*5798 _1357__179
*5799 _1358_
*5800 _1358__167
*5801 _1359_
*5802 _1359__319
*5803 _1360_
*5804 _1360__311
*5805 _1361_
*5806 _1361__303
*5807 _1362_
*5808 _1362__299
*5809 _1363_
*5810 _1363__291
*5811 _1364_
*5812 _1364__283
*5813 _1365_
*5814 _1365__275
*5815 _1366_
*5816 _1366__267
*5817 _1367_
*5818 _1367__259
*5819 _1368_
*5820 _1368__251
*5821 _1369_
*5822 _1369__243
*5823 _1370_
*5824 _1370__231
*5825 _1371_
*5826 _1371__215
*5827 _1372_
*5828 _1372__199
*5829 _1373_
*5830 _1373__183
*5831 _1374_
*5832 _1374__163
*5833 _1375_
*5834 _1375__307
*5835 _1376_
*5836 _1376__287
*5837 _1377_
*5838 _1377__271
*5839 _1378_
*5840 _1378__255
*5841 _1379_
*5842 _1379__239
*5843 _1380_
*5844 _1380__207
*5845 _1381_
*5846 _1381__175
*5847 _1382_
*5848 _1382__295
*5849 _1383_
*5850 _1383__263
*5851 _1384_
*5852 _1384__223
*5853 _1385_
*5854 _1385__315
*5855 _1386_
*5856 _1386__247
*5857 _1387_
*5858 _1387__321
*5859 _1388_
*5860 _1388__322
*5861 _1389_
*5862 _1389__323
*5863 _1390_
*5864 _1390__324
*5865 _1391_
*5866 _1391__325
*5867 _1392_
*5868 _1392__326
*5869 _1393_
*5870 _1393__327
*5871 _1394_
*5872 _1394__328
*5873 _1395_
*5874 _1395__329
*5875 _1396_
*5876 _1396__191
*5877 _1397_
*5878 _1397__279
*5879 boot_spi_macro
*5880 boot_spi_macro_159
*5881 clkbuf_0_clk_i
*5882 clkbuf_4_0_0_clk_i
*5883 clkbuf_4_10_0_clk_i
*5884 clkbuf_4_11_0_clk_i
*5885 clkbuf_4_12_0_clk_i
*5886 clkbuf_4_13_0_clk_i
*5887 clkbuf_4_14_0_clk_i
*5888 clkbuf_4_15_0_clk_i
*5889 clkbuf_4_1_0_clk_i
*5890 clkbuf_4_2_0_clk_i
*5891 clkbuf_4_3_0_clk_i
*5892 clkbuf_4_4_0_clk_i
*5893 clkbuf_4_5_0_clk_i
*5894 clkbuf_4_6_0_clk_i
*5895 clkbuf_4_7_0_clk_i
*5896 clkbuf_4_8_0_clk_i
*5897 clkbuf_4_9_0_clk_i
*5898 clkbuf_5_0__f_clk_i
*5899 clkbuf_5_10__f_clk_i
*5900 clkbuf_5_11__f_clk_i
*5901 clkbuf_5_12__f_clk_i
*5902 clkbuf_5_13__f_clk_i
*5903 clkbuf_5_14__f_clk_i
*5904 clkbuf_5_15__f_clk_i
*5905 clkbuf_5_16__f_clk_i
*5906 clkbuf_5_17__f_clk_i
*5907 clkbuf_5_18__f_clk_i
*5908 clkbuf_5_19__f_clk_i
*5909 clkbuf_5_1__f_clk_i
*5910 clkbuf_5_20__f_clk_i
*5911 clkbuf_5_21__f_clk_i
*5912 clkbuf_5_22__f_clk_i
*5913 clkbuf_5_23__f_clk_i
*5914 clkbuf_5_24__f_clk_i
*5915 clkbuf_5_25__f_clk_i
*5916 clkbuf_5_26__f_clk_i
*5917 clkbuf_5_27__f_clk_i
*5918 clkbuf_5_28__f_clk_i
*5919 clkbuf_5_29__f_clk_i
*5920 clkbuf_5_2__f_clk_i
*5921 clkbuf_5_30__f_clk_i
*5922 clkbuf_5_31__f_clk_i
*5923 clkbuf_5_3__f_clk_i
*5924 clkbuf_5_4__f_clk_i
*5925 clkbuf_5_5__f_clk_i
*5926 clkbuf_5_6__f_clk_i
*5927 clkbuf_5_7__f_clk_i
*5928 clkbuf_5_8__f_clk_i
*5929 clkbuf_5_9__f_clk_i
*5930 clkload0
*5931 clkload1
*5932 clkload2
*5933 clkload3
*5934 clkload4
*5935 clkload5
*5936 clkload6
*5937 clkload7
*5938 clkload8
*5939 clkload9
*5940 fanout100
*5941 fanout101
*5942 fanout102
*5943 fanout103
*5944 fanout104
*5945 fanout105
*5946 fanout106
*5947 fanout107
*5948 fanout108
*5949 fanout109
*5950 fanout110
*5951 fanout111
*5952 fanout112
*5953 fanout113
*5954 fanout114
*5955 fanout115
*5956 fanout116
*5957 fanout117
*5958 fanout118
*5959 fanout119
*5960 fanout120
*5961 fanout121
*5962 fanout122
*5963 fanout123
*5964 fanout124
*5965 fanout125
*5966 fanout126
*5967 fanout127
*5968 fanout128
*5969 fanout129
*5970 fanout130
*5971 fanout131
*5972 fanout132
*5973 fanout133
*5974 fanout134
*5975 fanout135
*5976 fanout136
*5977 fanout137
*5978 fanout138
*5979 fanout139
*5980 fanout140
*5981 fanout141
*5982 fanout142
*5983 fanout143
*5984 fanout144
*5985 fanout145
*5986 fanout146
*5987 fanout147
*5988 fanout148
*5989 fanout149
*5990 fanout150
*5991 fanout151
*5992 fanout152
*5993 fanout153
*5994 fanout154
*5995 fanout155
*5996 fanout156
*5997 fanout157
*5998 fanout158
*5999 fanout71
*6000 fanout72
*6001 fanout73
*6002 fanout74
*6003 fanout75
*6004 fanout76
*6005 fanout77
*6006 fanout78
*6007 fanout79
*6008 fanout80
*6009 fanout81
*6010 fanout82
*6011 fanout83
*6012 fanout84
*6013 fanout85
*6014 fanout86
*6015 fanout87
*6016 fanout88
*6017 fanout89
*6018 fanout90
*6019 fanout91
*6020 fanout92
*6021 fanout93
*6022 fanout94
*6023 fanout95
*6024 fanout96
*6025 fanout97
*6026 fanout98
*6027 fanout99
*6028 hold330
*6029 hold331
*6030 hold332
*6031 hold333
*6032 hold334
*6033 hold335
*6034 hold336
*6035 hold337
*6036 hold338
*6037 hold339
*6038 hold340
*6039 hold341
*6040 hold342
*6041 hold343
*6042 hold344
*6043 hold345
*6044 hold346
*6045 hold347
*6046 hold348
*6047 hold349
*6048 hold350
*6049 hold351
*6050 hold352
*6051 hold353
*6052 hold354
*6053 hold355
*6054 hold356
*6055 hold357
*6056 hold358
*6057 hold359
*6058 hold360
*6059 hold361
*6060 hold362
*6061 hold363
*6062 hold364
*6063 hold365
*6064 hold366
*6065 hold367
*6066 hold368
*6067 hold369
*6068 hold370
*6069 hold371
*6070 hold372
*6071 hold373
*6072 hold374
*6073 hold375
*6074 hold376
*6075 hold377
*6076 hold378
*6077 hold379
*6078 input1
*6079 input2
*6080 output10
*6081 output11
*6082 output12
*6083 output13
*6084 output14
*6085 output15
*6086 output16
*6087 output17
*6088 output18
*6089 output19
*6090 output20
*6091 output21
*6092 output22
*6093 output23
*6094 output24
*6095 output25
*6096 output26
*6097 output27
*6098 output28
*6099 output29
*6100 output3
*6101 output30
*6102 output31
*6103 output32
*6104 output33
*6105 output34
*6106 output35
*6107 output36
*6108 output37
*6109 output38
*6110 output39
*6111 output4
*6112 output40
*6113 output41
*6114 output42
*6115 output43
*6116 output44
*6117 output45
*6118 output46
*6119 output47
*6120 output48
*6121 output49
*6122 output5
*6123 output50
*6124 output51
*6125 output52
*6126 output53
*6127 output54
*6128 output55
*6129 output56
*6130 output57
*6131 output58
*6132 output59
*6133 output6
*6134 output60
*6135 output61
*6136 output62
*6137 output63
*6138 output64
*6139 output65
*6140 output66
*6141 output67
*6142 output68
*6143 output69
*6144 output7
*6145 output70
*6146 output8
*6147 output9

*PORTS
boot_addr[0] O
boot_addr[10] O
boot_addr[11] O
boot_addr[12] O
boot_addr[13] O
boot_addr[14] O
boot_addr[15] O
boot_addr[16] O
boot_addr[17] O
boot_addr[18] O
boot_addr[19] O
boot_addr[1] O
boot_addr[20] O
boot_addr[21] O
boot_addr[22] O
boot_addr[23] O
boot_addr[24] O
boot_addr[25] O
boot_addr[26] O
boot_addr[27] O
boot_addr[28] O
boot_addr[29] O
boot_addr[2] O
boot_addr[30] O
boot_addr[31] O
boot_addr[3] O
boot_addr[4] O
boot_addr[5] O
boot_addr[6] O
boot_addr[7] O
boot_addr[8] O
boot_addr[9] O
boot_done O
boot_wdata[0] O
boot_wdata[10] O
boot_wdata[11] O
boot_wdata[12] O
boot_wdata[13] O
boot_wdata[14] O
boot_wdata[15] O
boot_wdata[16] O
boot_wdata[17] O
boot_wdata[18] O
boot_wdata[19] O
boot_wdata[1] O
boot_wdata[20] O
boot_wdata[21] O
boot_wdata[22] O
boot_wdata[23] O
boot_wdata[24] O
boot_wdata[25] O
boot_wdata[26] O
boot_wdata[27] O
boot_wdata[28] O
boot_wdata[29] O
boot_wdata[2] O
boot_wdata[30] O
boot_wdata[31] O
boot_wdata[3] O
boot_wdata[4] O
boot_wdata[5] O
boot_wdata[6] O
boot_wdata[7] O
boot_wdata[8] O
boot_wdata[9] O
boot_we O
clk_i I
cpu_rst_n O
rst_ni I
spi_cs_n O
spi_miso I
spi_mosi O
spi_sclk O

*D_NET *3 0.00136604
*CONN
*P boot_addr[0] O
*I *5879:L_LO O *D sg13g2_tielo
*CAP
1 boot_addr[0] 0.000683022
2 *5879:L_LO 0.000683022
*RES
1 *5879:L_LO boot_addr[0] 28.5181 
*END

*D_NET *4 0.0017845
*CONN
*P boot_addr[10] O
*I *6100:X O *D sg13g2_buf_1
*CAP
1 boot_addr[10] 0.00089225
2 *6100:X 0.00089225
3 boot_addr[10] boot_addr[11] 0
4 boot_addr[10] *6111:A 0
*RES
1 *6100:X boot_addr[10] 29.0537 
*END

*D_NET *5 0.00212131
*CONN
*P boot_addr[11] O
*I *6111:X O *D sg13g2_buf_1
*CAP
1 boot_addr[11] 0.00106065
2 *6111:X 0.00106065
3 boot_addr[11] boot_addr[4] 0
4 boot_addr[11] *6111:A 0
5 boot_addr[10] boot_addr[11] 0
*RES
1 *6111:X boot_addr[11] 29.0537 
*END

*D_NET *6 0.00145085
*CONN
*P boot_addr[12] O
*I *6122:X O *D sg13g2_buf_1
*CAP
1 boot_addr[12] 0.000725427
2 *6122:X 0.000725427
*RES
1 *6122:X boot_addr[12] 29.0537 
*END

*D_NET *7 0.00145085
*CONN
*P boot_addr[13] O
*I *6133:X O *D sg13g2_buf_1
*CAP
1 boot_addr[13] 0.000725427
2 *6133:X 0.000725427
*RES
1 *6133:X boot_addr[13] 29.0537 
*END

*D_NET *8 0.000667999
*CONN
*P boot_addr[14] O
*I *6144:X O *D sg13g2_buf_1
*CAP
1 boot_addr[14] 0.000333999
2 *6144:X 0.000333999
*RES
1 *6144:X boot_addr[14] 43.914 
*END

*D_NET *9 0.000531243
*CONN
*P boot_addr[15] O
*I *6146:X O *D sg13g2_buf_1
*CAP
1 boot_addr[15] 0.000265621
2 *6146:X 0.000265621
*RES
1 *6146:X boot_addr[15] 43.4814 
*END

*D_NET *10 0.000985014
*CONN
*P boot_addr[16] O
*I *6147:X O *D sg13g2_buf_1
*CAP
1 boot_addr[16] 0.00038785
2 *6147:X 0.00038785
3 boot_addr[16] *5119:A 0.000209315
4 boot_addr[16] *5119:B 0
*RES
1 *6147:X boot_addr[16] 44.7792 
*END

*D_NET *11 0.000795762
*CONN
*P boot_addr[17] O
*I *6080:X O *D sg13g2_buf_1
*CAP
1 boot_addr[17] 0.000397881
2 *6080:X 0.000397881
3 boot_addr[17] *6080:A 0
*RES
1 *6080:X boot_addr[17] 44.5629 
*END

*D_NET *12 0.00145085
*CONN
*P boot_addr[18] O
*I *6081:X O *D sg13g2_buf_1
*CAP
1 boot_addr[18] 0.000725427
2 *6081:X 0.000725427
3 boot_addr[18] boot_addr[3] 0
4 boot_addr[18] boot_addr[9] 0
*RES
1 *6081:X boot_addr[18] 29.0537 
*END

*D_NET *13 0.00180029
*CONN
*P boot_addr[19] O
*I *6082:X O *D sg13g2_buf_1
*CAP
1 boot_addr[19] 0.000889055
2 *6082:X 0.000889055
3 boot_addr[19] boot_addr[9] 0
4 boot_addr[19] *6081:A 2.21754e-05
*RES
1 *6082:X boot_addr[19] 29.0537 
*END

*D_NET *14 0.0016767
*CONN
*P boot_addr[1] O
*I *5880:L_LO O *D sg13g2_tielo
*CAP
1 boot_addr[1] 0.000838352
2 *5880:L_LO 0.000838352
3 boot_addr[1] boot_addr[22] 0
*RES
1 *5880:L_LO boot_addr[1] 28.5181 
*END

*D_NET *15 0.000533769
*CONN
*P boot_addr[20] O
*I *6083:X O *D sg13g2_buf_1
*CAP
1 boot_addr[20] 0.000266885
2 *6083:X 0.000266885
3 boot_addr[20] boot_addr[31] 0
*RES
1 *6083:X boot_addr[20] 43.4814 
*END

*D_NET *16 0.00136604
*CONN
*P boot_addr[21] O
*I *6084:X O *D sg13g2_buf_1
*CAP
1 boot_addr[21] 0.000683022
2 *6084:X 0.000683022
*RES
1 *6084:X boot_addr[21] 28.5181 
*END

*D_NET *17 0.00175499
*CONN
*P boot_addr[22] O
*I *6085:X O *D sg13g2_buf_1
*CAP
1 boot_addr[22] 0.000877495
2 *6085:X 0.000877495
3 boot_addr[22] spi_mosi 0
4 boot_addr[1] boot_addr[22] 0
*RES
1 *6085:X boot_addr[22] 29.0125 
*END

*D_NET *18 0.00136604
*CONN
*P boot_addr[23] O
*I *6086:X O *D sg13g2_buf_1
*CAP
1 boot_addr[23] 0.000683022
2 *6086:X 0.000683022
*RES
1 *6086:X boot_addr[23] 28.5181 
*END

*D_NET *19 0.00136604
*CONN
*P boot_addr[24] O
*I *6087:X O *D sg13g2_buf_1
*CAP
1 boot_addr[24] 0.000683022
2 *6087:X 0.000683022
*RES
1 *6087:X boot_addr[24] 28.5181 
*END

*D_NET *20 0.00071865
*CONN
*P boot_addr[25] O
*I *6088:X O *D sg13g2_buf_1
*CAP
1 boot_addr[25] 0.000359325
2 *6088:X 0.000359325
3 boot_addr[25] boot_addr[26] 0
*RES
1 *6088:X boot_addr[25] 43.4814 
*END

*D_NET *21 0.00110293
*CONN
*P boot_addr[26] O
*I *6089:X O *D sg13g2_buf_1
*CAP
1 boot_addr[26] 0.000551465
2 *6089:X 0.000551465
3 boot_addr[26] boot_addr[27] 0
4 boot_addr[25] boot_addr[26] 0
*RES
1 *6089:X boot_addr[26] 44.6865 
*END

*D_NET *22 0.000643587
*CONN
*P boot_addr[27] O
*I *6090:X O *D sg13g2_buf_1
*CAP
1 boot_addr[27] 0.000321793
2 *6090:X 0.000321793
3 boot_addr[26] boot_addr[27] 0
*RES
1 *6090:X boot_addr[27] 43.1621 
*END

*D_NET *23 0.00075875
*CONN
*P boot_addr[28] O
*I *6091:X O *D sg13g2_buf_1
*CAP
1 boot_addr[28] 0.000379375
2 *6091:X 0.000379375
*RES
1 *6091:X boot_addr[28] 44.5629 
*END

*D_NET *24 0.000561418
*CONN
*P boot_addr[29] O
*I *6092:X O *D sg13g2_buf_1
*CAP
1 boot_addr[29] 0.000280709
2 *6092:X 0.000280709
3 boot_addr[29] *6092:A 0
*RES
1 *6092:X boot_addr[29] 43.4814 
*END

*D_NET *25 0.00172134
*CONN
*P boot_addr[2] O
*I *6093:X O *D sg13g2_buf_1
*CAP
1 boot_addr[2] 0.000721667
2 *6093:X 0.000139003
3 *25:8 0.00086067
4 boot_addr[2] spi_cs_n 0
*RES
1 *6093:X *25:8 41.5862 
2 *25:8 boot_addr[2] 28.7035 
*END

*D_NET *26 0.000761625
*CONN
*P boot_addr[30] O
*I *6094:X O *D sg13g2_buf_1
*CAP
1 boot_addr[30] 0.000380813
2 *6094:X 0.000380813
3 boot_addr[30] *5145:B1 0
*RES
1 *6094:X boot_addr[30] 44.5629 
*END

*D_NET *27 0.00128284
*CONN
*P boot_addr[31] O
*I *6095:X O *D sg13g2_buf_1
*CAP
1 boot_addr[31] 0.000455599
2 *6095:X 0.000455599
3 boot_addr[31] *820:14 0.000371644
4 boot_addr[20] boot_addr[31] 0
*RES
1 *6095:X boot_addr[31] 45.6444 
*END

*D_NET *28 0.00145085
*CONN
*P boot_addr[3] O
*I *6096:X O *D sg13g2_buf_1
*CAP
1 boot_addr[3] 0.000725427
2 *6096:X 0.000725427
3 boot_addr[18] boot_addr[3] 0
*RES
1 *6096:X boot_addr[3] 29.0537 
*END

*D_NET *29 0.00178224
*CONN
*P boot_addr[4] O
*I *6097:X O *D sg13g2_buf_1
*CAP
1 boot_addr[4] 0.00089112
2 *6097:X 0.00089112
3 boot_addr[11] boot_addr[4] 0
*RES
1 *6097:X boot_addr[4] 29.0537 
*END

*D_NET *30 0.00146358
*CONN
*P boot_addr[5] O
*I *6098:X O *D sg13g2_buf_1
*CAP
1 boot_addr[5] 0.000731788
2 *6098:X 0.000731788
*RES
1 *6098:X boot_addr[5] 29.0537 
*END

*D_NET *31 0.00194831
*CONN
*P boot_addr[6] O
*I *6099:X O *D sg13g2_buf_1
*CAP
1 boot_addr[6] 0.000856625
2 *6099:X 0.000856625
3 boot_addr[6] boot_addr[8] 0
4 boot_addr[6] spi_cs_n 0
5 boot_addr[6] *6093:A 0
6 boot_addr[6] *864:36 0.00023506
*RES
1 *6099:X boot_addr[6] 26.2681 
*END

*D_NET *32 0.00145085
*CONN
*P boot_addr[7] O
*I *6101:X O *D sg13g2_buf_1
*CAP
1 boot_addr[7] 0.000725427
2 *6101:X 0.000725427
*RES
1 *6101:X boot_addr[7] 29.0537 
*END

*D_NET *33 0.00145085
*CONN
*P boot_addr[8] O
*I *6102:X O *D sg13g2_buf_1
*CAP
1 boot_addr[8] 0.000725427
2 *6102:X 0.000725427
3 boot_addr[8] boot_done 0
4 boot_addr[6] boot_addr[8] 0
*RES
1 *6102:X boot_addr[8] 29.0537 
*END

*D_NET *34 0.00181268
*CONN
*P boot_addr[9] O
*I *6103:X O *D sg13g2_buf_1
*CAP
1 boot_addr[9] 0.000895255
2 *6103:X 0.000895255
3 boot_addr[9] *6081:A 2.21754e-05
4 boot_addr[18] boot_addr[9] 0
5 boot_addr[19] boot_addr[9] 0
*RES
1 *6103:X boot_addr[9] 29.0537 
*END

*D_NET *35 0.00145085
*CONN
*P boot_done O
*I *6104:X O *D sg13g2_buf_1
*CAP
1 boot_done 0.000725427
2 *6104:X 0.000725427
3 boot_addr[8] boot_done 0
*RES
1 *6104:X boot_done 29.0537 
*END

*D_NET *36 0.00122324
*CONN
*P boot_wdata[0] O
*I *6105:X O *D sg13g2_buf_1
*CAP
1 boot_wdata[0] 0.000556122
2 *6105:X 0.000556122
3 boot_wdata[0] boot_wdata[10] 0.000110994
4 boot_wdata[0] *6106:A 0
5 boot_wdata[0] *931:10 0
*RES
1 *6105:X boot_wdata[0] 46.4401 
*END

*D_NET *37 0.000821891
*CONN
*P boot_wdata[10] O
*I *6106:X O *D sg13g2_buf_1
*CAP
1 boot_wdata[10] 0.000355449
2 *6106:X 0.000355449
3 boot_wdata[0] boot_wdata[10] 0.000110994
*RES
1 *6106:X boot_wdata[10] 44.0608 
*END

*D_NET *38 0.00138372
*CONN
*P boot_wdata[11] O
*I *6107:X O *D sg13g2_buf_1
*CAP
1 boot_wdata[11] 0.000691862
2 *6107:X 0.000691862
3 boot_wdata[11] boot_wdata[28] 0
4 boot_wdata[11] *6028:A 0
5 boot_wdata[11] *942:8 0
6 boot_wdata[11] *987:25 0
*RES
1 *6107:X boot_wdata[11] 46.7388 
*END

*D_NET *39 0.000876386
*CONN
*P boot_wdata[12] O
*I *6108:X O *D sg13g2_buf_1
*CAP
1 boot_wdata[12] 0.000403565
2 *6108:X 0.000403565
3 boot_wdata[12] boot_wdata[20] 4.7062e-05
4 boot_wdata[12] *973:8 2.21949e-05
*RES
1 *6108:X boot_wdata[12] 44.0608 
*END

*D_NET *40 0.00107391
*CONN
*P boot_wdata[13] O
*I *6109:X O *D sg13g2_buf_1
*CAP
1 boot_wdata[13] 0.000536954
2 *6109:X 0.000536954
3 boot_wdata[13] boot_wdata[29] 0
4 boot_wdata[13] *6128:A 0
5 boot_wdata[13] *624:32 0
*RES
1 *6109:X boot_wdata[13] 45.3792 
*END

*D_NET *41 0.00136604
*CONN
*P boot_wdata[14] O
*I *6110:X O *D sg13g2_buf_1
*CAP
1 boot_wdata[14] 0.000683022
2 *6110:X 0.000683022
*RES
1 *6110:X boot_wdata[14] 28.5181 
*END

*D_NET *42 0.00142166
*CONN
*P boot_wdata[15] O
*I *6112:X O *D sg13g2_buf_1
*CAP
1 boot_wdata[15] 0.000710829
2 *6112:X 0.000710829
3 boot_wdata[15] boot_wdata[23] 0
*RES
1 *6112:X boot_wdata[15] 28.5181 
*END

*D_NET *43 0.000904031
*CONN
*P boot_wdata[16] O
*I *6113:X O *D sg13g2_buf_1
*CAP
1 boot_wdata[16] 0.000334287
2 *6113:X 0.000334287
3 boot_wdata[16] boot_wdata[26] 0
4 boot_wdata[16] *968:10 0.000235457
*RES
1 *6113:X boot_wdata[16] 44.514 
*END

*D_NET *44 0.00137915
*CONN
*P boot_wdata[17] O
*I *6114:X O *D sg13g2_buf_1
*CAP
1 boot_wdata[17] 0.000689575
2 *6114:X 0.000689575
3 boot_wdata[17] boot_wdata[24] 0
4 boot_wdata[17] boot_wdata[25] 0
5 boot_wdata[17] *6124:A 0
6 boot_wdata[17] *978:10 0
*RES
1 *6114:X boot_wdata[17] 46.0075 
*END

*D_NET *45 0.000677839
*CONN
*P boot_wdata[18] O
*I *6115:X O *D sg13g2_buf_1
*CAP
1 boot_wdata[18] 0.000338919
2 *6115:X 0.000338919
*RES
1 *6115:X boot_wdata[18] 43.9578 
*END

*D_NET *46 0.000673365
*CONN
*P boot_wdata[19] O
*I *6116:X O *D sg13g2_buf_1
*CAP
1 boot_wdata[19] 0.000336682
2 *6116:X 0.000336682
*RES
1 *6116:X boot_wdata[19] 44.0608 
*END

*D_NET *47 0.00145731
*CONN
*P boot_wdata[1] O
*I *6117:X O *D sg13g2_buf_1
*CAP
1 boot_wdata[1] 0.000728656
2 *6117:X 0.000728656
*RES
1 *6117:X boot_wdata[1] 29.0537 
*END

*D_NET *48 0.00143092
*CONN
*P boot_wdata[20] O
*I *6118:X O *D sg13g2_buf_1
*CAP
1 boot_wdata[20] 0.000691928
2 *6118:X 0.000691928
3 boot_wdata[20] boot_wdata[4] 0
4 boot_wdata[12] boot_wdata[20] 4.7062e-05
*RES
1 *6118:X boot_wdata[20] 46.0075 
*END

*D_NET *49 0.000546256
*CONN
*P boot_wdata[21] O
*I *6119:X O *D sg13g2_buf_1
*CAP
1 boot_wdata[21] 0.000273128
2 *6119:X 0.000273128
3 boot_wdata[21] boot_wdata[5] 0
*RES
1 *6119:X boot_wdata[21] 43.5252 
*END

*D_NET *50 0.0016767
*CONN
*P boot_wdata[22] O
*I *6120:X O *D sg13g2_buf_1
*CAP
1 boot_wdata[22] 0.000838352
2 *6120:X 0.000838352
3 boot_wdata[22] boot_wdata[30] 0
*RES
1 *6120:X boot_wdata[22] 28.5181 
*END

*D_NET *51 0.00142166
*CONN
*P boot_wdata[23] O
*I *6121:X O *D sg13g2_buf_1
*CAP
1 boot_wdata[23] 0.000710829
2 *6121:X 0.000710829
3 boot_wdata[15] boot_wdata[23] 0
*RES
1 *6121:X boot_wdata[23] 28.5181 
*END

*D_NET *52 0.000696329
*CONN
*P boot_wdata[24] O
*I *6123:X O *D sg13g2_buf_1
*CAP
1 boot_wdata[24] 0.000348164
2 *6123:X 0.000348164
3 boot_wdata[17] boot_wdata[24] 0
*RES
1 *6123:X boot_wdata[24] 43.5252 
*END

*D_NET *53 0.00122628
*CONN
*P boot_wdata[25] O
*I *6124:X O *D sg13g2_buf_1
*CAP
1 boot_wdata[25] 0.000613138
2 *6124:X 0.000613138
3 boot_wdata[25] *6123:A 0
4 boot_wdata[25] *6124:A 0
5 boot_wdata[25] *978:10 0
6 boot_wdata[17] boot_wdata[25] 0
*RES
1 *6124:X boot_wdata[25] 45.8118 
*END

*D_NET *54 0.00119197
*CONN
*P boot_wdata[26] O
*I *6125:X O *D sg13g2_buf_1
*CAP
1 boot_wdata[26] 0.000475968
2 *6125:X 0.000475968
3 boot_wdata[26] boot_wdata[8] 0
4 boot_wdata[26] *6125:A 0.000240035
5 boot_wdata[16] boot_wdata[26] 0
*RES
1 *6125:X boot_wdata[26] 44.823 
*END

*D_NET *55 0.000767381
*CONN
*P boot_wdata[27] O
*I *6126:X O *D sg13g2_buf_1
*CAP
1 boot_wdata[27] 0.00038369
2 *6126:X 0.00038369
3 boot_wdata[27] boot_wdata[2] 0
*RES
1 *6126:X boot_wdata[27] 44.3904 
*END

*D_NET *56 0.00136401
*CONN
*P boot_wdata[28] O
*I *6127:X O *D sg13g2_buf_1
*CAP
1 boot_wdata[28] 0.000682007
2 *6127:X 0.000682007
3 boot_wdata[28] boot_wdata[3] 0
4 boot_wdata[28] *6079:A 0
5 boot_wdata[28] *6127:A 0
6 boot_wdata[11] boot_wdata[28] 0
*RES
1 *6127:X boot_wdata[28] 46.1826 
*END

*D_NET *57 0.000906058
*CONN
*P boot_wdata[29] O
*I *6128:X O *D sg13g2_buf_1
*CAP
1 boot_wdata[29] 0.000397284
2 *6128:X 0.000397284
3 boot_wdata[29] *6128:A 0.000111491
4 boot_wdata[13] boot_wdata[29] 0
*RES
1 *6128:X boot_wdata[29] 43.9578 
*END

*D_NET *58 0.000689423
*CONN
*P boot_wdata[2] O
*I *6129:X O *D sg13g2_buf_1
*CAP
1 boot_wdata[2] 0.000305003
2 *6129:X 0.000305003
3 boot_wdata[2] *981:21 7.94174e-05
4 boot_wdata[27] boot_wdata[2] 0
*RES
1 *6129:X boot_wdata[2] 43.7415 
*END

*D_NET *59 0.00176974
*CONN
*P boot_wdata[30] O
*I *6130:X O *D sg13g2_buf_1
*CAP
1 boot_wdata[30] 0.000884869
2 *6130:X 0.000884869
3 boot_wdata[30] boot_wdata[7] 0
4 boot_wdata[22] boot_wdata[30] 0
*RES
1 *6130:X boot_wdata[30] 29.0125 
*END

*D_NET *60 0.00074712
*CONN
*P boot_wdata[31] O
*I *6131:X O *D sg13g2_buf_1
*CAP
1 boot_wdata[31] 0.000317814
2 *6131:X 0.000317814
3 boot_wdata[31] *6131:A 0.000111491
*RES
1 *6131:X boot_wdata[31] 43.9578 
*END

*D_NET *61 0.00129902
*CONN
*P boot_wdata[3] O
*I *6132:X O *D sg13g2_buf_1
*CAP
1 boot_wdata[3] 0.000366244
2 *6132:X 0.000163165
3 *61:8 0.000529409
4 boot_wdata[3] *6079:A 0.000240202
5 boot_wdata[28] boot_wdata[3] 0
*RES
1 *6132:X *61:8 41.5862 
2 *61:8 boot_wdata[3] 44.3286 
*END

*D_NET *62 0.000854229
*CONN
*P boot_wdata[4] O
*I *6134:X O *D sg13g2_buf_1
*CAP
1 boot_wdata[4] 0.000427114
2 *6134:X 0.000427114
3 boot_wdata[20] boot_wdata[4] 0
*RES
1 *6134:X boot_wdata[4] 44.514 
*END

*D_NET *63 0.00107765
*CONN
*P boot_wdata[5] O
*I *6135:X O *D sg13g2_buf_1
*CAP
1 boot_wdata[5] 0.000420094
2 *6135:X 0.000420094
3 boot_wdata[5] spi_sclk 0.000237462
4 boot_wdata[5] *679:35 0
5 boot_wdata[21] boot_wdata[5] 0
*RES
1 *6135:X boot_wdata[5] 44.9363 
*END

*D_NET *64 0.00136604
*CONN
*P boot_wdata[6] O
*I *6136:X O *D sg13g2_buf_1
*CAP
1 boot_wdata[6] 0.000683022
2 *6136:X 0.000683022
*RES
1 *6136:X boot_wdata[6] 28.5181 
*END

*D_NET *65 0.00164927
*CONN
*P boot_wdata[7] O
*I *6137:X O *D sg13g2_buf_1
*CAP
1 boot_wdata[7] 0.000824634
2 *6137:X 0.000824634
3 boot_wdata[30] boot_wdata[7] 0
*RES
1 *6137:X boot_wdata[7] 30.4751 
*END

*D_NET *66 0.00102374
*CONN
*P boot_wdata[8] O
*I *6138:X O *D sg13g2_buf_1
*CAP
1 boot_wdata[8] 0.00051187
2 *6138:X 0.00051187
3 boot_wdata[8] boot_wdata[9] 0
4 boot_wdata[8] *994:21 0
5 boot_wdata[26] boot_wdata[8] 0
*RES
1 *6138:X boot_wdata[8] 44.1947 
*END

*D_NET *67 0.000854935
*CONN
*P boot_wdata[9] O
*I *6139:X O *D sg13g2_buf_1
*CAP
1 boot_wdata[9] 0.000387609
2 *6139:X 0.000387609
3 boot_wdata[9] *6125:A 7.97181e-05
4 boot_wdata[8] boot_wdata[9] 0
*RES
1 *6139:X boot_wdata[9] 43.7415 
*END

*D_NET *68 0.000825355
*CONN
*P boot_we O
*I *6140:X O *D sg13g2_buf_1
*CAP
1 boot_we 0.000412677
2 *6140:X 0.000412677
*RES
1 *6140:X boot_we 44.7097 
*END

*D_NET *69 0.0233227
*CONN
*P clk_i I
*I *5881:A I *D sg13g2_buf_8
*CAP
1 clk_i 0.000310358
2 *5881:A 0.000168908
3 *69:34 0.00352186
4 *69:28 0.00358794
5 *69:22 0.00307705
6 *69:10 0.00759414
7 *69:8 0.00506244
8 *5881:A *605:6 0
9 *5881:A *700:52 0
10 *69:10 *5430:S 0
11 *69:10 *1027:26 0
12 *69:10 *1027:54 0
13 *69:10 *1028:22 0
14 *69:10 *1028:37 0
15 *69:22 *5396:A1 0
16 *69:22 *5501:A 0
17 *69:22 *5501:C 0
18 *69:22 *5501:D 0
19 *69:22 *5831:RESET_B 0
20 *69:22 *5924:A 0
21 *69:22 *232:10 0
22 *69:22 *648:67 0
23 *69:22 *680:32 0
24 *69:22 *693:73 0
25 *69:22 *714:26 0
26 *69:22 *1001:28 0
27 *69:22 *1008:27 0
28 *69:22 *1008:29 0
29 *69:22 *1024:73 0
30 *69:22 *1132:27 0
31 *69:28 *680:26 0
32 *69:28 *1008:87 0
33 *69:34 *5482:A2 0
34 *69:34 *5819:RESET_B 0
35 *69:34 *5819:CLK 0
36 *69:34 *5825:RESET_B 0
37 *69:34 *605:6 0
38 *69:34 *605:35 0
39 *69:34 *605:43 0
40 *69:34 *651:14 0
41 *69:34 *651:27 0
42 *69:34 *700:52 0
43 *69:34 *1032:20 0
*RES
1 clk_i *69:8 3.98868 
2 *69:8 *69:10 57.2062 
3 *69:10 *69:22 48.1355 
4 *69:22 *69:28 42.0806 
5 *69:28 *69:34 32.1978 
6 *69:34 *5881:A 21.8128 
*END

*D_NET *70 0.00145085
*CONN
*P cpu_rst_n O
*I *6141:X O *D sg13g2_buf_1
*CAP
1 cpu_rst_n 0.000725427
2 *6141:X 0.000725427
*RES
1 *6141:X cpu_rst_n 29.0537 
*END

*D_NET *71 0.000694929
*CONN
*P rst_ni I
*I *6078:A I *D sg13g2_buf_1
*CAP
1 rst_ni 0.000347465
2 *6078:A 0.000347465
3 *6078:A *654:10 0
*RES
1 rst_ni *6078:A 44.1303 
*END

*D_NET *72 0.00206799
*CONN
*P spi_cs_n O
*I *6142:X O *D sg13g2_buf_1
*CAP
1 spi_cs_n 0.000880416
2 *6142:X 0.000129624
3 *72:8 0.00101004
4 spi_cs_n *5995:A 4.79124e-05
5 spi_cs_n *6093:A 0
6 spi_cs_n *864:36 0
7 *72:8 *798:8 0
8 boot_addr[2] spi_cs_n 0
9 boot_addr[6] spi_cs_n 0
*RES
1 *6142:X *72:8 41.339 
2 *72:8 spi_cs_n 30.0219 
*END

*D_NET *73 0.000934618
*CONN
*P spi_miso I
*I *6028:A I *D sg13g2_dlygate4sd3_1
*CAP
1 spi_miso 0.000467309
2 *6028:A 0.000467309
3 *6028:A *5759:CLK 0
4 boot_wdata[11] *6028:A 0
*RES
1 spi_miso *6028:A 45.6882 
*END

*D_NET *74 0.00137042
*CONN
*P spi_mosi O
*I *6143:X O *D sg13g2_buf_1
*CAP
1 spi_mosi 0.00068521
2 *6143:X 0.00068521
3 boot_addr[22] spi_mosi 0
*RES
1 *6143:X spi_mosi 28.5181 
*END

*D_NET *75 0.000794975
*CONN
*P spi_sclk O
*I *6145:X O *D sg13g2_buf_1
*CAP
1 spi_sclk 0.000278756
2 *6145:X 0.000278756
3 boot_wdata[5] spi_sclk 0.000237462
*RES
1 *6145:X spi_sclk 43.2059 
*END

*D_NET *76 9.88052e-05
*CONN
*I *5861:D I *D sg13g2_dfrbpq_1
*I *5032:X O *D sg13g2_and2_1
*CAP
1 *5861:D 4.94026e-05
2 *5032:X 4.94026e-05
*RES
1 *5032:X *5861:D 40.5974 
*END

*D_NET *77 0.000227419
*CONN
*I *5869:D I *D sg13g2_dfrbpq_1
*I *5031:X O *D sg13g2_and2_1
*CAP
1 *5869:D 0.000113709
2 *5031:X 0.000113709
3 *5869:D *5031:A 0
4 *5869:D *657:14 0
*RES
1 *5031:X *5869:D 41.1845 
*END

*D_NET *78 0.00136493
*CONN
*I *5877:D I *D sg13g2_dfrbpq_1
*I *5030:Y O *D sg13g2_nor2_1
*CAP
1 *5877:D 0.000561543
2 *5030:Y 0.000561543
3 *5877:D *5030:B 0
4 *5877:D *715:112 0
5 *5877:D *1020:25 0
6 *5877:D *1020:34 0
7 *5877:D *1043:8 0.000241847
*RES
1 *5030:Y *5877:D 45.6547 
*END

*D_NET *79 0.015018
*CONN
*I *5983:A I *D sg13g2_buf_1
*I *5979:A I *D sg13g2_buf_1
*I *5027:Y O *D sg13g2_inv_1
*CAP
1 *5983:A 0.00058788
2 *5979:A 0
3 *5027:Y 0.000547092
4 *79:32 0.00106497
5 *79:18 0.000309713
6 *79:12 0.00443885
7 *79:6 0.00419914
8 *5983:A *611:27 0
9 *5983:A *889:8 0.000129163
10 *79:12 *5386:A0 0
11 *79:12 *5386:A1 0.000111917
12 *79:12 *5386:S 0
13 *79:12 *5387:A 0
14 *79:12 *5387:B 0
15 *79:12 *5515:A 0
16 *79:12 *5841:RESET_B 0
17 *79:12 *5981:A 0.000144181
18 *79:12 *237:10 0
19 *79:12 *590:12 4.77425e-05
20 *79:12 *638:59 0
21 *79:12 *672:80 0
22 *79:12 *701:10 7.97992e-05
23 *79:12 *972:27 0
24 *79:12 *1020:25 0
25 *79:12 *1034:14 0.000423812
26 *79:12 *1034:29 0
27 *79:12 *1044:6 0
28 *79:12 *1044:56 0
29 *79:18 *5513:B 0.000765363
30 *79:18 *5514:B 0.000819754
31 *79:18 *586:111 0.00026591
32 *79:18 *590:12 7.49633e-05
33 *79:18 *1033:16 0.000182216
34 *79:32 *716:73 0.000825514
35 *79:32 *972:27 0
*RES
1 *5027:Y *79:6 20.8446 
2 *79:6 *79:12 40.788 
3 *79:12 *79:18 45.7886 
4 *79:18 *5979:A 20 
5 *5027:Y *79:32 45.5105 
6 *79:32 *5983:A 47.519 
*END

*D_NET *80 0.000737764
*CONN
*I *5863:D I *D sg13g2_dfrbpq_1
*I *5070:X O *D sg13g2_a21o_1
*CAP
1 *5863:D 0.000126569
2 *5070:X 0.000126569
3 *5863:D *715:39 0.000242313
4 *5863:D *1051:29 0.000242313
*RES
1 *5070:X *5863:D 41.6171 
*END

*D_NET *81 0.000633617
*CONN
*I *5865:D I *D sg13g2_dfrbpq_1
*I *5068:Y O *D sg13g2_inv_1
*CAP
1 *5865:D 0.000316809
2 *5068:Y 0.000316809
3 *5865:D *5733:CLK 0
4 *5865:D *5865:RESET_B 0
*RES
1 *5068:Y *5865:D 43.6977 
*END

*D_NET *82 0.000515171
*CONN
*I *5867:D I *D sg13g2_dfrbpq_1
*I *5066:Y O *D sg13g2_a21oi_1
*CAP
1 *5867:D 9.65432e-05
2 *5066:Y 9.65432e-05
3 *5867:D *292:12 0.000144816
4 *5867:D *700:12 0.000177268
5 *5867:D *718:22 0
*RES
1 *5066:Y *5867:D 41.1845 
*END

*D_NET *83 0.000375233
*CONN
*I *5871:D I *D sg13g2_dfrbpq_1
*I *5062:Y O *D sg13g2_a21oi_1
*CAP
1 *5871:D 0.000187617
2 *5062:Y 0.000187617
3 *5871:D *5450:C 0
4 *5871:D *700:6 0
5 *5871:D *718:20 0
*RES
1 *5062:Y *5871:D 41.9673 
*END

*D_NET *84 0.00195749
*CONN
*I *5873:D I *D sg13g2_dfrbpq_1
*I *5037:X O *D sg13g2_a21o_1
*CAP
1 *5873:D 0.000441306
2 *5037:X 8.81628e-05
3 *84:8 0.000529469
4 *5873:D *605:292 0
5 *5873:D *700:24 0.000663823
6 *84:8 *715:21 0.000234726
*RES
1 *5037:X *84:8 41.0918 
2 *84:8 *5873:D 44.429 
*END

*D_NET *85 0.00123266
*CONN
*I *5875:D I *D sg13g2_dfrbpq_1
*I *5035:X O *D sg13g2_a21o_1
*CAP
1 *5875:D 0
2 *5035:X 0.000616328
3 *85:10 0.000616328
4 *85:10 *5035:A2 0
5 *85:10 *5733:CLK 0
*RES
1 *5035:X *85:10 47.0967 
2 *85:10 *5875:D 40 
*END

*D_NET *86 0.000771343
*CONN
*I *6030:A I *D sg13g2_dlygate4sd3_1
*I *5074:Y O *D sg13g2_nor4_1
*CAP
1 *6030:A 0.000280853
2 *5074:Y 0.000280853
3 *6030:A *5073:A2 0
4 *6030:A *5074:D 0
5 *6030:A *5485:A 1.54008e-05
6 *6030:A *298:10 0
7 *6030:A *1042:6 0.000194236
*RES
1 *5074:Y *6030:A 43.0694 
*END

*D_NET *87 0.000229509
*CONN
*I *5541:D I *D sg13g2_dfrbpq_1
*I *5077:Y O *D sg13g2_nor2_1
*CAP
1 *5541:D 0.000114754
2 *5077:Y 0.000114754
3 *5541:D *6081:A 0
4 *5541:D *6082:A 0
5 *5541:D *716:10 0
*RES
1 *5077:Y *5541:D 41.1845 
*END

*D_NET *88 0.000448554
*CONN
*I *5543:D I *D sg13g2_dfrbpq_1
*I *5080:Y O *D sg13g2_nor2_1
*CAP
1 *5543:D 0.000224277
2 *5080:Y 0.000224277
3 *5543:D *5080:B 0
4 *5543:D *5543:RESET_B 0
*RES
1 *5080:Y *5543:D 42.6265 
*END

*D_NET *89 0.00102624
*CONN
*I *5545:D I *D sg13g2_dfrbpq_1
*I *5083:Y O *D sg13g2_nor2_1
*CAP
1 *5545:D 0
2 *5083:Y 0.000424491
3 *89:10 0.000424491
4 *89:10 *5082:A1 0
5 *89:10 *5083:A 0
6 *89:10 *5083:B 0.000177257
7 *89:10 *304:10 0
8 *89:10 *708:10 0
9 *89:10 *803:8 0
*RES
1 *5083:Y *89:10 44.9955 
2 *89:10 *5545:D 40 
*END

*D_NET *90 0.000185013
*CONN
*I *5547:D I *D sg13g2_dfrbpq_1
*I *5086:Y O *D sg13g2_nor2_1
*CAP
1 *5547:D 9.25066e-05
2 *5086:Y 9.25066e-05
3 *5547:D *5547:RESET_B 0
*RES
1 *5086:Y *5547:D 41.1639 
*END

*D_NET *91 0.0004795
*CONN
*I *5549:D I *D sg13g2_dfrbpq_1
*I *5089:Y O *D sg13g2_nor2_1
*CAP
1 *5549:D 0.00023205
2 *5089:Y 0.00023205
3 *5549:D *5087:B_N 1.54008e-05
4 *5549:D *5089:B 0
5 *5549:D *5549:RESET_B 0
6 *5549:D *665:68 0
7 *5549:D *666:28 0
*RES
1 *5089:Y *5549:D 42.6265 
*END

*D_NET *92 0.000467922
*CONN
*I *5551:D I *D sg13g2_dfrbpq_1
*I *5092:Y O *D sg13g2_nor2_1
*CAP
1 *5551:D 0.000233961
2 *5092:Y 0.000233961
3 *5551:D *667:44 0
4 *5551:D *997:28 0
*RES
1 *5092:Y *5551:D 42.0497 
*END

*D_NET *93 0.000334396
*CONN
*I *5553:D I *D sg13g2_dfrbpq_1
*I *5095:Y O *D sg13g2_nor2_1
*CAP
1 *5553:D 0.000167198
2 *5095:Y 0.000167198
3 *5553:D *643:17 0
4 *5553:D *718:20 0
*RES
1 *5095:Y *5553:D 41.7819 
*END

*D_NET *94 0.00035764
*CONN
*I *5555:D I *D sg13g2_dfrbpq_1
*I *5098:Y O *D sg13g2_nor2_1
*CAP
1 *5555:D 0.00017882
2 *5098:Y 0.00017882
3 *5555:D *5098:B 0
4 *5555:D *261:31 0
5 *5555:D *660:29 0
6 *5555:D *1086:10 0
*RES
1 *5098:Y *5555:D 41.7819 
*END

*D_NET *95 0.000282666
*CONN
*I *5557:D I *D sg13g2_dfrbpq_1
*I *5101:Y O *D sg13g2_nor2_1
*CAP
1 *5557:D 0.000141333
2 *5101:Y 0.000141333
3 *5557:D *5100:A2 0
4 *5557:D *6100:A 0
*RES
1 *5101:Y *5557:D 41.5347 
*END

*D_NET *96 0.000581776
*CONN
*I *5559:D I *D sg13g2_dfrbpq_1
*I *5104:Y O *D sg13g2_nor2_1
*CAP
1 *5559:D 0.000290888
2 *5104:Y 0.000290888
3 *5559:D *6100:A 0
4 *5559:D *6122:A 0
*RES
1 *5104:Y *5559:D 43.4711 
*END

*D_NET *97 0.000758209
*CONN
*I *5561:D I *D sg13g2_dfrbpq_1
*I *5107:Y O *D sg13g2_nor2_1
*CAP
1 *5561:D 0
2 *5107:Y 0.000379105
3 *97:10 0.000379105
4 *97:10 *5106:A2 0
*RES
1 *5107:Y *97:10 44.4393 
2 *97:10 *5561:D 40 
*END

*D_NET *98 0.0023902
*CONN
*I *5563:D I *D sg13g2_dfrbpq_1
*I *5110:Y O *D sg13g2_nor2_1
*CAP
1 *5563:D 0.000214431
2 *5110:Y 0.000135515
3 *98:8 0.000349946
4 *5563:D *5105:A 0
5 *5563:D *659:41 0
6 *5563:D *706:64 0.000307096
7 *98:8 *706:64 0.000662216
8 *98:8 *719:25 0.000720992
*RES
1 *5110:Y *98:8 43.3166 
2 *98:8 *5563:D 42.266 
*END

*D_NET *99 0.00130618
*CONN
*I *5565:D I *D sg13g2_dfrbpq_1
*I *5113:Y O *D sg13g2_nor2_1
*CAP
1 *5565:D 0.000450794
2 *5113:Y 0.000450794
3 *5565:D *5112:B1 0
4 *5565:D *5113:A 0.000404597
5 *5565:D *5565:RESET_B 0
*RES
1 *5113:Y *5565:D 45.3869 
*END

*D_NET *100 0.000956108
*CONN
*I *5567:D I *D sg13g2_dfrbpq_1
*I *5116:Y O *D sg13g2_nor2_1
*CAP
1 *5567:D 0
2 *5116:Y 0.000300797
3 *100:10 0.000300797
4 *100:10 *5116:A 0.000177257
5 *100:10 *5116:B 0.000177257
6 *100:10 *6146:A 0
7 *100:10 *709:14 0
*RES
1 *5116:Y *100:10 43.0179 
2 *100:10 *5567:D 40 
*END

*D_NET *101 0.000192008
*CONN
*I *5569:D I *D sg13g2_dfrbpq_1
*I *5119:Y O *D sg13g2_nor2_1
*CAP
1 *5569:D 9.6004e-05
2 *5119:Y 9.6004e-05
3 *5569:D *5118:B1 0
4 *5569:D *5119:B 0
*RES
1 *5119:Y *5569:D 41.133 
*END

*D_NET *102 0.00116986
*CONN
*I *5571:D I *D sg13g2_dfrbpq_1
*I *5121:Y O *D sg13g2_a21oi_1
*CAP
1 *5571:D 0.000309325
2 *5121:Y 0.000309325
3 *5571:D *5120:A1 0.00023398
4 *5571:D *5571:RESET_B 0.000242181
5 *5571:D *656:44 7.50503e-05
*RES
1 *5121:Y *5571:D 43.708 
*END

*D_NET *103 0.000374865
*CONN
*I *5573:D I *D sg13g2_dfrbpq_1
*I *5124:Y O *D sg13g2_nor2_1
*CAP
1 *5573:D 0.000187433
2 *5124:Y 0.000187433
3 *5573:D *5124:B 0
4 *5573:D *5573:RESET_B 0
*RES
1 *5124:Y *5573:D 41.9673 
*END

*D_NET *104 0.000278139
*CONN
*I *5575:D I *D sg13g2_dfrbpq_1
*I *5126:Y O *D sg13g2_a21oi_1
*CAP
1 *5575:D 0.000139069
2 *5126:Y 0.000139069
3 *5575:D *5575:RESET_B 0
*RES
1 *5126:Y *5575:D 41.5347 
*END

*D_NET *105 0.00134809
*CONN
*I *5577:D I *D sg13g2_dfrbpq_1
*I *5128:Y O *D sg13g2_a21oi_1
*CAP
1 *5577:D 0.000472281
2 *5128:Y 0.000472281
3 *5577:D *5120:B1 0
4 *5577:D *5128:A2 0
5 *5577:D *5128:B1 0.000403526
6 *5577:D *5577:RESET_B 0
7 *5577:D *6083:A 0
8 *5577:D *705:49 0
9 *5577:D *705:71 0
*RES
1 *5128:Y *5577:D 45.3869 
*END

*D_NET *106 0.000208579
*CONN
*I *5579:D I *D sg13g2_dfrbpq_1
*I *5130:Y O *D sg13g2_a21oi_1
*CAP
1 *5579:D 0.00010429
2 *5130:Y 0.00010429
3 *5579:D *632:66 0
*RES
1 *5130:Y *5579:D 41.133 
*END

*D_NET *107 0.000847658
*CONN
*I *5581:D I *D sg13g2_dfrbpq_1
*I *5132:Y O *D sg13g2_a21oi_1
*CAP
1 *5581:D 0
2 *5132:Y 0.000302735
3 *107:10 0.000302735
4 *107:10 *5131:A2 0
5 *107:10 *5132:B1 0.000242187
6 *107:10 *1026:30 0
*RES
1 *5132:Y *107:10 43.4505 
2 *107:10 *5581:D 40 
*END

*D_NET *108 0.000406208
*CONN
*I *5583:D I *D sg13g2_dfrbpq_1
*I *5134:Y O *D sg13g2_a21oi_1
*CAP
1 *5583:D 0.000203104
2 *5134:Y 0.000203104
3 *5583:D *5581:CLK 0
*RES
1 *5134:Y *5583:D 42.2763 
*END

*D_NET *109 0.00133109
*CONN
*I *5585:D I *D sg13g2_dfrbpq_1
*I *5136:Y O *D sg13g2_a21oi_1
*CAP
1 *5585:D 0.000152032
2 *5136:Y 0.000400953
3 *109:10 0.000552985
4 *5585:D *5585:RESET_B 0
5 *109:10 *5135:A1 3.23472e-05
6 *109:10 *5136:A1 8.02105e-05
7 *109:10 *5136:B1 0.000112558
8 *109:10 *255:14 0
9 *109:10 *731:27 0
*RES
1 *5136:Y *109:10 44.2848 
2 *109:10 *5585:D 41.6171 
*END

*D_NET *110 0.00129128
*CONN
*I *5587:D I *D sg13g2_dfrbpq_1
*I *5138:Y O *D sg13g2_a21oi_1
*CAP
1 *5587:D 0.000196526
2 *5138:Y 0.00022124
3 *110:8 0.000417765
4 *5587:D *5587:RESET_B 0
5 *5587:D *255:14 0
6 *110:8 *756:10 0.000455749
*RES
1 *5138:Y *110:8 43.0694 
2 *110:8 *5587:D 42.0497 
*END

*D_NET *111 0.000476898
*CONN
*I *5589:D I *D sg13g2_dfrbpq_1
*I *5140:X O *D sg13g2_and2_1
*CAP
1 *5589:D 0.000238449
2 *5140:X 0.000238449
3 *5589:D *5140:A 0
4 *5589:D *5589:RESET_B 0
5 *5589:D *1102:69 0
*RES
1 *5140:X *5589:D 42.9767 
*END

*D_NET *112 0.000397425
*CONN
*I *5591:D I *D sg13g2_dfrbpq_1
*I *5142:Y O *D sg13g2_a21oi_1
*CAP
1 *5591:D 0.000190985
2 *5142:Y 0.000190985
3 *5591:D *5142:A1 0
4 *5591:D *5142:A2 1.54556e-05
5 *5591:D *5142:B1 0
6 *5591:D *5591:RESET_B 0
*RES
1 *5142:Y *5591:D 42.1939 
*END

*D_NET *113 0.00139032
*CONN
*I *5593:D I *D sg13g2_dfrbpq_1
*I *5144:Y O *D sg13g2_a21oi_1
*CAP
1 *5593:D 0.000163374
2 *5144:Y 0.000253733
3 *113:8 0.000417107
4 *5593:D *5593:RESET_B 0
5 *5593:D *5653:RESET_B 0
6 *113:8 *252:12 0
7 *113:8 *749:8 0.000556104
8 *113:8 *1025:37 0
*RES
1 *5144:Y *113:8 43.5638 
2 *113:8 *5593:D 41.6171 
*END

*D_NET *114 0.000840723
*CONN
*I *5595:D I *D sg13g2_dfrbpq_1
*I *5146:Y O *D sg13g2_a21oi_1
*CAP
1 *5595:D 0.000319985
2 *5146:Y 0.000319985
3 *5595:D *5146:B1 0.000200753
4 *5595:D *5595:RESET_B 0
5 *5595:D *6092:A 0
*RES
1 *5146:Y *5595:D 43.8419 
*END

*D_NET *115 0.000216813
*CONN
*I *5597:D I *D sg13g2_dfrbpq_1
*I *5149:X O *D sg13g2_and2_1
*CAP
1 *5597:D 0
2 *5149:X 0.000108406
3 *115:8 0.000108406
4 *115:8 *809:25 0
*RES
1 *5149:X *115:8 41.339 
2 *115:8 *5597:D 40 
*END

*D_NET *116 0.0015021
*CONN
*I *5599:D I *D sg13g2_dfrbpq_1
*I *5151:Y O *D sg13g2_a21oi_1
*CAP
1 *5599:D 8.36157e-05
2 *5151:Y 0.000509695
3 *116:16 0.000593311
4 *5599:D *5151:A2 0
5 *5599:D *1105:37 0
6 *116:16 *5151:B1 7.99246e-05
7 *116:16 *260:8 0
8 *116:16 *620:14 0.000235556
*RES
1 *5151:Y *116:16 45.2736 
2 *116:16 *5599:D 40.7519 
*END

*D_NET *117 0.000446523
*CONN
*I *5601:D I *D sg13g2_dfrbpq_1
*I *5158:Y O *D sg13g2_a21oi_1
*CAP
1 *5601:D 0.000134567
2 *5158:Y 0.000134567
3 *5601:D *5078:A 0.000177388
4 *5601:D *5158:B1 0
5 *5601:D *5601:RESET_B 0
*RES
1 *5158:Y *5601:D 41.5347 
*END

*D_NET *118 0.000948496
*CONN
*I *5603:D I *D sg13g2_dfrbpq_1
*I *5161:X O *D sg13g2_and4_1
*CAP
1 *5603:D 0.000353261
2 *5161:X 0.000353261
3 *5603:D *5084:A 0.000241973
4 *5603:D *5161:A 0
*RES
1 *5161:X *5603:D 44.1921 
*END

*D_NET *119 0.00166056
*CONN
*I *5605:D I *D sg13g2_dfrbpq_1
*I *5164:Y O *D sg13g2_nor3_1
*CAP
1 *5605:D 0.000692896
2 *5164:Y 0.000692896
3 *5605:D *5605:RESET_B 0.000274769
4 *5605:D *5605:CLK 0
5 *5605:D *5988:A 0
6 *5605:D *356:8 0
*RES
1 *5164:Y *5605:D 47.7662 
*END

*D_NET *120 0.000824599
*CONN
*I *5607:D I *D sg13g2_dfrbpq_1
*I *5167:Y O *D sg13g2_nor3_1
*CAP
1 *5607:D 0.000372194
2 *5167:Y 0.000372194
3 *5607:D *5607:RESET_B 0
4 *5607:D *5988:A 8.02105e-05
5 *5607:D *637:32 0
*RES
1 *5167:Y *5607:D 44.3672 
*END

*D_NET *121 0.00320192
*CONN
*I *5609:D I *D sg13g2_dfrbpq_1
*I *5171:Y O *D sg13g2_nor3_1
*CAP
1 *5609:D 0
2 *5171:Y 0.000410355
3 *121:8 0.000410355
4 *121:8 *1112:12 0.00167099
5 *121:8 *1114:12 0
6 *121:8 *1114:23 0.000529536
7 *121:8 *1114:29 0.000180684
*RES
1 *5171:Y *121:8 47.7662 
2 *121:8 *5609:D 40 
*END

*D_NET *122 0.00302582
*CONN
*I *5611:D I *D sg13g2_dfrbpq_1
*I *5173:Y O *D sg13g2_a21oi_1
*CAP
1 *5611:D 0
2 *5173:Y 0.000635488
3 *122:12 0.000635488
4 *122:12 *5173:A2 0
5 *122:12 *646:54 0.000770526
6 *122:12 *1113:8 0.000984313
7 *122:12 *1113:12 0
*RES
1 *5173:Y *122:12 48.8683 
2 *122:12 *5611:D 40 
*END

*D_NET *123 0.0015996
*CONN
*I *5613:D I *D sg13g2_dfrbpq_1
*I *5176:Y O *D sg13g2_nor3_1
*CAP
1 *5613:D 0.000319202
2 *5176:Y 0.00021468
3 *123:10 0.000533882
4 *5613:D *5158:A1 0
5 *5613:D *661:59 0.000468765
6 *123:10 *5176:C 4.77425e-05
7 *123:10 *5177:B 1.53311e-05
8 *123:10 *1112:12 0
9 *123:10 *1113:81 0
10 *123:10 *1115:10 0
*RES
1 *5176:Y *123:10 41.9055 
2 *123:10 *5613:D 43.1312 
*END

*D_NET *124 0.000840733
*CONN
*I *5615:D I *D sg13g2_dfrbpq_1
*I *5179:Y O *D sg13g2_nor3_1
*CAP
1 *5615:D 0.000276296
2 *5179:Y 0.000276296
3 *5615:D *5179:A 0
4 *5615:D *5179:C 0.000240411
5 *5615:D *661:59 0
6 *5615:D *1113:73 4.77288e-05
*RES
1 *5179:Y *5615:D 42.8943 
*END

*D_NET *125 0.000901932
*CONN
*I *5617:D I *D sg13g2_dfrbpq_1
*I *5182:Y O *D sg13g2_a21oi_1
*CAP
1 *5617:D 5.49787e-05
2 *5182:Y 0.000395987
3 *125:10 0.000450966
4 *5617:D *282:12 0
5 *5617:D *285:6 0
6 *125:10 *282:12 0
7 *125:10 *348:18 0
8 *125:10 *723:10 0
*RES
1 *5182:Y *125:10 44.0067 
2 *125:10 *5617:D 40.5356 
*END

*D_NET *126 0.000484979
*CONN
*I *5619:D I *D sg13g2_dfrbpq_1
*I *5185:Y O *D sg13g2_nor3_1
*CAP
1 *5619:D 0
2 *5185:Y 0
3 *126:14 0.000242489
4 *126:6 0.000242489
5 *126:14 *1087:10 0
6 *126:14 *1116:18 0
*RES
1 *5185:Y *126:6 40 
2 *126:6 *126:14 42.6471 
3 *126:14 *5619:D 40 
*END

*D_NET *127 0.00136522
*CONN
*I *5621:D I *D sg13g2_dfrbpq_1
*I *5187:Y O *D sg13g2_a21oi_1
*CAP
1 *5621:D 0.000671951
2 *5187:Y 0.000671951
3 *5621:D *5105:A 1.52796e-05
4 *5621:D *5187:B1 0
5 *5621:D *1087:16 6.03998e-06
6 *5621:D *1088:8 0
7 *5621:D *1088:36 0
*RES
1 *5187:Y *5621:D 46.3757 
*END

*D_NET *128 0.000408545
*CONN
*I *5623:D I *D sg13g2_dfrbpq_1
*I *5191:Y O *D sg13g2_nor3_1
*CAP
1 *5623:D 0.000204272
2 *5191:Y 0.000204272
3 *5623:D *607:20 0
*RES
1 *5191:Y *5623:D 42.2763 
*END

*D_NET *129 0.00018459
*CONN
*I *5625:D I *D sg13g2_dfrbpq_1
*I *5193:Y O *D sg13g2_a21oi_1
*CAP
1 *5625:D 9.22951e-05
2 *5193:Y 9.22951e-05
3 *5625:D *5193:B1 0
4 *5625:D *5625:RESET_B 0
5 *5625:D *374:16 0
*RES
1 *5193:Y *5625:D 41.133 
*END

*D_NET *130 0.0012928
*CONN
*I *5627:D I *D sg13g2_dfrbpq_1
*I *5198:Y O *D sg13g2_nor3_1
*CAP
1 *5627:D 0.000487862
2 *5198:Y 0.000487862
3 *5627:D *5197:A 0
4 *5627:D *5198:C 0.000245108
5 *5627:D *374:69 7.19653e-05
*RES
1 *5198:Y *5627:D 45.6805 
*END

*D_NET *131 0.00162977
*CONN
*I *5629:D I *D sg13g2_dfrbpq_1
*I *5202:Y O *D sg13g2_nor3_1
*CAP
1 *5629:D 0.000485879
2 *5202:Y 0.000485879
3 *5629:D *5202:B 0
4 *5629:D *5202:C 0
5 *5629:D *709:47 0.000658008
*RES
1 *5202:Y *5629:D 45.6238 
*END

*D_NET *132 0.000234227
*CONN
*I *5631:D I *D sg13g2_dfrbpq_1
*I *5210:Y O *D sg13g2_a221oi_1
*CAP
1 *5631:D 0.000117113
2 *5210:Y 0.000117113
3 *5631:D *348:38 0
*RES
1 *5210:Y *5631:D 41.1845 
*END

*D_NET *133 0.000917375
*CONN
*I *5633:D I *D sg13g2_dfrbpq_1
*I *5214:X O *D sg13g2_and4_1
*CAP
1 *5633:D 0
2 *5214:X 0.000338436
3 *133:10 0.000338436
4 *133:10 *5214:C 0.000240502
5 *133:10 *352:25 0
*RES
1 *5214:X *133:10 43.2033 
2 *133:10 *5633:D 40 
*END

*D_NET *134 0.000247036
*CONN
*I *5635:D I *D sg13g2_dfrbpq_1
*I *5217:Y O *D sg13g2_a221oi_1
*CAP
1 *5635:D 0.000123518
2 *5217:Y 0.000123518
3 *5635:D *390:12 0
*RES
1 *5217:Y *5635:D 41.3493 
*END

*D_NET *135 0.00153592
*CONN
*I *5637:D I *D sg13g2_dfrbpq_1
*I *5220:Y O *D sg13g2_a221oi_1
*CAP
1 *5637:D 6.43576e-05
2 *5220:Y 0.000226523
3 *135:8 0.000290881
4 *5637:D *708:68 0
5 *5637:D *1094:44 0.00011226
6 *135:8 *286:41 0
7 *135:8 *385:37 0.000660533
8 *135:8 *396:8 0.00018137
9 *135:8 *1015:35 0
*RES
1 *5220:Y *135:8 43.0694 
2 *135:8 *5637:D 40.7519 
*END

*D_NET *136 0.000237594
*CONN
*I *5639:D I *D sg13g2_dfrbpq_1
*I *5224:Y O *D sg13g2_a221oi_1
*CAP
1 *5639:D 0.000118797
2 *5224:Y 0.000118797
3 *5639:D *390:18 0
*RES
1 *5224:Y *5639:D 41.5141 
*END

*D_NET *137 0.000653804
*CONN
*I *5641:D I *D sg13g2_dfrbpq_1
*I *5227:Y O *D sg13g2_a21oi_1
*CAP
1 *5641:D 0
2 *5227:Y 0.0002389
3 *137:10 0.0002389
4 *137:10 *5022:A 0
5 *137:10 *5227:A1 4.79124e-05
6 *137:10 *258:23 0
7 *137:10 *631:66 0.000128091
8 *137:10 *700:86 0
9 *137:10 *1098:29 0
*RES
1 *5227:Y *137:10 42.5235 
2 *137:10 *5641:D 40 
*END

*D_NET *138 0.000469136
*CONN
*I *5643:D I *D sg13g2_dfrbpq_1
*I *5229:Y O *D sg13g2_a221oi_1
*CAP
1 *5643:D 0.000210805
2 *5229:Y 0.000210805
3 *5643:D *1005:108 4.75265e-05
*RES
1 *5229:Y *5643:D 42.4411 
*END

*D_NET *139 0.000211255
*CONN
*I *5645:D I *D sg13g2_dfrbpq_1
*I *5235:Y O *D sg13g2_a21oi_1
*CAP
1 *5645:D 0.000105628
2 *5235:Y 0.000105628
3 *5645:D *5020:A 0
4 *5645:D *5235:A1 0
5 *5645:D *5235:B1 0
6 *5645:D *256:8 0
7 *5645:D *1100:23 0
*RES
1 *5235:Y *5645:D 41.133 
*END

*D_NET *140 0.000826265
*CONN
*I *5647:D I *D sg13g2_dfrbpq_1
*I *5238:Y O *D sg13g2_a21oi_1
*CAP
1 *5647:D 0
2 *5238:Y 0.000308778
3 *140:10 0.000308778
4 *140:10 *5238:A1 0.000208708
5 *140:10 *1101:39 0
6 *140:10 *1103:68 0
*RES
1 *5238:Y *140:10 43.2342 
2 *140:10 *5647:D 40 
*END

*D_NET *141 0.00168923
*CONN
*I *5649:D I *D sg13g2_dfrbpq_1
*I *5246:Y O *D sg13g2_nor2_1
*CAP
1 *5649:D 0.000360389
2 *5246:Y 0.000180627
3 *141:8 0.000541016
4 *5649:D *704:27 0
5 *141:8 *629:80 0.000607196
*RES
1 *5246:Y *141:8 42.8222 
2 *141:8 *5649:D 43.7801 
*END

*D_NET *142 0.000371162
*CONN
*I *5651:D I *D sg13g2_dfrbpq_1
*I *5249:Y O *D sg13g2_a221oi_1
*CAP
1 *5651:D 0.000185581
2 *5249:Y 0.000185581
3 *5651:D *5142:A2 0
4 *5651:D *5651:RESET_B 0
5 *5651:D *1103:18 0
*RES
1 *5249:Y *5651:D 41.9673 
*END

*D_NET *143 0.00312843
*CONN
*I *5653:D I *D sg13g2_dfrbpq_1
*I *5251:Y O *D sg13g2_a221oi_1
*CAP
1 *5653:D 0.000137082
2 *5251:Y 0.000650822
3 *143:14 0.000787904
4 *5653:D *5593:CLK 0.000502376
5 *5653:D *252:12 0
6 *143:14 *5593:CLK 0
7 *143:14 *252:12 0
8 *143:14 *1005:78 0.000122871
9 *143:14 *1102:59 0.000318607
10 *143:14 *1102:69 0.000608768
11 *143:14 *1103:29 0
*RES
1 *5251:Y *143:14 48.137 
2 *143:14 *5653:D 42.3278 
*END

*D_NET *144 0.00131169
*CONN
*I *5655:D I *D sg13g2_dfrbpq_1
*I *5257:Y O *D sg13g2_a21oi_1
*CAP
1 *5655:D 0
2 *5257:Y 0.000655844
3 *144:8 0.000655844
4 *144:8 *630:77 0
5 *144:8 *1106:14 0
*RES
1 *5257:Y *144:8 47.0246 
2 *144:8 *5655:D 40 
*END

*D_NET *145 0.000720139
*CONN
*I *5657:D I *D sg13g2_dfrbpq_1
*I *5260:Y O *D sg13g2_a221oi_1
*CAP
1 *5657:D 0.000328385
2 *5260:Y 0.000328385
3 *5657:D *5015:A 4.79124e-05
4 *5657:D *5259:A 0
5 *5657:D *5260:B2 0
6 *5657:D *5260:C1 0
7 *5657:D *251:8 1.54556e-05
8 *5657:D *1005:59 0
*RES
1 *5260:Y *5657:D 43.5226 
*END

*D_NET *146 0.00128045
*CONN
*I *5659:D I *D sg13g2_dfrbpq_1
*I *5266:Y O *D sg13g2_a21oi_1
*CAP
1 *5659:D 0.000161454
2 *5266:Y 0.00047877
3 *146:8 0.000640224
4 *5659:D *5659:RESET_B 0
5 *146:8 *5014:A 0
6 *146:8 *5151:A2 0
7 *146:8 *5266:A1 0
8 *146:8 *431:8 0
9 *146:8 *1031:36 0
*RES
1 *5266:Y *146:8 45.5414 
2 *146:8 *5659:D 41.6171 
*END

*D_NET *147 0.00155153
*CONN
*I *5661:D I *D sg13g2_dfrbpq_1
*I *5270:Y O *D sg13g2_a21oi_1
*CAP
1 *5661:D 0.000735721
2 *5270:Y 0.000735721
3 *5661:D *5259:B 0
4 *5661:D *5270:B1 8.00842e-05
5 *5661:D *5661:RESET_B 0
*RES
1 *5270:Y *5661:D 47.6735 
*END

*D_NET *148 0.000582381
*CONN
*I *5663:D I *D sg13g2_dfrbpq_1
*I *5275:Y O *D sg13g2_a21oi_1
*CAP
1 *5663:D 0.00020325
2 *5275:Y 0.00020325
3 *5663:D *5275:A1 4.7885e-05
4 *5663:D *5275:A2 0
5 *5663:D *5275:B1 4.7885e-05
6 *5663:D *1110:19 8.01116e-05
*RES
1 *5275:Y *5663:D 42.6265 
*END

*D_NET *149 0.000598849
*CONN
*I *5665:D I *D sg13g2_dfrbpq_1
*I *5281:Y O *D sg13g2_a21oi_1
*CAP
1 *5665:D 0.000178268
2 *5281:Y 0.000178268
3 *5665:D *5281:A2 0
4 *5665:D *5281:B1 0.000242313
5 *5665:D *1020:68 0
*RES
1 *5281:Y *5665:D 41.9673 
*END

*D_NET *150 0.00114753
*CONN
*I *5667:D I *D sg13g2_dfrbpq_1
*I *5285:Y O *D sg13g2_nor2_1
*CAP
1 *5667:D 0
2 *5285:Y 0.000152599
3 *150:8 0.000152599
4 *150:8 *445:10 0.000234311
5 *150:8 *638:16 7.56308e-05
6 *150:8 *638:47 0.000532395
7 *150:8 *672:99 0
*RES
1 *5285:Y *150:8 42.8222 
2 *150:8 *5667:D 40 
*END

*D_NET *151 0.000488557
*CONN
*I *5669:D I *D sg13g2_dfrbpq_1
*I *5288:Y O *D sg13g2_nor3_1
*CAP
1 *5669:D 0.000244279
2 *5288:Y 0.000244279
3 *5669:D *263:18 0
4 *5669:D *1023:26 0
*RES
1 *5288:Y *5669:D 42.6265 
*END

*D_NET *152 0.000701768
*CONN
*I *5671:D I *D sg13g2_dfrbpq_1
*I *5291:Y O *D sg13g2_nor3_1
*CAP
1 *5671:D 0.000238763
2 *5291:Y 0.000238763
3 *5671:D *5291:C 7.99179e-05
4 *5671:D *5981:A 0.000144325
5 *5671:D *1065:14 0
*RES
1 *5291:Y *5671:D 42.3999 
*END

*D_NET *153 0.00043413
*CONN
*I *5673:D I *D sg13g2_dfrbpq_1
*I *5294:Y O *D sg13g2_nor3_1
*CAP
1 *5673:D 0.000217065
2 *5294:Y 0.000217065
3 *5673:D *5292:B 0
4 *5673:D *6016:A 0
*RES
1 *5294:Y *5673:D 42.4823 
*END

*D_NET *154 0.000627084
*CONN
*I *5675:D I *D sg13g2_dfrbpq_1
*I *5297:Y O *D sg13g2_nor3_1
*CAP
1 *5675:D 0.000176237
2 *5297:Y 0.000176237
3 *5675:D *5297:C 0
4 *5675:D *6016:A 0
5 *5675:D *696:31 0.000274611
*RES
1 *5297:Y *5675:D 41.8334 
*END

*D_NET *155 0.00035849
*CONN
*I *5677:D I *D sg13g2_dfrbpq_1
*I *5300:Y O *D sg13g2_nor3_1
*CAP
1 *5677:D 0.000171517
2 *5300:Y 0.000171517
3 *5677:D *5300:A 1.54556e-05
4 *5677:D *5300:C 0
5 *5677:D *5677:RESET_B 0
*RES
1 *5300:Y *5677:D 41.8334 
*END

*D_NET *156 0.00024149
*CONN
*I *5679:D I *D sg13g2_dfrbpq_1
*I *5303:Y O *D sg13g2_nor3_1
*CAP
1 *5679:D 0.000120745
2 *5303:Y 0.000120745
3 *5679:D *5303:B 0
4 *5679:D *5303:C 0
5 *5679:D *695:10 0
*RES
1 *5303:Y *5679:D 41.133 
*END

*D_NET *157 0.000657728
*CONN
*I *5681:D I *D sg13g2_dfrbpq_1
*I *5306:Y O *D sg13g2_nor3_1
*CAP
1 *5681:D 0.000191559
2 *5306:Y 0.000191559
3 *5681:D *5306:A 0
4 *5681:D *694:55 0.000274611
5 *5681:D *1017:6 0
*RES
1 *5306:Y *5681:D 42.1836 
*END

*D_NET *158 0.000208785
*CONN
*I *5683:D I *D sg13g2_dfrbpq_1
*I *5309:Y O *D sg13g2_nor3_1
*CAP
1 *5683:D 0.000104393
2 *5309:Y 0.000104393
3 *5683:D *5309:C 0
4 *5683:D *5683:RESET_B 0
*RES
1 *5309:Y *5683:D 41.133 
*END

*D_NET *159 0.00156624
*CONN
*I *6062:A I *D sg13g2_dlygate4sd3_1
*I *5312:Y O *D sg13g2_nor3_1
*CAP
1 *6062:A 4.37077e-05
2 *5312:Y 0.000105996
3 *159:8 0.000149703
4 *6062:A *5385:B 8.00842e-05
5 *6062:A *673:26 8.00842e-05
6 *159:8 *690:31 0.000553334
7 *159:8 *701:41 0.000553334
*RES
1 *5312:Y *159:8 42.575 
2 *159:8 *6062:A 40.5356 
*END

*D_NET *160 0.000755834
*CONN
*I *5687:D I *D sg13g2_dfrbpq_1
*I *5315:Y O *D sg13g2_nor3_1
*CAP
1 *5687:D 0
2 *5315:Y 0.000162199
3 *160:10 0.000162199
4 *160:10 *5313:B 7.49633e-05
5 *160:10 *5315:C 0.00017579
6 *160:10 *718:34 0.000180682
7 *160:10 *1065:25 0
*RES
1 *5315:Y *160:10 42.0291 
2 *160:10 *5687:D 40 
*END

*D_NET *161 0.000441823
*CONN
*I *5689:D I *D sg13g2_dfrbpq_1
*I *5318:Y O *D sg13g2_nor3_1
*CAP
1 *5689:D 0.000148487
2 *5318:Y 0.000148487
3 *5689:D *6026:A 0
4 *5689:D *920:10 0.000144849
*RES
1 *5318:Y *5689:D 41.5347 
*END

*D_NET *162 0.00040625
*CONN
*I *5691:D I *D sg13g2_dfrbpq_1
*I *5321:Y O *D sg13g2_nor3_1
*CAP
1 *5691:D 0
2 *5321:Y 8.5554e-05
3 *162:8 8.5554e-05
4 *162:8 *470:10 0.000235141
5 *162:8 *696:90 0
6 *162:8 *696:105 0
*RES
1 *5321:Y *162:8 41.0918 
2 *162:8 *5691:D 40 
*END

*D_NET *163 0.000229293
*CONN
*I *5693:D I *D sg13g2_dfrbpq_1
*I *5324:Y O *D sg13g2_nor3_1
*CAP
1 *5693:D 0.000114647
2 *5324:Y 0.000114647
3 *5693:D *5324:A 0
4 *5693:D *713:20 0
*RES
1 *5324:Y *5693:D 41.4111 
*END

*D_NET *164 0.000201662
*CONN
*I *5695:D I *D sg13g2_dfrbpq_1
*I *5327:Y O *D sg13g2_nor3_1
*CAP
1 *5695:D 0
2 *5327:Y 0.000100831
3 *164:8 0.000100831
4 *164:8 *5325:B 0
5 *164:8 *669:58 0
*RES
1 *5327:Y *164:8 41.0918 
2 *164:8 *5695:D 40 
*END

*D_NET *165 0.000385761
*CONN
*I *5697:D I *D sg13g2_dfrbpq_1
*I *5330:Y O *D sg13g2_nor3_1
*CAP
1 *5697:D 0.000152774
2 *5330:Y 0.000152774
3 *5697:D *5330:A 0
4 *5697:D *5330:C 8.02127e-05
*RES
1 *5330:Y *5697:D 41.9467 
*END

*D_NET *166 0.00056577
*CONN
*I *5699:D I *D sg13g2_dfrbpq_1
*I *5333:Y O *D sg13g2_nor3_1
*CAP
1 *5699:D 0.000275184
2 *5333:Y 0.000275184
3 *5699:D *5333:A 0
4 *5699:D *5333:C 1.54008e-05
5 *5699:D *671:18 0
6 *5699:D *685:22 0
*RES
1 *5333:Y *5699:D 42.781 
*END

*D_NET *167 0.000278097
*CONN
*I *5701:D I *D sg13g2_dfrbpq_1
*I *5336:Y O *D sg13g2_nor3_1
*CAP
1 *5701:D 0.000131348
2 *5336:Y 0.000131348
3 *5701:D *5336:B 1.54008e-05
4 *5701:D *5701:RESET_B 0
5 *5701:D *668:25 0
*RES
1 *5336:Y *5701:D 41.1845 
*END

*D_NET *168 0.000546898
*CONN
*I *6059:A I *D sg13g2_dlygate4sd3_1
*I *5339:Y O *D sg13g2_nor3_1
*CAP
1 *6059:A 0.000273449
2 *5339:Y 0.000273449
3 *6059:A *5339:C 0
4 *6059:A *640:12 0
5 *6059:A *703:47 0
*RES
1 *5339:Y *6059:A 42.9252 
*END

*D_NET *169 0.000251703
*CONN
*I *5705:D I *D sg13g2_dfrbpq_1
*I *5342:Y O *D sg13g2_nor3_1
*CAP
1 *5705:D 0.000118151
2 *5342:Y 0.000118151
3 *5705:D *5342:C 1.54008e-05
4 *5705:D *701:124 0
*RES
1 *5342:Y *5705:D 41.133 
*END

*D_NET *170 0.000228547
*CONN
*I *5707:D I *D sg13g2_dfrbpq_1
*I *5345:Y O *D sg13g2_nor3_1
*CAP
1 *5707:D 0.000103186
2 *5345:Y 0.000103186
3 *5707:D *5343:B 2.21754e-05
4 *5707:D *696:105 0
*RES
1 *5345:Y *5707:D 41.133 
*END

*D_NET *171 0.00059473
*CONN
*I *5709:D I *D sg13g2_dfrbpq_1
*I *5348:Y O *D sg13g2_nor3_1
*CAP
1 *5709:D 0.000160092
2 *5348:Y 0.000160092
3 *5709:D *5370:B 0
4 *5709:D *5372:B 0.000274545
5 *5709:D *5709:RESET_B 0
*RES
1 *5348:Y *5709:D 41.8334 
*END

*D_NET *172 0.000262143
*CONN
*I *6052:A I *D sg13g2_dlygate4sd3_1
*I *5351:Y O *D sg13g2_nor3_1
*CAP
1 *6052:A 0.000131071
2 *5351:Y 0.000131071
3 *6052:A *5351:A 0
4 *6052:A *5374:A1 0
5 *6052:A *683:81 0
6 *6052:A *695:71 0
*RES
1 *5351:Y *6052:A 41.3802 
*END

*D_NET *173 0.000986682
*CONN
*I *5713:D I *D sg13g2_dfrbpq_1
*I *5354:Y O *D sg13g2_nor3_1
*CAP
1 *5713:D 0.000324286
2 *5354:Y 0.000324286
3 *5713:D *5354:C 0.000338109
4 *5713:D *5713:RESET_B 0
5 *5713:D *685:42 0
6 *5713:D *1059:16 0
*RES
1 *5354:Y *5713:D 43.5638 
*END

*D_NET *174 0.000332215
*CONN
*I *5715:D I *D sg13g2_dfrbpq_1
*I *5357:Y O *D sg13g2_nor3_1
*CAP
1 *5715:D 0.000142291
2 *5357:Y 0.000142291
3 *5715:D *5357:B 4.76327e-05
4 *5715:D *1060:8 0
*RES
1 *5357:Y *5715:D 41.6995 
*END

*D_NET *175 0.000886315
*CONN
*I *6038:A I *D sg13g2_dlygate4sd3_1
*I *5360:Y O *D sg13g2_nor3_1
*CAP
1 *6038:A 0.000147178
2 *5360:Y 0.000295979
3 *175:8 0.000443157
4 *6038:A *5717:D 0
*RES
1 *5360:Y *175:8 42.575 
2 *175:8 *6038:A 41.4008 
*END

*D_NET *176 0.00171227
*CONN
*I *5719:D I *D sg13g2_dfrbpq_1
*I *5363:Y O *D sg13g2_nor3_1
*CAP
1 *5719:D 0.000297396
2 *5363:Y 0.000122247
3 *176:8 0.000419643
4 *5719:D *5719:RESET_B 0
5 *5719:D *5916:A 0.00033942
6 *5719:D *718:51 0.000533563
*RES
1 *5363:Y *176:8 41.0918 
2 *176:8 *5719:D 43.5638 
*END

*D_NET *177 0.000840103
*CONN
*I *5721:D I *D sg13g2_dfrbpq_1
*I *5366:Y O *D sg13g2_nor3_1
*CAP
1 *5721:D 0.000145545
2 *5366:Y 0.000145545
3 *5721:D *5364:B 0.000274507
4 *5721:D *702:107 0.000274507
*RES
1 *5366:Y *5721:D 41.8334 
*END

*D_NET *178 0.00184357
*CONN
*I *6043:A I *D sg13g2_dlygate4sd3_1
*I *5369:Y O *D sg13g2_nor3_1
*CAP
1 *6043:A 0.000614726
2 *5369:Y 0.000614726
3 *6043:A *5368:B1 0
4 *6043:A *5369:A 0.000274715
5 *6043:A *5369:B 0.000339398
6 *6043:A *605:154 0
*RES
1 *5369:Y *6043:A 46.9834 
*END

*D_NET *179 0.000452066
*CONN
*I *5725:D I *D sg13g2_dfrbpq_1
*I *5372:Y O *D sg13g2_nor3_1
*CAP
1 *5725:D 0.000226033
2 *5372:Y 0.000226033
3 *5725:D *605:137 0
4 *5725:D *605:154 0
*RES
1 *5372:Y *5725:D 42.1836 
*END

*D_NET *180 0.000750852
*CONN
*I *5727:D I *D sg13g2_dfrbpq_1
*I *5375:Y O *D sg13g2_nor3_1
*CAP
1 *5727:D 0.000238172
2 *5375:Y 0.000238172
3 *5727:D *5374:B1 0
4 *5727:D *5375:A 0
5 *5727:D *505:10 0
6 *5727:D *695:71 0
7 *5727:D *1019:71 0.000274507
*RES
1 *5375:Y *5727:D 42.3999 
*END

*D_NET *181 0.00144577
*CONN
*I *6033:A I *D sg13g2_dlygate4sd3_1
*I *5378:Y O *D sg13g2_nor3_1
*CAP
1 *6033:A 0
2 *5378:Y 0.000113696
3 *181:8 0.000113696
4 *181:8 *508:8 0.000609537
5 *181:8 *671:22 0.000608842
*RES
1 *5378:Y *181:8 42.8222 
2 *181:8 *6033:A 40 
*END

*D_NET *182 0.000382364
*CONN
*I *6040:A I *D sg13g2_dlygate4sd3_1
*I *5381:Y O *D sg13g2_nor3_1
*CAP
1 *6040:A 0.000191182
2 *5381:Y 0.000191182
3 *6040:A *5381:A 0
4 *6040:A *5381:B 0
5 *6040:A *623:31 0
*RES
1 *5381:Y *6040:A 41.9982 
*END

*D_NET *183 0.00237841
*CONN
*I *5733:D I *D sg13g2_dfrbpq_1
*I *5383:Y O *D sg13g2_a21oi_1
*CAP
1 *5733:D 0
2 *5383:Y 0.000449419
3 *183:10 0.000449419
4 *183:10 *6004:A 0
5 *183:10 *555:10 0
6 *183:10 *700:44 0.000209681
7 *183:10 *700:52 4.77425e-05
8 *183:10 *700:82 0.000979995
9 *183:10 *1032:20 0.000242154
*RES
1 *5383:Y *183:10 46.4169 
2 *183:10 *5733:D 40 
*END

*D_NET *184 9.45957e-05
*CONN
*I *5735:D I *D sg13g2_dfrbpq_1
*I *5538:X O *D sg13g2_and2_1
*CAP
1 *5735:D 4.72978e-05
2 *5538:X 4.72978e-05
*RES
1 *5538:X *5735:D 40.5974 
*END

*D_NET *185 0.000483296
*CONN
*I *5737:D I *D sg13g2_dfrbpq_1
*I *5385:X O *D sg13g2_and2_1
*CAP
1 *5737:D 4.19883e-05
2 *5385:X 0.000119384
3 *185:8 0.000161372
4 *5737:D *5385:B 8.0276e-05
5 *5737:D *673:26 8.0276e-05
6 *185:8 *673:43 0
7 *185:8 *920:10 0
*RES
1 *5385:X *185:8 41.339 
2 *185:8 *5737:D 40.5356 
*END

*D_NET *186 0.000702377
*CONN
*I *5739:D I *D sg13g2_dfrbpq_1
*I *5387:X O *D sg13g2_and2_1
*CAP
1 *5739:D 0.000225405
2 *5387:X 0.000125784
3 *186:8 0.000351189
4 *5739:D *5387:B 0
5 *5739:D *5739:RESET_B 0
6 *5739:D *5885:A 0
7 *186:8 *667:34 0
*RES
1 *5387:X *186:8 41.5862 
2 *186:8 *5739:D 42.4735 
*END

*D_NET *187 0.000346957
*CONN
*I *5741:D I *D sg13g2_dfrbpq_1
*I *5389:X O *D sg13g2_and2_1
*CAP
1 *5741:D 0.00015805
2 *5389:X 0.00015805
3 *5741:D *690:35 0
4 *5741:D *712:96 1.54008e-05
5 *5741:D *1029:10 0
6 *5741:D *1030:18 1.54556e-05
*RES
1 *5389:X *5741:D 41.8746 
*END

*D_NET *188 0.000754006
*CONN
*I *5743:D I *D sg13g2_dfrbpq_1
*I *5391:X O *D sg13g2_and2_1
*CAP
1 *5743:D 0.000167322
2 *5391:X 0.000167322
3 *5743:D *712:16 0.000242138
4 *5743:D *1030:30 0.000177224
*RES
1 *5391:X *5743:D 41.9673 
*END

*D_NET *189 0.000374715
*CONN
*I *5745:D I *D sg13g2_dfrbpq_1
*I *5393:X O *D sg13g2_and2_1
*CAP
1 *5745:D 0.00017963
2 *5393:X 0.00017963
3 *5745:D *5393:A 1.54556e-05
4 *5745:D *5393:B 0
5 *5745:D *713:20 0
*RES
1 *5393:X *5745:D 42.0291 
*END

*D_NET *190 0.00046169
*CONN
*I *5747:D I *D sg13g2_dfrbpq_1
*I *5395:X O *D sg13g2_and2_1
*CAP
1 *5747:D 0.000230845
2 *5395:X 0.000230845
3 *5747:D *5695:CLK 0
4 *5747:D *711:10 0
*RES
1 *5395:X *5747:D 41.9673 
*END

*D_NET *191 0.000442855
*CONN
*I *5749:D I *D sg13g2_dfrbpq_1
*I *5397:X O *D sg13g2_and2_1
*CAP
1 *5749:D 0.000218336
2 *5397:X 0.000218336
3 *5749:D *5749:RESET_B 6.18224e-06
4 *5749:D *714:26 0
*RES
1 *5397:X *5749:D 42.5647 
*END

*D_NET *192 0.000228175
*CONN
*I *5751:D I *D sg13g2_dfrbpq_1
*I *5399:X O *D sg13g2_and2_1
*CAP
1 *5751:D 0.000114087
2 *5399:X 0.000114087
3 *5751:D *5751:RESET_B 0
*RES
1 *5399:X *5751:D 41.1845 
*END

*D_NET *193 0.000112689
*CONN
*I *5753:D I *D sg13g2_dfrbpq_1
*I *5401:X O *D sg13g2_and2_1
*CAP
1 *5753:D 5.63446e-05
2 *5401:X 5.63446e-05
3 *5753:D *1020:113 0
*RES
1 *5401:X *5753:D 40.5974 
*END

*D_NET *194 0.000646313
*CONN
*I *5755:D I *D sg13g2_dfrbpq_1
*I *5403:X O *D sg13g2_and2_1
*CAP
1 *5755:D 0.000191041
2 *5403:X 0.000191041
3 *5755:D *5956:A 0
4 *5755:D *1023:114 0.000264231
*RES
1 *5403:X *5755:D 41.9673 
*END

*D_NET *195 0.000313343
*CONN
*I *5757:D I *D sg13g2_dfrbpq_1
*I *5405:X O *D sg13g2_and2_1
*CAP
1 *5757:D 0.000156672
2 *5405:X 0.000156672
3 *5757:D *5405:B 0
4 *5757:D *5757:RESET_B 0
*RES
1 *5405:X *5757:D 41.5347 
*END

*D_NET *196 0.000375295
*CONN
*I *5759:D I *D sg13g2_dfrbpq_1
*I *5407:X O *D sg13g2_and2_1
*CAP
1 *5759:D 0.000187647
2 *5407:X 0.000187647
3 *5759:D *5793:D 0
4 *5759:D *6107:A 0
5 *5759:D *712:71 0
6 *5759:D *942:25 0
*RES
1 *5407:X *5759:D 41.9673 
*END

*D_NET *197 0.000592977
*CONN
*I *5761:D I *D sg13g2_dfrbpq_1
*I *5409:X O *D sg13g2_and2_1
*CAP
1 *5761:D 0.000175395
2 *5409:X 0.000175395
3 *5761:D *5409:B 0
4 *5761:D *617:6 0.000242187
*RES
1 *5409:X *5761:D 41.9673 
*END

*D_NET *198 0.000319901
*CONN
*I *5763:D I *D sg13g2_dfrbpq_1
*I *5411:X O *D sg13g2_and2_1
*CAP
1 *5763:D 0.000159951
2 *5411:X 0.000159951
3 *5763:D *5411:A 0
4 *5763:D *1019:71 0
5 *5763:D *1058:34 0
*RES
1 *5411:X *5763:D 41.6171 
*END

*D_NET *199 0.00119098
*CONN
*I *5765:D I *D sg13g2_dfrbpq_1
*I *5413:X O *D sg13g2_and2_1
*CAP
1 *5765:D 0.000125658
2 *5413:X 0.00046983
3 *199:8 0.000595488
4 *5765:D *5765:RESET_B 0
5 *199:8 *714:51 0
6 *199:8 *1028:37 0
7 *199:8 *1059:16 0
*RES
1 *5413:X *199:8 44.5526 
2 *199:8 *5765:D 41.1845 
*END

*D_NET *200 0.000359476
*CONN
*I *5767:D I *D sg13g2_dfrbpq_1
*I *5415:X O *D sg13g2_and2_1
*CAP
1 *5767:D 0.000139714
2 *5415:X 0.000139714
3 *5767:D *5415:A 8.00473e-05
4 *5767:D *5767:RESET_B 0
5 *5767:D *992:21 0
*RES
1 *5415:X *5767:D 41.5347 
*END

*D_NET *201 0.000436919
*CONN
*I *5769:D I *D sg13g2_dfrbpq_1
*I *5417:X O *D sg13g2_and2_1
*CAP
1 *5769:D 0.00021846
2 *5417:X 0.00021846
3 *5769:D *5433:B 0
4 *5769:D *5769:RESET_B 0
*RES
1 *5417:X *5769:D 42.2145 
*END

*D_NET *202 0.000716893
*CONN
*I *5771:D I *D sg13g2_dfrbpq_1
*I *5419:X O *D sg13g2_and2_1
*CAP
1 *5771:D 0.000358446
2 *5419:X 0.000358446
3 *5771:D *5418:A1 0
4 *5771:D *5419:A 0
5 *5771:D *5771:RESET_B 0
6 *5771:D *5917:A 0
7 *5771:D *718:51 0
*RES
1 *5419:X *5771:D 43.4814 
*END

*D_NET *203 9.9762e-05
*CONN
*I *5773:D I *D sg13g2_dfrbpq_1
*I *5421:X O *D sg13g2_and2_1
*CAP
1 *5773:D 4.9881e-05
2 *5421:X 4.9881e-05
3 *5773:D *5405:B 0
*RES
1 *5421:X *5773:D 40.5974 
*END

*D_NET *204 0.00028968
*CONN
*I *5775:D I *D sg13g2_dfrbpq_1
*I *5423:X O *D sg13g2_and2_1
*CAP
1 *5775:D 0.00014484
2 *5423:X 0.00014484
3 *5775:D *5439:B 0
*RES
1 *5423:X *5775:D 41.5347 
*END

*D_NET *205 0.000518579
*CONN
*I *5777:D I *D sg13g2_dfrbpq_1
*I *5425:X O *D sg13g2_and2_1
*CAP
1 *5777:D 0.00010782
2 *5425:X 6.28979e-05
3 *205:8 0.000170718
4 *5777:D *5425:A 0
5 *5777:D *617:6 0.000177142
6 *5777:D *712:42 0
7 *205:8 *973:8 0
8 *205:8 *989:23 0
*RES
1 *5425:X *205:8 40.5974 
2 *205:8 *5777:D 41.1845 
*END

*D_NET *206 0.000367709
*CONN
*I *5779:D I *D sg13g2_dfrbpq_1
*I *5427:X O *D sg13g2_and2_1
*CAP
1 *5779:D 0.000183855
2 *5427:X 0.000183855
3 *5779:D *5427:B 0
4 *5779:D *533:10 0
*RES
1 *5427:X *5779:D 41.7819 
*END

*D_NET *207 9.90264e-05
*CONN
*I *5781:D I *D sg13g2_dfrbpq_1
*I *5429:X O *D sg13g2_and2_1
*CAP
1 *5781:D 4.95132e-05
2 *5429:X 4.95132e-05
*RES
1 *5429:X *5781:D 40.5974 
*END

*D_NET *208 9.45957e-05
*CONN
*I *5783:D I *D sg13g2_dfrbpq_1
*I *5431:X O *D sg13g2_and2_1
*CAP
1 *5783:D 4.72978e-05
2 *5431:X 4.72978e-05
*RES
1 *5431:X *5783:D 40.5974 
*END

*D_NET *209 9.45957e-05
*CONN
*I *5785:D I *D sg13g2_dfrbpq_1
*I *5433:X O *D sg13g2_and2_1
*CAP
1 *5785:D 4.72978e-05
2 *5433:X 4.72978e-05
*RES
1 *5433:X *5785:D 40.5974 
*END

*D_NET *210 0.000309442
*CONN
*I *5787:D I *D sg13g2_dfrbpq_1
*I *5435:X O *D sg13g2_and2_1
*CAP
1 *5787:D 0.000154721
2 *5435:X 0.000154721
3 *5787:D *5435:A 0
4 *5787:D *5787:RESET_B 0
*RES
1 *5435:X *5787:D 41.7819 
*END

*D_NET *211 0.000547821
*CONN
*I *5789:D I *D sg13g2_dfrbpq_1
*I *5437:X O *D sg13g2_and2_1
*CAP
1 *5789:D 5.68374e-05
2 *5437:X 0.000217073
3 *211:10 0.000273911
4 *5789:D *5437:A 0
5 *5789:D *717:59 0
6 *211:10 *5437:A 0
7 *211:10 *5789:RESET_B 0
8 *211:10 *717:85 0
9 *211:10 *980:10 0
*RES
1 *5437:X *211:10 42.0909 
2 *211:10 *5789:D 40.5356 
*END

*D_NET *212 0.000331512
*CONN
*I *5791:D I *D sg13g2_dfrbpq_1
*I *5439:X O *D sg13g2_and2_1
*CAP
1 *5791:D 0.000165756
2 *5439:X 0.000165756
3 *5791:D *5439:B 0
4 *5791:D *5791:RESET_B 0
*RES
1 *5439:X *5791:D 41.7819 
*END

*D_NET *213 9.45957e-05
*CONN
*I *5793:D I *D sg13g2_dfrbpq_1
*I *5441:X O *D sg13g2_and2_1
*CAP
1 *5793:D 4.72978e-05
2 *5441:X 4.72978e-05
3 *5759:D *5793:D 0
*RES
1 *5441:X *5793:D 40.5974 
*END

*D_NET *214 0.00081387
*CONN
*I *5795:D I *D sg13g2_dfrbpq_1
*I *5443:X O *D sg13g2_and2_1
*CAP
1 *5795:D 0.000130878
2 *5443:X 0.000276057
3 *214:8 0.000406935
4 *5795:D *5442:S 0
5 *5795:D *711:90 0
6 *5795:D *713:39 0
7 *214:8 *679:35 0
8 *214:8 *711:90 0
9 *214:8 *983:10 0
*RES
1 *5443:X *214:8 42.575 
2 *214:8 *5795:D 40.9997 
*END

*D_NET *215 0.000403645
*CONN
*I *5797:D I *D sg13g2_dfrbpq_1
*I *5445:X O *D sg13g2_and2_1
*CAP
1 *5797:D 0.000201823
2 *5445:X 0.000201823
3 *5797:D *5444:A0 0
4 *5797:D *5445:A 0
5 *5797:D *5797:RESET_B 0
*RES
1 *5445:X *5797:D 41.9673 
*END

*D_NET *216 9.45957e-05
*CONN
*I *5799:D I *D sg13g2_dfrbpq_1
*I *5447:X O *D sg13g2_and2_1
*CAP
1 *5799:D 4.72978e-05
2 *5447:X 4.72978e-05
3 *5799:D *5447:A 0
*RES
1 *5447:X *5799:D 40.5974 
*END

*D_NET *217 0.000438611
*CONN
*I *5801:D I *D sg13g2_dfrbpq_1
*I *5450:Y O *D sg13g2_nand3_1
*CAP
1 *5801:D 0.000130608
2 *5450:Y 0.000130608
3 *5801:D *291:29 0.000177394
4 *5801:D *666:28 0
*RES
1 *5450:Y *5801:D 41.5347 
*END

*D_NET *218 0.000822988
*CONN
*I *5803:D I *D sg13g2_dfrbpq_1
*I *5452:Y O *D sg13g2_a21oi_1
*CAP
1 *5803:D 0.000226312
2 *5452:Y 0.000226312
3 *5803:D *5452:A1 4.78524e-05
4 *5803:D *5452:B1 4.77425e-05
5 *5803:D *642:57 0.000274769
6 *5803:D *665:22 0
*RES
1 *5452:Y *5803:D 42.4823 
*END

*D_NET *219 0.0009059
*CONN
*I *5805:D I *D sg13g2_dfrbpq_1
*I *5461:Y O *D sg13g2_nor2_1
*CAP
1 *5805:D 0.000110987
2 *5461:Y 0.000163425
3 *219:10 0.000274412
4 *5805:D *5805:RESET_B 0
5 *5805:D *556:10 0
6 *5805:D *676:14 0
7 *219:10 *5536:B1 0
8 *219:10 *556:10 0
9 *219:10 *693:10 0.000341621
10 *219:10 *693:14 1.54556e-05
11 *219:10 *698:24 0
*RES
1 *5461:Y *219:10 42.1527 
2 *219:10 *5805:D 40.9682 
*END

*D_NET *220 0.000546236
*CONN
*I *5807:D I *D sg13g2_dfrbpq_1
*I *5466:Y O *D sg13g2_nor4_1
*CAP
1 *5807:D 0.000265418
2 *5466:Y 0.000265418
3 *5807:D *5466:D 1.54008e-05
4 *5807:D *5485:A 0
5 *5807:D *676:68 0
6 *5807:D *1006:8 0
7 *5807:D *1006:28 0
8 *5807:D *1049:16 0
*RES
1 *5466:Y *5807:D 42.3999 
*END

*D_NET *221 0.000544893
*CONN
*I *5809:D I *D sg13g2_dfrbpq_1
*I *5468:Y O *D sg13g2_nor4_1
*CAP
1 *5809:D 0
2 *5468:Y 0.000248498
3 *221:10 0.000248498
4 *221:10 *605:35 0
5 *221:10 *719:43 0
6 *221:10 *1007:16 4.78982e-05
7 *221:10 *1030:56 0
*RES
1 *5468:Y *221:10 42.5235 
2 *221:10 *5809:D 40 
*END

*D_NET *222 0.00038575
*CONN
*I *5811:D I *D sg13g2_dfrbpq_1
*I *5470:Y O *D sg13g2_nor4_1
*CAP
1 *5811:D 4.38095e-05
2 *5470:Y 0.000108911
3 *222:8 0.000152721
4 *5811:D *5811:RESET_B 0
5 *5811:D *1049:16 8.03091e-05
6 *222:8 *1032:35 0
*RES
1 *5470:Y *222:8 41.0918 
2 *222:8 *5811:D 40.5356 
*END

*D_NET *223 0.000156784
*CONN
*I *5813:D I *D sg13g2_dfrbpq_1
*I *5471:X O *D sg13g2_and4_1
*CAP
1 *5813:D 7.83919e-05
2 *5471:X 7.83919e-05
3 *5813:D *5813:RESET_B 0
*RES
1 *5471:X *5813:D 40.8287 
*END

*D_NET *224 0.000318492
*CONN
*I *5815:D I *D sg13g2_dfrbpq_1
*I *5477:Y O *D sg13g2_nor2_1
*CAP
1 *5815:D 0.000159246
2 *5477:Y 0.000159246
3 *5815:D *5815:RESET_B 0
*RES
1 *5477:Y *5815:D 41.7819 
*END

*D_NET *225 0.000576455
*CONN
*I *5817:D I *D sg13g2_dfrbpq_1
*I *5479:Y O *D sg13g2_a21oi_1
*CAP
1 *5817:D 0.000288228
2 *5479:Y 0.000288228
3 *5817:D *5817:RESET_B 0
4 *5817:D *649:8 0
5 *5817:D *649:21 0
*RES
1 *5479:Y *5817:D 43.2033 
*END

*D_NET *226 0.00124
*CONN
*I *5819:D I *D sg13g2_dfrbpq_1
*I *5482:Y O *D sg13g2_a21oi_1
*CAP
1 *5819:D 0.000126953
2 *5482:Y 6.32284e-05
3 *226:8 0.000190181
4 *5819:D *5993:A 0.000176482
5 *5819:D *605:35 0
6 *226:8 *552:38 0.000341205
7 *226:8 *567:8 0.00034195
*RES
1 *5482:Y *226:8 41.5862 
2 *226:8 *5819:D 41.1845 
*END

*D_NET *227 0.00143753
*CONN
*I *5821:D I *D sg13g2_dfrbpq_1
*I *5484:Y O *D sg13g2_a21oi_1
*CAP
1 *5821:D 0.000119795
2 *5484:Y 0.000598968
3 *227:8 0.000718763
4 *5821:D *5821:RESET_B 0
5 *227:8 *557:18 0
6 *227:8 *649:21 0
7 *227:8 *699:20 0
8 *227:8 *1120:47 0
*RES
1 *5484:Y *227:8 47.0246 
2 *227:8 *5821:D 41.1845 
*END

*D_NET *228 0.000883639
*CONN
*I *5823:D I *D sg13g2_dfrbpq_1
*I *5487:Y O *D sg13g2_a21oi_1
*CAP
1 *5823:D 0
2 *5487:Y 0.000320726
3 *228:10 0.000320726
4 *228:10 *5487:A2 0
5 *228:10 *5535:A 0
6 *228:10 *551:50 0
7 *228:10 *552:38 0
8 *228:10 *1006:28 0.000242187
*RES
1 *5487:Y *228:10 42.9401 
2 *228:10 *5823:D 40 
*END

*D_NET *229 0.00125702
*CONN
*I *5825:D I *D sg13g2_dfrbpq_1
*I *5490:X O *D sg13g2_a21o_1
*CAP
1 *5825:D 0
2 *5490:X 0.000510733
3 *229:10 0.000510733
4 *229:10 *5825:CLK 0.000235556
5 *229:10 *573:10 0
*RES
1 *5490:X *229:10 46.1388 
2 *229:10 *5825:D 40 
*END

*D_NET *230 0.000301468
*CONN
*I *5827:D I *D sg13g2_dfrbpq_1
*I *5493:Y O *D sg13g2_nor4_1
*CAP
1 *5827:D 0.000110549
2 *5493:Y 0.000110549
3 *5827:D *5493:D 0
4 *5827:D *650:59 8.03692e-05
*RES
1 *5493:Y *5827:D 41.3802 
*END

*D_NET *231 0.00044953
*CONN
*I *5829:D I *D sg13g2_dfrbpq_1
*I *5496:Y O *D sg13g2_nor4_1
*CAP
1 *5829:D 0.000224765
2 *5496:Y 0.000224765
3 *5829:D *5494:B 0
4 *5829:D *5496:C 0
5 *5829:D *5829:RESET_B 0
6 *5829:D *1001:61 0
*RES
1 *5496:Y *5829:D 42.2145 
*END

*D_NET *232 0.000481826
*CONN
*I *5831:D I *D sg13g2_dfrbpq_1
*I *5499:Y O *D sg13g2_nor4_1
*CAP
1 *5831:D 0
2 *5499:Y 0.000240913
3 *232:10 0.000240913
4 *232:10 *5831:CLK 0
5 *232:10 *693:73 0
6 *232:10 *1131:12 0
7 *69:22 *232:10 0
*RES
1 *5499:Y *232:10 42.5235 
2 *232:10 *5831:D 40 
*END

*D_NET *233 0.0017879
*CONN
*I *5833:D I *D sg13g2_dfrbpq_1
*I *5502:Y O *D sg13g2_nor4_1
*CAP
1 *5833:D 0.000143857
2 *5502:Y 0.00028553
3 *233:8 0.000429387
4 *5833:D *5833:RESET_B 0
5 *5833:D *6084:A 0
6 *233:8 *5508:A 0.000555737
7 *233:8 *693:58 0.000319939
8 *233:8 *693:73 5.34469e-05
9 *233:8 *1001:28 0
*RES
1 *5502:Y *233:8 44.5526 
2 *233:8 *5833:D 41.5347 
*END

*D_NET *234 0.00137475
*CONN
*I *5835:D I *D sg13g2_dfrbpq_1
*I *5505:Y O *D sg13g2_nor4_1
*CAP
1 *5835:D 4.96711e-05
2 *5505:Y 0.000637702
3 *234:8 0.000687373
4 *5835:D *5835:RESET_B 0
5 *5835:D *699:30 0
6 *234:8 *5817:CLK 0
7 *234:8 *5835:CLK 0
8 *234:8 *585:8 0
9 *234:8 *614:21 0
10 *234:8 *693:43 0
11 *234:8 *1001:111 0
*RES
1 *5505:Y *234:8 46.7774 
2 *234:8 *5835:D 40.5356 
*END

*D_NET *235 0.000277392
*CONN
*I *5837:D I *D sg13g2_dfrbpq_1
*I *5508:Y O *D sg13g2_nor4_1
*CAP
1 *5837:D 9.86238e-05
2 *5508:Y 9.86238e-05
3 *5837:D *5508:D 0
4 *5837:D *699:30 8.01447e-05
5 *5837:D *1006:77 0
*RES
1 *5508:Y *5837:D 41.133 
*END

*D_NET *236 0.000720287
*CONN
*I *5839:D I *D sg13g2_dfrbpq_1
*I *5512:Y O *D sg13g2_nor3_1
*CAP
1 *5839:D 0.000352443
2 *5512:Y 0.000352443
3 *5839:D *5288:B 0
4 *5839:D *5512:C 1.54008e-05
5 *5839:D *1034:29 0
*RES
1 *5512:Y *5839:D 43.6977 
*END

*D_NET *237 0.000903773
*CONN
*I *5841:D I *D sg13g2_dfrbpq_1
*I *5515:Y O *D sg13g2_nor3_1
*CAP
1 *5841:D 0
2 *5515:Y 0.000451887
3 *237:10 0.000451887
4 *237:10 *5515:A 0
5 *237:10 *1030:56 0
6 *79:12 *237:10 0
*RES
1 *5515:Y *237:10 45.1809 
2 *237:10 *5841:D 40 
*END

*D_NET *238 0.000771831
*CONN
*I *5843:D I *D sg13g2_dfrbpq_1
*I *5518:Y O *D sg13g2_nor3_1
*CAP
1 *5843:D 0
2 *5518:Y 0.000178842
3 *238:8 0.000178842
4 *238:8 *591:10 7.58826e-05
5 *238:8 *696:8 0.000338264
6 *238:8 *696:90 0
7 *238:8 *697:14 0
8 *238:8 *1032:35 0
9 *238:8 *1035:16 0
*RES
1 *5518:Y *238:8 42.0806 
2 *238:8 *5843:D 40 
*END

*D_NET *239 0.000806221
*CONN
*I *5845:D I *D sg13g2_dfrbpq_1
*I *5521:Y O *D sg13g2_nor3_1
*CAP
1 *5845:D 0.000203498
2 *5521:Y 0.000203498
3 *5845:D *5520:B 1.54008e-05
4 *5845:D *594:12 0.000175742
5 *5845:D *1011:54 0.000208083
*RES
1 *5521:Y *5845:D 42.1836 
*END

*D_NET *240 0.000706386
*CONN
*I *5847:D I *D sg13g2_dfrbpq_1
*I *5524:Y O *D sg13g2_nor3_1
*CAP
1 *5847:D 0.000233123
2 *5524:Y 0.000233123
3 *5847:D *5524:B 0
4 *5847:D *1009:34 0.000240139
*RES
1 *5524:Y *5847:D 42.678 
*END

*D_NET *241 0.000248695
*CONN
*I *5849:D I *D sg13g2_dfrbpq_1
*I *5527:Y O *D sg13g2_nor3_1
*CAP
1 *5849:D 0.000124347
2 *5527:Y 0.000124347
3 *5849:D *5527:B 0
4 *5849:D *605:120 0
*RES
1 *5527:Y *5849:D 41.4111 
*END

*D_NET *242 0.000977346
*CONN
*I *5851:D I *D sg13g2_dfrbpq_1
*I *5530:Y O *D sg13g2_nor3_1
*CAP
1 *5851:D 0.000191315
2 *5530:Y 0.000297358
3 *242:8 0.000488673
4 *5851:D *5851:RESET_B 0
5 *5851:D *694:45 0
6 *242:8 *605:66 0
7 *242:8 *678:22 0
*RES
1 *5530:Y *242:8 42.8222 
2 *242:8 *5851:D 42.0497 
*END

*D_NET *243 0.00053828
*CONN
*I *5853:D I *D sg13g2_dfrbpq_1
*I *5533:Y O *D sg13g2_nor3_1
*CAP
1 *5853:D 0.00026914
2 *5533:Y 0.00026914
3 *5853:D *5533:B 0
4 *5853:D *605:78 0
5 *5853:D *605:82 0
*RES
1 *5533:Y *5853:D 42.4308 
*END

*D_NET *244 0.000434102
*CONN
*I *5855:D I *D sg13g2_dfrbpq_1
*I *5535:X O *D sg13g2_and4_1
*CAP
1 *5855:D 0.000217051
2 *5535:X 0.000217051
3 *5855:D *5855:RESET_B 0
4 *5855:D *6007:A 0
*RES
1 *5535:X *5855:D 42.5235 
*END

*D_NET *245 0.000726712
*CONN
*I *5857:D I *D sg13g2_dfrbpq_1
*I *5537:Y O *D sg13g2_nor2_1
*CAP
1 *5857:D 0.000194886
2 *5537:Y 0.000130862
3 *245:8 0.000325748
4 *5857:D *5857:RESET_B 0
5 *5857:D *699:20 0
6 *5857:D *704:68 0
7 *5857:D *1025:14 0
8 *245:8 *604:10 7.52158e-05
*RES
1 *5537:Y *245:8 41.5862 
2 *245:8 *5857:D 41.2137 
*END

*D_NET *246 0.00412021
*CONN
*I *6020:A I *D sg13g2_buf_1
*I *5534:B1 I *D sg13g2_o21ai_1
*I *5010:Y O *D sg13g2_inv_1
*CAP
1 *6020:A 3.49985e-05
2 *5534:B1 0.000812979
3 *5010:Y 0.000208945
4 *246:12 0.000847977
5 *246:10 0.000208945
6 *5534:B1 *5491:D 0
7 *5534:B1 *5493:A 0.000242017
8 *5534:B1 *5493:C 0
9 *5534:B1 *5493:D 0
10 *5534:B1 *5534:A1 0.000533057
11 *5534:B1 *5534:A2 4.78359e-05
12 *5534:B1 *5535:C 0
13 *5534:B1 *574:10 0.000112552
14 *5534:B1 *650:59 0
15 *5534:B1 *680:18 0
16 *5534:B1 *1006:28 1.54556e-05
17 *5534:B1 *1006:34 0.000468144
18 *6020:A *5493:A 0
19 *246:10 *5491:A 0.000209637
20 *246:10 *5491:D 0.000144838
21 *246:10 *1001:67 0.000232833
22 *246:10 *1024:12 0
*RES
1 *5010:Y *246:10 42.4926 
2 *246:10 *246:12 20 
3 *246:12 *5534:B1 28.5593 
4 *246:12 *6020:A 20.3502 
*END

*D_NET *247 0.0032495
*CONN
*I *5452:A1 I *D sg13g2_a21oi_1
*I *5062:A1 I *D sg13g2_a21oi_1
*I *5011:Y O *D sg13g2_inv_1
*CAP
1 *5452:A1 0.000130606
2 *5062:A1 0.000534406
3 *5011:Y 0.000170768
4 *247:8 0.00083578
5 *5062:A1 *5980:A 0.000554491
6 *5062:A1 *703:12 0.000660971
7 *5062:A1 *1113:102 0
8 *5452:A1 *665:22 0
9 *5452:A1 *703:10 0.000128248
10 *5452:A1 *703:12 0.000106064
11 *247:8 *642:57 8.03091e-05
12 *247:8 *667:44 0
13 *5803:D *5452:A1 4.78524e-05
*RES
1 *5011:Y *247:8 41.6171 
2 *247:8 *5062:A1 47.0246 
3 *247:8 *5452:A1 41.7304 
*END

*D_NET *248 0.0031783
*CONN
*I *5046:A I *D sg13g2_nand4_1
*I *5272:A I *D sg13g2_nor3_1
*I *5012:Y O *D sg13g2_inv_1
*CAP
1 *5046:A 0.000505258
2 *5272:A 0.000520307
3 *5012:Y 0.000105984
4 *248:8 0.00113155
5 *5046:A *5046:B 0.000187069
6 *5046:A *5046:C 0
7 *5046:A *5059:A 0
8 *5046:A *5661:CLK 0
9 *5046:A *249:46 0.000728133
10 *5046:A *280:16 0
11 *5046:A *389:18 0
12 *5272:A *5013:A 0
13 *5272:A *249:10 0
14 *5272:A *389:18 0
15 *5272:A *1110:27 0
*RES
1 *5012:Y *248:8 41.0918 
2 *248:8 *5272:A 45.4899 
3 *248:8 *5046:A 45.9431 
*END

*D_NET *249 0.0042803
*CONN
*I *5046:B I *D sg13g2_nand4_1
*I *5272:B I *D sg13g2_nor3_1
*I *5267:A I *D sg13g2_nor2_1
*I *5270:A1 I *D sg13g2_a21oi_1
*I *5013:Y O *D sg13g2_inv_1
*CAP
1 *5046:B 7.35421e-05
2 *5272:B 0
3 *5267:A 0
4 *5270:A1 0.000293806
5 *5013:Y 0.00101643
6 *249:46 0.000588926
7 *249:12 0.000393917
8 *249:10 0.000601154
9 *5046:B *5046:C 3.39354e-05
10 *5046:B *5661:CLK 0
11 *5270:A1 *5269:A 0
12 *5270:A1 *348:63 0.000234726
13 *5270:A1 *410:12 0
14 *5270:A1 *657:33 0
15 *249:10 *5275:A1 0
16 *249:10 *280:16 0
17 *249:10 *657:33 0.000128662
18 *249:10 *1110:19 0
19 *249:10 *1110:27 0
20 *249:12 *657:33 0
21 *249:46 *5013:A 0
22 *249:46 *280:16 0
23 *5046:A *5046:B 0.000187069
24 *5046:A *249:46 0.000728133
25 *5272:A *249:10 0
*RES
1 *5013:Y *249:10 45.15 
2 *249:10 *249:12 0.8446 
3 *249:12 *5270:A1 42.8222 
4 *249:12 *5267:A 40 
5 *249:10 *5272:B 40 
6 *5013:Y *249:46 45.4384 
7 *249:46 *5046:B 40.9682 
*END

*D_NET *250 0.00276753
*CONN
*I *5266:A1 I *D sg13g2_a21oi_1
*I *5151:A2 I *D sg13g2_a21oi_1
*I *5014:Y O *D sg13g2_inv_1
*CAP
1 *5266:A1 0.000178569
2 *5151:A2 0.000772004
3 *5014:Y 0
4 *250:6 0.000950572
5 *5151:A2 *620:14 0
6 *5151:A2 *709:47 0
7 *5151:A2 *1031:34 0
8 *5151:A2 *1031:66 0.000690888
9 *5151:A2 *1031:72 1.53311e-05
10 *5266:A1 *5266:A2 8.00842e-05
11 *5266:A1 *431:8 0
12 *5266:A1 *1031:34 0
13 *5266:A1 *1105:37 8.00842e-05
14 *5599:D *5151:A2 0
15 *146:8 *5151:A2 0
16 *146:8 *5266:A1 0
*RES
1 *5014:Y *250:6 40 
2 *250:6 *5151:A2 48.3636 
3 *250:6 *5266:A1 41.8746 
*END

*D_NET *251 0.00151437
*CONN
*I *5260:A1 I *D sg13g2_a221oi_1
*I *5259:A I *D sg13g2_nor2_1
*I *5015:Y O *D sg13g2_inv_1
*CAP
1 *5260:A1 0.000130521
2 *5259:A 0.000332207
3 *5015:Y 0.000166754
4 *251:8 0.000629482
5 *5259:A *5258:D 0
6 *5259:A *5259:B 0
7 *5259:A *5260:B2 8.03089e-05
8 *5259:A *5260:B1 0.000144187
9 *5260:A1 *5258:D 0
10 *5260:A1 *5260:B1 1.54556e-05
11 *5260:A1 *412:38 0
12 *251:8 *1005:59 0
13 *5657:D *5259:A 0
14 *5657:D *251:8 1.54556e-05
*RES
1 *5015:Y *251:8 21.6274 
2 *251:8 *5259:A 23.6153 
3 *251:8 *5260:A1 21.7819 
*END

*D_NET *252 0.00400215
*CONN
*I *5257:A1 I *D sg13g2_a21oi_1
*I *5146:A2 I *D sg13g2_a21oi_1
*I *5016:Y O *D sg13g2_inv_1
*CAP
1 *5257:A1 0.000408563
2 *5146:A2 0
3 *5016:Y 2.57341e-05
4 *252:12 0.00155905
5 *252:6 0.00199335
6 *5257:A1 *5252:D 0
7 *5257:A1 *5257:A2 1.54556e-05
8 *5257:A1 *5257:B1 0
9 *5257:A1 *419:27 0
10 *5257:A1 *1105:6 0
11 *252:12 *5593:CLK 0
12 *252:12 *5653:RESET_B 0
13 *252:12 *776:8 0
14 *252:12 *787:8 0
15 *252:12 *1025:37 0
16 *252:12 *1102:69 0
17 *5653:D *252:12 0
18 *113:8 *252:12 0
19 *143:14 *252:12 0
*RES
1 *5016:Y *252:6 20.3193 
2 *252:6 *252:12 37.2937 
3 *252:12 *5146:A2 40 
4 *252:6 *5257:A1 22.8723 
*END

*D_NET *253 0.00390937
*CONN
*I *5251:A1 I *D sg13g2_a221oi_1
*I *5144:A2 I *D sg13g2_a21oi_1
*I *5017:Y O *D sg13g2_inv_1
*CAP
1 *5251:A1 0.000349947
2 *5144:A2 0
3 *5017:Y 0
4 *253:14 0.00123469
5 *253:6 0.00158464
6 *5251:A1 *5253:C 0
7 *5251:A1 *419:10 1.54008e-05
8 *5251:A1 *419:27 0.000226315
9 *5251:A1 *709:62 0
10 *5251:A1 *1105:12 0
11 *253:14 *5144:B1 0
12 *253:14 *5593:CLK 0
13 *253:14 *709:62 0
14 *253:14 *1025:60 0.000498385
15 *253:14 *1105:12 0
*RES
1 *5017:Y *253:6 40 
2 *253:6 *253:14 33.6269 
3 *253:14 *5144:A2 20 
4 *253:6 *5251:A1 43.6977 
*END

*D_NET *254 0.00222992
*CONN
*I *5249:A1 I *D sg13g2_a221oi_1
*I *5142:A2 I *D sg13g2_a21oi_1
*I *5018:Y O *D sg13g2_inv_1
*CAP
1 *5249:A1 0.000246731
2 *5142:A2 0.00084506
3 *5018:Y 0
4 *254:6 0.00109179
5 *5142:A2 *5142:A1 1.54556e-05
6 *5142:A2 *5251:B2 0
7 *5142:A2 *1103:18 0
8 *5142:A2 *1103:29 0
9 *5249:A1 *5249:B1 1.54282e-05
10 *5249:A1 *5251:B2 0
11 *5249:A1 *5651:RESET_B 0
12 *5249:A1 *413:14 0
13 *5249:A1 *629:52 0
14 *5249:A1 *1103:18 0
15 *5591:D *5142:A2 1.54556e-05
16 *5651:D *5142:A2 0
*RES
1 *5018:Y *254:6 40 
2 *254:6 *5142:A2 49.3215 
3 *254:6 *5249:A1 42.2501 
*END

*D_NET *255 0.00814942
*CONN
*I *5239:A I *D sg13g2_nor3_1
*I *5237:D I *D sg13g2_nand4_1
*I *5138:A2 I *D sg13g2_a21oi_1
*I *5019:Y O *D sg13g2_inv_1
*CAP
1 *5239:A 4.58708e-05
2 *5237:D 0
3 *5138:A2 0
4 *5019:Y 0.00190792
5 *255:40 0.000748427
6 *255:36 0.00081051
7 *255:20 0.00038397
8 *255:14 0.00218394
9 *255:14 *5135:B1 0
10 *255:14 *5136:B1 0
11 *255:14 *5235:A2 0
12 *255:14 *5585:RESET_B 0
13 *255:14 *5585:CLK 0
14 *255:14 *5647:RESET_B 0.000273902
15 *255:14 *631:16 2.46687e-05
16 *255:14 *1101:39 0
17 *255:14 *1102:10 0.000533908
18 *255:20 *756:10 0.000292789
19 *255:36 *409:14 0
20 *255:36 *631:16 4.77153e-05
21 *255:36 *709:62 0.00023547
22 *255:40 *5237:A 0
23 *255:40 *5238:A2 0.000111878
24 *255:40 *5663:CLK 0
25 *255:40 *398:16 0
26 *255:40 *405:18 4.78359e-05
27 *255:40 *406:18 0
28 *255:40 *409:14 0
29 *255:40 *621:24 0.000500605
30 *255:40 *631:16 0
31 *5587:D *255:14 0
32 *109:10 *255:14 0
*RES
1 *5019:Y *255:14 36.8432 
2 *255:14 *255:20 44.7998 
3 *255:20 *5138:A2 20 
4 *5019:Y *255:36 41.4111 
5 *255:36 *255:40 26.9278 
6 *255:40 *5237:D 20 
7 *255:40 *5239:A 20.5794 
*END

*D_NET *256 0.0023355
*CONN
*I *5136:A2 I *D sg13g2_a21oi_1
*I *5235:A1 I *D sg13g2_a21oi_1
*I *5020:Y O *D sg13g2_inv_1
*CAP
1 *5136:A2 0.000731819
2 *5235:A1 0.000213223
3 *5020:Y 6.24543e-05
4 *256:8 0.0010075
5 *5136:A2 *5020:A 0
6 *5136:A2 *5135:B1 0
7 *5136:A2 *5135:A1 0
8 *5136:A2 *5645:RESET_B 0
9 *5136:A2 *731:27 0.000241847
10 *5235:A1 *5020:A 0
11 *5235:A1 *5135:B1 0
12 *5235:A1 *5235:A2 1.54008e-05
13 *5235:A1 *5235:B1 1.54008e-05
14 *256:8 *5020:A 4.78556e-05
15 *5645:D *5235:A1 0
16 *5645:D *256:8 0
*RES
1 *5020:Y *256:8 20.9167 
2 *256:8 *5235:A1 22.2763 
3 *256:8 *5136:A2 27.9001 
*END

*D_NET *257 0.0039659
*CONN
*I *5229:A1 I *D sg13g2_a221oi_1
*I *5134:A2 I *D sg13g2_a21oi_1
*I *5228:A I *D sg13g2_nor3_1
*I *5021:Y O *D sg13g2_inv_1
*CAP
1 *5229:A1 9.04108e-05
2 *5134:A2 0.00105623
3 *5228:A 0.000249834
4 *5021:Y 5.89121e-05
5 *257:23 0.00132297
6 *257:8 0.000485081
7 *5134:A2 *5226:A 0
8 *5134:A2 *5229:B1 7.9314e-05
9 *5134:A2 *5641:RESET_B 0
10 *5134:A2 *708:68 0
11 *5134:A2 *1026:81 0.000239999
12 *5134:A2 *1098:29 0
13 *5228:A *5227:A2 0.00014459
14 *5228:A *5228:B 0
15 *5228:A *5228:C 0
16 *5228:A *5229:B1 0
17 *5228:A *1099:10 0
18 *5229:A1 *5226:A 0
19 *5229:A1 *5229:B1 0.00014384
20 *257:8 *5021:A 1.54008e-05
21 *257:8 *1098:29 7.93167e-05
*RES
1 *5021:Y *257:8 40.5356 
2 *257:8 *5228:A 42.06 
3 *257:8 *257:23 21.339 
4 *257:23 *5134:A2 31.3712 
5 *257:23 *5229:A1 20.9682 
*END

*D_NET *258 0.00526755
*CONN
*I *5227:A1 I *D sg13g2_a21oi_1
*I *5228:B I *D sg13g2_nor3_1
*I *5132:A2 I *D sg13g2_a21oi_1
*I *5022:Y O *D sg13g2_inv_1
*CAP
1 *5227:A1 9.15797e-05
2 *5228:B 0.000261514
3 *5132:A2 0.00144756
4 *5022:Y 0
5 *258:23 0.00063018
6 *258:4 0.00172465
7 *5132:A2 *5131:B1 0
8 *5132:A2 *5132:A1 1.54008e-05
9 *5132:A2 *5132:B1 0.00046884
10 *5132:A2 *5581:RESET_B 0.00033936
11 *5132:A2 *5581:CLK 0
12 *5132:A2 *631:66 0
13 *5132:A2 *710:27 0
14 *5132:A2 *1101:10 0
15 *5227:A1 *5227:A2 1.54008e-05
16 *5227:A1 *1098:29 0
17 *5228:B *5227:A2 0.000209697
18 *5228:B *5228:C 1.54556e-05
19 *5228:B *403:10 0
20 *258:23 *5022:A 0
21 *258:23 *631:66 0
22 *5228:A *5228:B 0
23 *137:10 *5227:A1 4.79124e-05
24 *137:10 *258:23 0
*RES
1 *5022:Y *258:4 20 
2 *258:4 *5132:A2 36.4491 
3 *258:4 *258:23 3.0282 
4 *258:23 *5228:B 22.9149 
5 *258:23 *5227:A1 21.3493 
*END

*D_NET *259 0.00381744
*CONN
*I *5224:B2 I *D sg13g2_a221oi_1
*I *5130:A2 I *D sg13g2_a21oi_1
*I *5023:Y O *D sg13g2_inv_1
*CAP
1 *5224:B2 0.000150748
2 *5130:A2 0
3 *5023:Y 0.00142491
4 *259:24 0.000330994
5 *259:10 0.00124466
6 *5224:B2 *5221:B 0.000207881
7 *5224:B2 *5224:C1 0
8 *5224:B2 *397:8 0.000143287
9 *259:10 *5643:RESET_B 0
10 *259:10 *632:58 0
11 *259:10 *632:66 0
12 *259:10 *1026:12 0.000224668
13 *259:10 *1026:14 1.53311e-05
14 *259:24 *5221:D 7.49633e-05
15 *259:24 *632:54 0
16 *259:24 *1096:12 0
*RES
1 *5023:Y *259:10 33.0398 
2 *259:10 *5130:A2 20 
3 *5023:Y *259:24 41.8334 
4 *259:24 *5224:B2 41.6171 
*END

*D_NET *260 0.00961389
*CONN
*I *5220:A1 I *D sg13g2_a221oi_1
*I *5128:A2 I *D sg13g2_a21oi_1
*I *5024:Y O *D sg13g2_inv_1
*CAP
1 *5220:A1 0.000353079
2 *5128:A2 4.72624e-05
3 *5024:Y 0
4 *260:8 0.00415678
5 *260:6 0.0044626
6 *5128:A2 *5128:A1 1.54556e-05
7 *5128:A2 *5577:CLK 0
8 *5220:A1 *5220:B1 8.00842e-05
9 *5220:A1 *269:10 0
10 *5220:A1 *286:67 0.000241718
11 *5220:A1 *605:231 0
12 *5220:A1 *632:43 0
13 *5220:A1 *1095:18 0.000129089
14 *5220:A1 *1095:29 0
15 *5220:A1 *1095:55 0
16 *260:8 *283:12 0
17 *260:8 *410:20 0
18 *260:8 *421:10 0
19 *260:8 *605:231 0
20 *260:8 *605:233 0
21 *260:8 *605:235 0
22 *260:8 *620:14 0
23 *260:8 *620:25 0
24 *260:8 *621:10 0
25 *260:8 *630:57 0.000127823
26 *260:8 *632:43 0
27 *260:8 *705:39 0
28 *260:8 *743:10 0
29 *260:8 *820:14 0
30 *260:8 *1012:55 0
31 *260:8 *1012:57 0
32 *5577:D *5128:A2 0
33 *116:16 *260:8 0
*RES
1 *5024:Y *260:6 40 
2 *260:6 *260:8 38.6662 
3 *260:8 *5128:A2 40.166 
4 *260:6 *5220:A1 43.5432 
*END

*D_NET *261 0.0133706
*CONN
*I *5126:A2 I *D sg13g2_a21oi_1
*I *5217:A1 I *D sg13g2_a221oi_1
*I *5025:Y O *D sg13g2_inv_1
*CAP
1 *5126:A2 0
2 *5217:A1 0
3 *5025:Y 0
4 *261:39 0.000371729
5 *261:31 0.0033817
6 *261:25 0.00343614
7 *261:12 0.000654452
8 *261:4 0.00108063
9 *261:12 *5217:B1 1.53311e-05
10 *261:12 *5217:A2 0
11 *261:12 *292:12 0
12 *261:12 *390:8 0.000181298
13 *261:12 *390:12 0
14 *261:12 *639:40 0
15 *261:12 *1012:113 0.000722704
16 *261:25 *5025:A 0.000112651
17 *261:25 *292:12 0
18 *261:25 *639:40 0
19 *261:25 *657:14 0
20 *261:31 *5031:A 0
21 *261:31 *5096:A 0
22 *261:31 *5098:B 0
23 *261:31 *5123:A1 0.000533805
24 *261:31 *5555:RESET_B 0.000145151
25 *261:31 *5861:RESET_B 0.000274545
26 *261:31 *5922:A 0
27 *261:31 *646:6 0
28 *261:31 *646:48 0
29 *261:31 *660:18 0
30 *261:31 *660:29 0
31 *261:31 *662:10 0
32 *261:31 *662:23 0
33 *261:31 *662:36 0.00208866
34 *261:31 *666:10 0
35 *261:31 *1086:10 0
36 *261:39 *5126:A1 0.000259112
37 *261:39 *660:29 0.000112689
38 *261:39 *707:93 0
39 *5555:D *261:31 0
*RES
1 *5025:Y *261:4 20 
2 *261:4 *261:12 48.1473 
3 *261:12 *5217:A1 20 
4 *261:4 *261:25 44.8101 
5 *261:25 *261:31 33.2175 
6 *261:31 *261:39 44.3157 
7 *261:39 *5126:A2 20 
*END

*D_NET *262 0.00347878
*CONN
*I *5210:B2 I *D sg13g2_a221oi_1
*I *5121:A2 I *D sg13g2_a21oi_1
*I *5026:Y O *D sg13g2_inv_1
*CAP
1 *5210:B2 4.52895e-05
2 *5121:A2 0
3 *5026:Y 0.000499449
4 *262:14 0.00113305
5 *262:8 0.00167779
6 *5210:B2 *5210:C1 1.54008e-05
7 *5210:B2 *348:38 8.0216e-05
8 *262:14 *5569:CLK 0
9 *262:14 *5571:CLK 0
10 *262:14 *634:10 0
11 *262:14 *655:8 0
12 *262:14 *656:44 2.75793e-05
*RES
1 *5026:Y *262:8 44.7998 
2 *262:8 *262:14 32.6767 
3 *262:14 *5121:A2 20 
4 *262:8 *5210:B2 40.5356 
*END

*D_NET *263 0.0117638
*CONN
*I *6019:A I *D sg13g2_buf_1
*I *6016:A I *D sg13g2_buf_1
*I *5028:Y O *D sg13g2_nand2_1
*CAP
1 *6019:A 0.000452088
2 *6016:A 0.00238812
3 *5028:Y 0.000505525
4 *263:18 0.00325868
5 *263:10 0.00132265
6 *263:8 0.000505525
7 *6016:A *5292:B 0
8 *6016:A *5294:A 0
9 *6016:A *5294:C 0
10 *6016:A *5295:A 0.00023729
11 *6016:A *5297:C 0.000242187
12 *6016:A *5384:A1 0.00024122
13 *6016:A *5673:RESET_B 0
14 *6016:A *5843:RESET_B 0
15 *6016:A *5843:CLK 0
16 *6016:A *687:73 0
17 *6016:A *687:94 0.000208878
18 *6016:A *696:31 0
19 *6016:A *696:33 0
20 *6016:A *701:57 0.00093687
21 *6016:A *701:63 0.00024211
22 *6016:A *1023:49 0
23 *6016:A *1035:46 0
24 *6016:A *1036:10 8.02269e-05
25 *6019:A *5290:A1 0
26 *6019:A *6017:A 0
27 *6019:A *672:80 0
28 *6019:A *690:27 0
29 *6019:A *1020:8 0
30 *6019:A *1023:26 0
31 *263:8 *672:61 7.51285e-05
32 *263:8 *672:80 0.00106726
33 *263:18 *448:8 0
34 *263:18 *673:43 0
35 *263:18 *1023:26 0
36 *5669:D *263:18 0
37 *5673:D *6016:A 0
38 *5675:D *6016:A 0
*RES
1 *5028:Y *263:8 47.519 
2 *263:8 *263:10 20 
3 *263:10 *263:18 49.6923 
4 *263:18 *6016:A 45.8118 
5 *263:10 *6019:A 23.2837 
*END

*D_NET *264 0.000463092
*CONN
*I *5030:B I *D sg13g2_nor2_1
*I *5029:Y O *D sg13g2_nand3_1
*CAP
1 *5030:B 0.000231546
2 *5029:Y 0.000231546
3 *5030:B *1020:34 0
4 *5877:D *5030:B 0
*RES
1 *5029:Y *5030:B 42.2145 
*END

*D_NET *265 0.00124706
*CONN
*I *5035:B1 I *D sg13g2_a21o_1
*I *5033:X O *D sg13g2_and3_1
*CAP
1 *5035:B1 0.000341093
2 *5033:X 0.000341093
3 *5035:B1 *5035:A2 0.000307226
4 *5035:B1 *5035:A1 0.000209856
5 *5035:B1 *1048:23 0
6 *5035:B1 *1048:29 0
7 *5035:B1 *1052:19 4.77863e-05
*RES
1 *5033:X *5035:B1 44.2127 
*END

*D_NET *266 0.00601998
*CONN
*I *5037:A2 I *D sg13g2_a21o_1
*I *5067:B1 I *D sg13g2_a22oi_1
*I *5035:A2 I *D sg13g2_a21o_1
*I *5070:A2 I *D sg13g2_a21o_1
*I *5034:Y O *D sg13g2_nor2_1
*CAP
1 *5037:A2 0.000294671
2 *5067:B1 2.14878e-05
3 *5035:A2 0.000908078
4 *5070:A2 0.000230569
5 *5034:Y 0.000169686
6 *266:27 0.00121852
7 *266:14 0.000900179
8 *266:10 0.000845011
9 *5035:A2 *5035:A1 8.19147e-05
10 *5035:A2 *5875:CLK 0
11 *5035:A2 *295:10 1.54008e-05
12 *5035:A2 *605:227 0
13 *5035:A2 *700:34 0
14 *5035:A2 *1048:23 0
15 *5037:A2 *5034:A 0
16 *5037:A2 *5037:A1 0
17 *5037:A2 *5037:B1 0.000176811
18 *5037:A2 *605:292 0
19 *5037:A2 *715:21 0
20 *5037:A2 *715:78 1.81233e-05
21 *5037:A2 *1051:29 2.96615e-05
22 *5067:B1 *5875:CLK 0
23 *5067:B1 *295:10 4.78195e-05
24 *5070:A2 *5036:C 0
25 *5070:A2 *5070:A1 8.02379e-05
26 *5070:A2 *5070:B1 0
27 *5070:A2 *605:227 0
28 *5070:A2 *715:39 1.69409e-05
29 *266:10 *605:292 0
30 *266:10 *700:24 8.02272e-05
31 *266:14 *5036:C 0
32 *266:14 *5037:B1 0
33 *266:14 *605:227 0
34 *266:14 *605:292 0
35 *266:14 *715:27 0
36 *266:27 *638:29 0
37 *266:27 *700:34 0.000288087
38 *266:27 *1032:26 0
39 *266:27 *1048:12 0.000289332
40 *5035:B1 *5035:A2 0.000307226
41 *85:10 *5035:A2 0
*RES
1 *5034:Y *266:10 41.6274 
2 *266:10 *266:14 23.3475 
3 *266:14 *5070:A2 22.2763 
4 *266:14 *266:27 44.0582 
5 *266:27 *5035:A2 30.4133 
6 *266:27 *5067:B1 20.3193 
7 *266:10 *5037:A2 43.2419 
*END

*D_NET *267 0.000631012
*CONN
*I *5037:B1 I *D sg13g2_a21o_1
*I *5036:X O *D sg13g2_and3_1
*CAP
1 *5037:B1 0.000219386
2 *5036:X 0.000219386
3 *5037:B1 *5037:A1 1.54285e-05
4 *5037:B1 *715:27 0
5 *5037:A2 *5037:B1 0.000176811
6 *266:14 *5037:B1 0
*RES
1 *5036:X *5037:B1 42.2145 
*END

*D_NET *268 0.0080354
*CONN
*I *5042:A I *D sg13g2_and4_1
*I *5043:A I *D sg13g2_nand4_1
*I *5038:Y O *D sg13g2_nor4_1
*CAP
1 *5042:A 2.66523e-05
2 *5043:A 0
3 *5038:Y 5.92889e-05
4 *268:32 0.000182464
5 *268:24 0.00213061
6 *268:8 0.00198078
7 *5042:A *5042:B 4.77425e-05
8 *5042:A *384:6 0
9 *268:8 *5038:D 0.000128247
10 *268:8 *367:46 0
11 *268:8 *1100:34 7.51285e-05
12 *268:24 *5042:B 8.00716e-05
13 *268:24 *5231:B 0.000177555
14 *268:24 *5231:A 0.000242203
15 *268:24 *5233:B 0.00110777
16 *268:24 *283:12 0
17 *268:24 *358:36 0
18 *268:24 *384:6 0
19 *268:24 *385:14 0.000218604
20 *268:24 *405:10 0
21 *268:24 *621:14 0.000436155
22 *268:24 *621:24 0.000112241
23 *268:24 *632:10 0
24 *268:24 *632:43 0
25 *268:32 *5043:B 4.77425e-05
26 *268:32 *5043:D 0.000237686
27 *268:32 *271:8 0.00018387
28 *268:32 *290:10 0.00056058
*RES
1 *5038:Y *268:8 40.8446 
2 *268:8 *268:24 38.8332 
3 *268:24 *268:32 42.8943 
4 *268:32 *5043:A 20 
5 *268:24 *5042:A 20.3193 
*END

*D_NET *269 0.0058499
*CONN
*I *5043:B I *D sg13g2_nand4_1
*I *5042:B I *D sg13g2_and4_1
*I *5039:Y O *D sg13g2_nor4_1
*CAP
1 *5043:B 4.52889e-05
2 *5042:B 0.000191394
3 *5039:Y 0.00150804
4 *269:14 0.00040054
5 *269:10 0.0016719
6 *5042:B *5043:D 0.000215263
7 *5042:B *270:28 0.000457427
8 *5042:B *271:8 0.000130055
9 *5043:B *270:28 7.9768e-05
10 *269:10 *5039:D 0.000505929
11 *269:10 *5219:D 0
12 *269:10 *5220:B2 0
13 *269:10 *283:6 0
14 *269:10 *283:12 0
15 *269:10 *358:14 0
16 *269:10 *358:36 0.000371583
17 *269:10 *393:12 0
18 *269:10 *1095:55 9.71568e-05
19 *5042:A *5042:B 4.77425e-05
20 *5220:A1 *269:10 0
21 *268:24 *5042:B 8.00716e-05
22 *268:32 *5043:B 4.77425e-05
*RES
1 *5039:Y *269:10 34.832 
2 *269:10 *269:14 21.5862 
3 *269:14 *5042:B 42.8325 
4 *269:14 *5043:B 40.5356 
*END

*D_NET *270 0.00978414
*CONN
*I *5043:C I *D sg13g2_nand4_1
*I *5042:C I *D sg13g2_and4_1
*I *5040:Y O *D sg13g2_nor4_1
*CAP
1 *5043:C 0
2 *5042:C 0
3 *5040:Y 0.000179608
4 *270:28 0.000351309
5 *270:18 0.00185723
6 *270:8 0.00168553
7 *270:8 *5040:D 1.54556e-05
8 *270:8 *608:6 0.000306959
9 *270:8 *1088:36 0
10 *270:8 *1088:42 8.02434e-05
11 *270:8 *1088:50 0.000177203
12 *270:18 *5053:B 4.77425e-05
13 *270:18 *5061:B 0
14 *270:18 *5061:C 8.02102e-05
15 *270:18 *5063:B1 0
16 *270:18 *5205:C 0.000319852
17 *270:18 *5205:D 0.000182109
18 *270:18 *281:16 4.77425e-05
19 *270:18 *281:22 0.000181608
20 *270:18 *283:6 0.00076042
21 *270:18 *358:14 0
22 *270:18 *378:8 0.00247194
23 *270:18 *383:10 0.000341621
24 *270:18 *705:113 0
25 *270:18 *1016:35 0
26 *270:28 *5042:D 8.00842e-05
27 *270:28 *5043:D 8.00842e-05
28 *5042:B *270:28 0.000457427
29 *5043:B *270:28 7.9768e-05
*RES
1 *5040:Y *270:8 42.0497 
2 *270:8 *270:18 41.0223 
3 *270:18 *270:28 43.5226 
4 *270:28 *5042:C 20 
5 *270:18 *5043:C 20 
*END

*D_NET *271 0.00167583
*CONN
*I *5043:D I *D sg13g2_nand4_1
*I *5042:D I *D sg13g2_and4_1
*I *5041:Y O *D sg13g2_nor4_1
*CAP
1 *5043:D 8.70597e-05
2 *5042:D 4.37077e-05
3 *5041:Y 0.000163544
4 *271:8 0.000294311
5 *5042:D *385:14 8.00842e-05
6 *5043:D *283:6 8.00842e-05
7 *5042:B *5043:D 0.000215263
8 *5042:B *271:8 0.000130055
9 *268:32 *5043:D 0.000237686
10 *268:32 *271:8 0.00018387
11 *270:28 *5042:D 8.00842e-05
12 *270:28 *5043:D 8.00842e-05
*RES
1 *5041:Y *271:8 41.8334 
2 *271:8 *5042:D 40.5356 
3 *271:8 *5043:D 41.6274 
*END

*D_NET *272 0.000756112
*CONN
*I *5061:B I *D sg13g2_nand3_1
*I *5042:X O *D sg13g2_and4_1
*CAP
1 *5061:B 0.000176281
2 *5042:X 7.52258e-05
3 *272:8 0.000251506
4 *5061:B *5061:C 1.54556e-05
5 *5061:B *5061:A 0
6 *5061:B *5063:B1 0
7 *272:8 *387:25 0.000237643
8 *270:18 *5061:B 0
*RES
1 *5042:X *272:8 41.0918 
2 *272:8 *5061:B 41.6171 
*END

*D_NET *273 0.000217072
*CONN
*I *5063:A1 I *D sg13g2_o21ai_1
*I *5043:Y O *D sg13g2_nand4_1
*CAP
1 *5063:A1 0.000108536
2 *5043:Y 0.000108536
3 *5063:A1 *358:14 0
*RES
1 *5043:Y *5063:A1 41.133 
*END

*D_NET *274 0.0030986
*CONN
*I *5184:A I *D sg13g2_nor4_1
*I *5045:C I *D sg13g2_nor3_1
*I *5044:Y O *D sg13g2_nand2_1
*CAP
1 *5184:A 0.000335285
2 *5045:C 0.000965334
3 *5044:Y 0
4 *274:4 0.00130062
5 *5045:C *5059:D 0.000112651
6 *5045:C *280:16 0
7 *5045:C *387:14 0
8 *5045:C *1016:41 0
9 *5045:C *1016:65 0
10 *5045:C *1109:21 1.54556e-05
11 *5184:A *5044:A 4.77425e-05
12 *5184:A *5184:B 0.000241429
13 *5184:A *1016:41 6.39133e-05
14 *5184:A *1117:25 1.61708e-05
*RES
1 *5044:Y *274:4 20 
2 *274:4 *5045:C 29.4039 
3 *274:4 *5184:A 23.9243 
*END

*D_NET *275 0.000589241
*CONN
*I *5060:A I *D sg13g2_nand4_1
*I *5045:Y O *D sg13g2_nor3_1
*CAP
1 *5060:A 4.48761e-05
2 *5045:Y 0.000218107
3 *275:8 0.000262983
4 *5060:A *5041:B 0
5 *5060:A *279:12 4.78195e-05
6 *5060:A *290:10 1.54556e-05
7 *5060:A *387:14 0
8 *5060:A *1094:24 0
*RES
1 *5045:Y *275:8 42.575 
2 *275:8 *5060:A 40.5356 
*END

*D_NET *276 0.000230837
*CONN
*I *5059:A I *D sg13g2_nor4_1
*I *5046:Y O *D sg13g2_nand4_1
*CAP
1 *5059:A 0.000107718
2 *5046:Y 0.000107718
3 *5059:A *280:16 1.54008e-05
4 *5059:A *1016:65 0
5 *5046:A *5059:A 0
*RES
1 *5046:Y *5059:A 41.133 
*END

*D_NET *277 0.000300782
*CONN
*I *5050:A I *D sg13g2_nand2_1
*I *5047:Y O *D sg13g2_nor2_1
*CAP
1 *5050:A 0.000150391
2 *5047:Y 0.000150391
3 *5050:A *5047:B 0
4 *5050:A *5050:B 0
*RES
1 *5047:Y *5050:A 41.8334 
*END

*D_NET *278 0.000919242
*CONN
*I *5050:B I *D sg13g2_nand2_1
*I *5048:Y O *D sg13g2_nor2_1
*CAP
1 *5050:B 3.05477e-05
2 *5048:Y 0.000285195
3 *278:8 0.000315742
4 *5050:B *5047:B 0
5 *278:8 *5049:C 0
6 *278:8 *279:12 0
7 *278:8 *1104:48 0.000287757
8 *5050:A *5050:B 0
*RES
1 *5048:Y *278:8 43.5638 
2 *278:8 *5050:B 40.2858 
*END

*D_NET *279 0.00568339
*CONN
*I *5060:B I *D sg13g2_nand4_1
*I *5049:Y O *D sg13g2_nor4_1
*CAP
1 *5060:B 0
2 *5049:Y 0
3 *279:12 0.00155669
4 *279:6 0.00155669
5 *279:12 *5060:C 8.03692e-05
6 *279:12 *5233:B 0
7 *279:12 *280:16 0.00225979
8 *279:12 *387:14 0
9 *279:12 *657:33 0
10 *279:12 *1094:24 0
11 *279:12 *1107:32 0.000182023
12 *279:12 *1107:38 0
13 *279:12 *1110:8 0
14 *279:12 *1110:27 0
15 *5060:A *279:12 4.78195e-05
16 *278:8 *279:12 0
*RES
1 *5049:Y *279:6 40 
2 *279:6 *279:12 40.5691 
3 *279:12 *5060:B 20 
*END

*D_NET *280 0.00575972
*CONN
*I *5059:B I *D sg13g2_nor4_1
*I *5050:Y O *D sg13g2_nand2_1
*CAP
1 *5059:B 0
2 *5050:Y 0
3 *280:16 0.00159722
4 *280:6 0.00159722
5 *280:16 *5013:A 0
6 *280:16 *5045:A 0
7 *280:16 *5059:C 4.78521e-05
8 *280:16 *5059:D 0
9 *280:16 *5263:B 0
10 *280:16 *5272:C 0
11 *280:16 *429:8 0
12 *280:16 *430:35 0
13 *280:16 *657:33 0
14 *280:16 *1107:38 0
15 *280:16 *1109:21 0
16 *280:16 *1110:19 0
17 *280:16 *1110:27 0.000242236
18 *5045:C *280:16 0
19 *5046:A *280:16 0
20 *5059:A *280:16 1.54008e-05
21 *249:10 *280:16 0
22 *249:46 *280:16 0
23 *279:12 *280:16 0.00225979
*RES
1 *5050:Y *280:6 40 
2 *280:6 *280:16 39.7245 
3 *280:16 *5059:B 20 
*END

*D_NET *281 0.00336897
*CONN
*I *5053:A I *D sg13g2_nor2_1
*I *5205:A I *D sg13g2_nor4_1
*I *5051:Y O *D sg13g2_nand4_1
*CAP
1 *5053:A 0
2 *5205:A 0
3 *5051:Y 0.000665935
4 *281:22 8.01152e-05
5 *281:16 0.000669822
6 *281:12 0.00125564
7 *281:12 *5051:A 0
8 *281:12 *5057:B 0.000339492
9 *281:12 *348:18 0
10 *281:12 *358:78 0.000128618
11 *281:12 *367:101 0
12 *281:12 *1115:37 0
13 *281:16 *5178:A 0
14 *281:16 *5178:C 0
15 *281:16 *282:12 0
16 *281:16 *285:6 0
17 *281:16 *358:14 0
18 *281:16 *1014:48 0
19 *270:18 *281:16 4.77425e-05
20 *270:18 *281:22 0.000181608
*RES
1 *5051:Y *281:12 46.489 
2 *281:12 *281:16 25.7268 
3 *281:16 *281:22 41.0918 
4 *281:22 *5205:A 20 
5 *281:16 *5053:A 20 
*END

*D_NET *282 0.00330603
*CONN
*I *5053:B I *D sg13g2_nor2_1
*I *5205:B I *D sg13g2_nor4_1
*I *5052:Y O *D sg13g2_nand4_1
*CAP
1 *5053:B 0.000109717
2 *5205:B 3.73679e-05
3 *5052:Y 0.000272743
4 *282:12 0.001161
5 *282:8 0.00128666
6 *5205:B *5205:C 8.01116e-05
7 *282:8 *5051:D 0
8 *282:8 *284:8 0.000182525
9 *282:8 *358:78 0
10 *282:8 *1097:61 0.00012816
11 *282:12 *5055:B 0
12 *282:12 *5182:A2 0
13 *282:12 *285:6 0
14 *5617:D *282:12 0
15 *125:10 *282:12 0
16 *270:18 *5053:B 4.77425e-05
17 *281:16 *282:12 0
*RES
1 *5052:Y *282:8 43.3166 
2 *282:8 *282:12 30.7017 
3 *282:12 *5205:B 20.5356 
4 *282:12 *5053:B 21.3802 
*END

*D_NET *283 0.00499988
*CONN
*I *5213:B I *D sg13g2_nand4_1
*I *5233:A I *D sg13g2_nand4_1
*I *5053:Y O *D sg13g2_nor2_1
*CAP
1 *5213:B 0
2 *5233:A 0
3 *5053:Y 0.000671937
4 *283:12 0.00130337
5 *283:6 0.00197531
6 *283:6 *385:14 0
7 *283:12 *5219:D 0
8 *283:12 *286:53 0
9 *283:12 *358:24 0
10 *283:12 *358:36 0
11 *283:12 *385:14 0
12 *283:12 *392:10 8.01776e-05
13 *283:12 *621:10 0.000128576
14 *283:12 *1012:55 0
15 *283:12 *1095:55 0
16 *5043:D *283:6 8.00842e-05
17 *260:8 *283:12 0
18 *268:24 *283:12 0
19 *269:10 *283:6 0
20 *269:10 *283:12 0
21 *270:18 *283:6 0.00076042
*RES
1 *5053:Y *283:6 27.0246 
2 *283:6 *283:12 32.1323 
3 *283:12 *5233:A 40 
4 *283:6 *5213:B 20 
*END

*D_NET *284 0.00946632
*CONN
*I *5168:A1 I *D sg13g2_a21oi_1
*I *5211:C I *D sg13g2_and4_1
*I *5060:C I *D sg13g2_nand4_1
*I *5054:X O *D sg13g2_and4_1
*CAP
1 *5168:A1 0.000134025
2 *5211:C 0
3 *5060:C 4.30522e-05
4 *5054:X 0.000293835
5 *284:33 3.13157e-05
6 *284:18 0.000909966
7 *284:12 0.00249336
8 *284:8 0.00202299
9 *5060:C *5060:D 4.79124e-05
10 *5060:C *1094:24 0
11 *5168:A1 *5052:A 2.14736e-05
12 *5168:A1 *1013:12 7.48725e-05
13 *5168:A1 *1013:16 8.00842e-05
14 *5168:A1 *1013:31 1.54008e-05
15 *5168:A1 *1112:14 0.000264702
16 *5168:A1 *1115:14 0
17 *284:8 *5051:A 0
18 *284:8 *5051:D 0
19 *284:8 *5052:A 0.00055162
20 *284:8 *358:78 0
21 *284:8 *1015:117 0
22 *284:8 *1097:61 0.000129078
23 *284:18 *5060:D 0.00163988
24 *284:18 *286:31 0.000371406
25 *284:18 *1012:21 0
26 *284:18 *1012:32 0
27 *284:33 *5211:D 1.54008e-05
28 *284:33 *708:68 0
29 *284:33 *1003:25 4.76452e-05
30 *284:33 *1003:31 1.54008e-05
31 *279:12 *5060:C 8.03692e-05
32 *282:8 *284:8 0.000182525
*RES
1 *5054:X *284:8 44.0582 
2 *284:8 *284:12 38.9211 
3 *284:12 *284:18 30.2485 
4 *284:18 *5060:C 40.5356 
5 *284:12 *284:33 40.3193 
6 *284:33 *5211:C 20 
7 *284:8 *5168:A1 41.8746 
*END

*D_NET *285 0.00346994
*CONN
*I *6013:A I *D sg13g2_buf_1
*I *5180:C I *D sg13g2_nor3_1
*I *5178:C I *D sg13g2_nor3_1
*I *5055:Y O *D sg13g2_nand4_1
*CAP
1 *6013:A 0
2 *5180:C 3.84268e-05
3 *5178:C 6.49119e-05
4 *5055:Y 0.000404679
5 *285:34 0.000156104
6 *285:21 0.000560001
7 *285:6 0.00083506
8 *5178:C *358:78 0.000112268
9 *5180:C *5058:B 1.54008e-05
10 *5180:C *287:92 3.23417e-05
11 *5180:C *1016:14 0
12 *5180:C *1016:16 0
13 *285:6 *5055:A 1.54556e-05
14 *285:6 *358:78 0.000694542
15 *285:21 *287:10 0
16 *285:21 *287:12 0
17 *285:21 *287:92 0.000306531
18 *285:21 *358:78 0
19 *285:21 *367:101 0.000234224
20 *285:21 *1016:14 0
21 *285:34 *1014:40 0
22 *285:34 *1014:42 0
23 *285:34 *1016:14 0
24 *5617:D *285:6 0
25 *281:16 *5178:C 0
26 *281:16 *285:6 0
27 *282:12 *285:6 0
*RES
1 *5055:Y *285:6 24.6453 
2 *285:6 *5178:C 20.7519 
3 *285:6 *285:21 43.7904 
4 *285:21 *5180:C 20.3193 
5 *285:21 *285:34 41.339 
6 *285:34 *6013:A 20 
*END

*D_NET *286 0.0205916
*CONN
*I *5211:D I *D sg13g2_and4_1
*I *5216:A I *D sg13g2_nand4_1
*I *5219:B I *D sg13g2_and4_1
*I *5230:A I *D sg13g2_nand4_1
*I *5242:A I *D sg13g2_and4_1
*I *5060:D I *D sg13g2_nand4_1
*I *5056:X O *D sg13g2_and4_1
*CAP
1 *5211:D 2.88386e-05
2 *5216:A 0
3 *5219:B 0
4 *5230:A 5.65867e-05
5 *5242:A 0.00100932
6 *5060:D 0.000382203
7 *5056:X 0.00145835
8 *286:67 0.00226283
9 *286:61 0.00153204
10 *286:53 0.000741444
11 *286:41 0.00129449
12 *286:31 0.00102306
13 *286:16 0.000488254
14 *286:14 0.00145835
15 *5060:D *384:12 0.000399241
16 *5060:D *392:10 0.00083143
17 *5060:D *1094:24 0
18 *5230:A *5230:B 1.54008e-05
19 *5230:A *358:36 7.97151e-05
20 *5230:A *1002:84 0
21 *5242:A *5038:B 0.000713368
22 *5242:A *5242:B 8.0216e-05
23 *5242:A *1002:32 0
24 *5242:A *1015:50 0
25 *5242:A *1099:16 0
26 *5242:A *1101:54 0
27 *286:14 *287:10 0
28 *286:14 *288:10 0
29 *286:14 *367:18 0.00011255
30 *286:14 *367:101 0
31 *286:14 *1005:27 0.000426038
32 *286:14 *1016:8 1.54556e-05
33 *286:14 *1093:50 0.000112558
34 *286:31 *392:10 0.000445646
35 *286:31 *1012:113 0
36 *286:41 *5637:RESET_B 0
37 *286:41 *708:68 0
38 *286:41 *1003:31 0.000818968
39 *286:41 *1005:39 0
40 *286:53 *358:24 5.46112e-05
41 *286:53 *358:36 1.54008e-05
42 *286:53 *1003:31 0
43 *286:53 *1005:39 0.000232421
44 *286:53 *1015:35 0
45 *286:61 *358:36 0.000176099
46 *286:61 *385:37 0.00060768
47 *286:61 *605:231 0
48 *286:61 *1095:55 0.000176526
49 *286:67 *5039:A 0
50 *286:67 *5222:B 0
51 *286:67 *5222:D 0.000274321
52 *286:67 *5228:C 0.000951845
53 *286:67 *5230:D 0
54 *286:67 *367:42 0
55 *286:67 *1094:48 0
56 *286:67 *1094:54 0
57 *286:67 *1099:10 0
58 *286:67 *1099:16 0
59 *5060:C *5060:D 4.79124e-05
60 *5220:A1 *286:67 0.000241718
61 *135:8 *286:41 0
62 *283:12 *286:53 0
63 *284:18 *5060:D 0.00163988
64 *284:18 *286:31 0.000371406
65 *284:33 *5211:D 1.54008e-05
*RES
1 *5056:X *286:14 31.8637 
2 *286:14 *286:16 20 
3 *286:16 *5060:D 47.8383 
4 *286:16 *286:31 22.0806 
5 *286:31 *286:41 28.9095 
6 *286:41 *286:53 24.532 
7 *286:53 *286:61 44.0067 
8 *286:61 *286:67 31.4227 
9 *286:67 *5242:A 49.476 
10 *286:67 *5230:A 40.5356 
11 *286:53 *5219:B 20 
12 *286:41 *5216:A 40 
13 *286:31 *5211:D 20.3193 
*END

*D_NET *287 0.0110327
*CONN
*I *5180:B I *D sg13g2_nor3_1
*I *5058:B I *D sg13g2_nor2_1
*I *5178:B I *D sg13g2_nor3_1
*I *5184:C I *D sg13g2_nor4_1
*I *5190:D I *D sg13g2_nor4_1
*I *5059:D I *D sg13g2_nor4_1
*I *5209:B I *D sg13g2_nor4_1
*I *5208:B I *D sg13g2_nor4_1
*I *5057:Y O *D sg13g2_nand4_1
*CAP
1 *5180:B 0
2 *5058:B 0.000591129
3 *5178:B 0
4 *5184:C 3.20595e-05
5 *5190:D 0
6 *5059:D 0.000335721
7 *5209:B 9.24131e-05
8 *5208:B 0.000194397
9 *5057:Y 0.000142018
10 *287:92 0.000868424
11 *287:41 0.000474222
12 *287:28 0.000799048
13 *287:24 0.00092404
14 *287:14 0.00141523
15 *287:12 0.00111864
16 *287:10 0.000520262
17 *5058:B *358:14 0.000144857
18 *5058:B *367:18 0.000177509
19 *5058:B *367:101 6.46834e-05
20 *5058:B *1016:16 0
21 *5058:B *1016:26 0
22 *5059:D *5059:C 4.78521e-05
23 *5059:D *289:8 0.000130055
24 *5059:D *1016:65 4.77425e-05
25 *5059:D *1016:76 0.000345425
26 *5059:D *1091:73 0.00028745
27 *5184:C *5184:B 4.77863e-05
28 *5184:C *370:10 0
29 *5208:B *5208:D 0.0001124
30 *5208:B *386:23 0
31 *5208:B *1014:70 0
32 *5208:B *1091:73 0.000235153
33 *5209:B *373:20 0.000143999
34 *5209:B *1014:70 7.93152e-05
35 *287:10 *358:78 0.000143577
36 *287:12 *5179:A 0
37 *287:12 *5182:A2 0
38 *287:12 *367:101 0
39 *287:14 *5182:A2 0
40 *287:14 *5183:A2 0
41 *287:14 *367:101 0
42 *287:14 *1014:52 0
43 *287:14 *1117:25 0
44 *287:24 *5100:B1 0
45 *287:24 *5183:B1 4.79017e-05
46 *287:24 *5189:B 0
47 *287:24 *5661:CLK 0
48 *287:24 *1016:49 4.78524e-05
49 *287:24 *1116:37 0.000281967
50 *287:28 *5100:B1 0
51 *287:28 *5189:B 0
52 *287:28 *5206:B 0
53 *287:28 *5206:D 0
54 *287:28 *373:20 7.89557e-05
55 *287:28 *386:23 7.89557e-05
56 *287:28 *1016:49 4.77425e-05
57 *287:28 *1090:104 0
58 *287:28 *1117:44 0
59 *287:41 *1091:73 0.00012816
60 *287:92 *5179:A 0
61 *287:92 *367:101 0.000338872
62 *5045:C *5059:D 0.000112651
63 *5180:C *5058:B 1.54008e-05
64 *5180:C *287:92 3.23417e-05
65 *280:16 *5059:D 0
66 *285:21 *287:10 0
67 *285:21 *287:12 0
68 *285:21 *287:92 0.000306531
69 *286:14 *287:10 0
*RES
1 *5057:Y *287:10 41.5038 
2 *287:10 *287:12 0.8446 
3 *287:12 *287:14 10.4854 
4 *287:14 *287:24 24.12 
5 *287:24 *287:28 25.2942 
6 *287:28 *5208:B 42.06 
7 *287:28 *287:41 0.5974 
8 *287:41 *5209:B 40.9682 
9 *287:41 *5059:D 44.6762 
10 *287:24 *5190:D 20 
11 *287:14 *5184:C 40.3193 
12 *287:12 *5178:B 40 
13 *287:10 *287:92 23.1106 
14 *287:92 *5058:B 25.7268 
15 *287:92 *5180:B 20 
*END

*D_NET *288 0.0109302
*CONN
*I *5256:A I *D sg13g2_and4_1
*I *5223:A I *D sg13g2_nand4_1
*I *5058:Y O *D sg13g2_nor2_1
*CAP
1 *5256:A 0
2 *5223:A 8.44436e-05
3 *5058:Y 0.000805738
4 *288:27 0.00115448
5 *288:14 0.00233836
6 *288:10 0.00190517
7 *5223:A *5223:B 4.78524e-05
8 *5223:A *5225:D 0
9 *5223:A *5227:A2 1.54008e-05
10 *5223:A *367:42 0
11 *288:10 *358:14 0
12 *288:10 *367:18 0
13 *288:10 *1093:18 0.000209506
14 *288:10 *1093:50 0
15 *288:10 *1094:24 0
16 *288:14 *5223:D 0
17 *288:14 *367:42 0.00014476
18 *288:14 *397:14 0
19 *288:14 *1012:44 0
20 *288:14 *1015:10 0.00100378
21 *288:14 *1015:18 0.000434613
22 *288:14 *1093:62 0.00137318
23 *288:27 *5221:D 5.30319e-05
24 *288:27 *5222:D 0.000234224
25 *288:27 *5228:C 0
26 *288:27 *5663:CLK 0.00023464
27 *288:27 *398:12 0
28 *288:27 *405:18 0
29 *288:27 *632:10 0.000393406
30 *288:27 *1005:49 0
31 *288:27 *1012:57 0
32 *288:27 *1096:18 0.000497581
33 *286:14 *288:10 0
*RES
1 *5058:Y *288:10 46.6641 
2 *288:10 *288:14 32.4321 
3 *288:14 *5223:A 20.7519 
4 *288:14 *288:27 34.7599 
5 *288:27 *5256:A 40 
*END

*D_NET *289 0.00185751
*CONN
*I *5061:C I *D sg13g2_nand3_1
*I *5059:Y O *D sg13g2_nor4_1
*CAP
1 *5061:C 4.78932e-05
2 *5059:Y 0.000768003
3 *289:8 0.000815896
4 *5061:C *5061:A 0
5 *289:8 *5041:D 0
6 *289:8 *1091:73 0
7 *5059:D *289:8 0.000130055
8 *5061:B *5061:C 1.54556e-05
9 *270:18 *5061:C 8.02102e-05
*RES
1 *5059:Y *289:8 48.5078 
2 *289:8 *5061:C 40.5356 
*END

*D_NET *290 0.00223828
*CONN
*I *5063:A2 I *D sg13g2_o21ai_1
*I *5060:Y O *D sg13g2_nand4_1
*CAP
1 *5063:A2 0
2 *5060:Y 0.000831122
3 *290:10 0.000831122
4 *290:10 *5041:B 0
5 *290:10 *387:14 0
6 *5060:A *290:10 1.54556e-05
7 *268:32 *290:10 0.00056058
*RES
1 *5060:Y *290:10 47.931 
2 *290:10 *5063:A2 40 
*END

*D_NET *291 0.00746479
*CONN
*I *5062:A2 I *D sg13g2_a21oi_1
*I *5450:A I *D sg13g2_nand3_1
*I *5061:Y O *D sg13g2_nand3_1
*CAP
1 *5062:A2 0
2 *5450:A 0
3 *5061:Y 0
4 *291:29 0.000669686
5 *291:12 0.00330429
6 *291:6 0.00263461
7 *291:12 *5448:A_N 0
8 *291:12 *5449:A 0
9 *291:12 *292:12 0
10 *291:12 *387:25 0
11 *291:12 *666:10 0
12 *291:12 *708:34 0
13 *291:12 *708:58 0
14 *291:12 *1046:6 0
15 *291:12 *1046:10 0
16 *291:29 *5450:B 4.77537e-05
17 *291:29 *5450:C 0.000631054
18 *291:29 *666:28 0
19 *291:29 *1113:102 0
20 *5801:D *291:29 0.000177394
*RES
1 *5061:Y *291:6 40 
2 *291:6 *291:12 48.2323 
3 *291:12 *5450:A 20 
4 *291:12 *291:29 47.519 
5 *291:29 *5062:A2 20 
*END

*D_NET *292 0.00561246
*CONN
*I *5066:A1 I *D sg13g2_a21oi_1
*I *5063:Y O *D sg13g2_o21ai_1
*CAP
1 *5066:A1 0
2 *5063:Y 0
3 *292:12 0.00272612
4 *292:6 0.00272612
5 *292:12 *5066:A2 1.54008e-05
6 *292:12 *5212:A2 0
7 *292:12 *700:12 0
8 *292:12 *708:34 0
9 *292:12 *718:22 0
10 *292:12 *1003:10 0
11 *292:12 *1093:10 0
12 *292:12 *1093:18 0
13 *5867:D *292:12 0.000144816
14 *261:12 *292:12 0
15 *261:25 *292:12 0
16 *291:12 *292:12 0
*RES
1 *5063:Y *292:6 40 
2 *292:6 *292:12 45.7294 
3 *292:12 *5066:A1 20 
*END

*D_NET *293 0.00149847
*CONN
*I *5065:B2 I *D sg13g2_a22oi_1
*I *5064:Y O *D sg13g2_nand3_1
*CAP
1 *5065:B2 0
2 *5064:Y 0.00050739
3 *293:10 0.00050739
4 *293:10 *5065:B1 0
5 *293:10 *5280:B1 0.000241847
6 *293:10 *672:27 0.000241847
7 *293:10 *718:34 0
*RES
1 *5064:Y *293:10 44.9337 
2 *293:10 *5065:B2 40 
*END

*D_NET *294 0.00143431
*CONN
*I *5066:A2 I *D sg13g2_a21oi_1
*I *5065:Y O *D sg13g2_a22oi_1
*CAP
1 *5066:A2 0.000173439
2 *5065:Y 0.000399237
3 *294:8 0.000572676
4 *5066:A2 *605:292 0
5 *5066:A2 *718:22 6.48152e-05
6 *5066:A2 *718:34 0.000208747
7 *294:8 *668:46 0
8 *294:8 *718:34 0
9 *292:12 *5066:A2 1.54008e-05
*RES
1 *5065:Y *294:8 43.811 
2 *294:8 *5066:A2 41.8334 
*END

*D_NET *295 0.00170636
*CONN
*I *5068:A I *D sg13g2_inv_1
*I *5067:Y O *D sg13g2_a22oi_1
*CAP
1 *5068:A 0
2 *5067:Y 0.000733616
3 *295:10 0.000733616
4 *295:10 *5067:A2 0
5 *295:10 *5067:A1 0.00012816
6 *295:10 *5875:CLK 0
7 *295:10 *605:231 0
8 *295:10 *715:8 4.77425e-05
9 *295:10 *1048:6 0
10 *295:10 *1048:23 0
11 *5035:A2 *295:10 1.54008e-05
12 *5067:B1 *295:10 4.78195e-05
*RES
1 *5067:Y *295:10 47.004 
2 *295:10 *5068:A 40 
*END

*D_NET *296 0.000674391
*CONN
*I *5070:B1 I *D sg13g2_a21o_1
*I *5069:X O *D sg13g2_and3_1
*CAP
1 *5070:B1 0.000185345
2 *5069:X 0.000185345
3 *5070:B1 *5070:A1 1.54556e-05
4 *5070:B1 *715:39 0.000144058
5 *5070:B1 *715:49 0
6 *5070:B1 *1047:14 0.000144187
7 *5070:B1 *1047:34 0
8 *5070:A2 *5070:B1 0
*RES
1 *5069:X *5070:B1 41.9673 
*END

*D_NET *297 0.0011458
*CONN
*I *5383:A1 I *D sg13g2_a21oi_1
*I *5071:Y O *D sg13g2_nor3_1
*CAP
1 *5383:A1 0.00013044
2 *5071:Y 6.94736e-05
3 *297:8 0.000199913
4 *5383:A1 *5382:B 0
5 *5383:A1 *5383:A2 1.54556e-05
6 *5383:A1 *1032:20 0.000208938
7 *297:8 *1047:44 0.000234177
8 *297:8 *1048:29 0.000287402
*RES
1 *5071:Y *297:8 41.339 
2 *297:8 *5383:A1 41.4008 
*END

*D_NET *298 0.00202829
*CONN
*I *5073:B1 I *D sg13g2_o21ai_1
*I *5072:Y O *D sg13g2_nor2_1
*CAP
1 *5073:B1 3.27729e-05
2 *5072:Y 0.000388213
3 *298:10 0.000420986
4 *5073:B1 *5073:A2 1.54008e-05
5 *298:10 *5072:B 0.000144833
6 *298:10 *5485:A 4.77425e-05
7 *298:10 *1042:6 0.000209637
8 *298:10 *1042:27 0.000235055
9 *298:10 *1049:16 0.000533645
10 *6030:A *298:10 0
*RES
1 *5072:Y *298:10 44.9028 
2 *298:10 *5073:B1 40.3193 
*END

*D_NET *299 0.000595645
*CONN
*I *5074:D I *D sg13g2_nor4_1
*I *5073:Y O *D sg13g2_o21ai_1
*CAP
1 *5074:D 0.000218025
2 *5073:Y 0.000218025
3 *5074:D *5073:A2 0.000111683
4 *5074:D *5074:C 4.79124e-05
5 *6030:A *5074:D 0
*RES
1 *5073:Y *5074:D 42.1836 
*END

*D_NET *300 0.000133739
*CONN
*I *5077:A I *D sg13g2_nor2_1
*I *5075:Y O *D sg13g2_o21ai_1
*CAP
1 *5077:A 6.68694e-05
2 *5075:Y 6.68694e-05
*RES
1 *5075:Y *5077:A 40.8446 
*END

*D_NET *301 0.000938853
*CONN
*I *5077:B I *D sg13g2_nor2_1
*I *5076:Y O *D sg13g2_nor2b_1
*CAP
1 *5077:B 0
2 *5076:Y 0.000469427
3 *301:10 0.000469427
4 *301:10 *5125:A2 0
5 *301:10 *6081:A 0
6 *301:10 *666:28 0
7 *301:10 *677:8 0
*RES
1 *5076:Y *301:10 45.15 
2 *301:10 *5077:B 40 
*END

*D_NET *302 0.000390147
*CONN
*I *5080:B I *D sg13g2_nor2_1
*I *5078:Y O *D sg13g2_nor2b_1
*CAP
1 *5080:B 0.000195073
2 *5078:Y 0.000195073
3 *5080:B *5543:RESET_B 0
4 *5080:B *646:20 0
5 *5543:D *5080:B 0
*RES
1 *5078:Y *5080:B 42.2145 
*END

*D_NET *303 0.000270094
*CONN
*I *5080:A I *D sg13g2_nor2_1
*I *5079:Y O *D sg13g2_o21ai_1
*CAP
1 *5080:A 0
2 *5079:Y 0.000135047
3 *303:8 0.000135047
4 *303:8 *707:87 0
*RES
1 *5079:Y *303:8 41.5862 
2 *303:8 *5080:A 40 
*END

*D_NET *304 0.00171256
*CONN
*I *5083:B I *D sg13g2_nor2_1
*I *5081:Y O *D sg13g2_nor2b_1
*CAP
1 *5083:B 0.000315546
2 *5081:Y 0.00033105
3 *304:10 0.000646596
4 *5083:B *5082:A2 0
5 *5083:B *5083:A 0
6 *5083:B *5545:CLK 0.00024211
7 *5083:B *5988:A 0
8 *5083:B *708:6 0
9 *304:10 *5082:A1 0
10 *304:10 *708:10 0
11 *89:10 *5083:B 0.000177257
12 *89:10 *304:10 0
*RES
1 *5081:Y *304:10 43.1106 
2 *304:10 *5083:B 43.3475 
*END

*D_NET *305 0.000915194
*CONN
*I *5083:A I *D sg13g2_nor2_1
*I *5082:Y O *D sg13g2_o21ai_1
*CAP
1 *5083:A 0.000449869
2 *5082:Y 0.000449869
3 *5083:A *5082:B1 1.54556e-05
4 *5083:A *5082:A2 0
5 *5083:B *5083:A 0
6 *89:10 *5083:A 0
*RES
1 *5082:Y *5083:A 44.841 
*END

*D_NET *306 0.000400036
*CONN
*I *5086:B I *D sg13g2_nor2_1
*I *5084:Y O *D sg13g2_nor2b_1
*CAP
1 *5086:B 0.000200018
2 *5084:Y 0.000200018
3 *5086:B *5084:A 0
4 *5086:B *5086:A 0
*RES
1 *5084:Y *5086:B 41.9673 
*END

*D_NET *307 0.00122906
*CONN
*I *5086:A I *D sg13g2_nor2_1
*I *5085:Y O *D sg13g2_o21ai_1
*CAP
1 *5086:A 0.000175063
2 *5085:Y 0.000399427
3 *307:10 0.00057449
4 *5086:A *5547:RESET_B 0
5 *307:10 *707:72 1.54008e-05
6 *307:10 *707:87 6.46834e-05
7 *307:10 *708:10 0
8 *5086:B *5086:A 0
*RES
1 *5085:Y *307:10 43.8213 
2 *307:10 *5086:A 41.6171 
*END

*D_NET *308 0.000305525
*CONN
*I *5089:B I *D sg13g2_nor2_1
*I *5087:Y O *D sg13g2_nor2b_1
*CAP
1 *5089:B 0.000152762
2 *5087:Y 0.000152762
3 *5089:B *5087:B_N 0
4 *5089:B *5450:C 0
5 *5089:B *666:28 0
6 *5549:D *5089:B 0
*RES
1 *5087:Y *5089:B 42.0497 
*END

*D_NET *309 0.000185374
*CONN
*I *5089:A I *D sg13g2_nor2_1
*I *5088:Y O *D sg13g2_o21ai_1
*CAP
1 *5089:A 9.26868e-05
2 *5088:Y 9.26868e-05
*RES
1 *5088:Y *5089:A 41.0918 
*END

*D_NET *310 0.000964513
*CONN
*I *5092:B I *D sg13g2_nor2_1
*I *5090:Y O *D sg13g2_nor2b_1
*CAP
1 *5092:B 0.000130953
2 *5090:Y 0.000129432
3 *310:8 0.000260385
4 *5092:B *667:44 0
5 *5092:B *997:28 0.000209016
6 *310:8 *665:30 0.000234727
7 *310:8 *665:40 0
8 *310:8 *716:34 0
9 *310:8 *716:58 0
*RES
1 *5090:Y *310:8 41.5862 
2 *310:8 *5092:B 41.4008 
*END

*D_NET *311 0.000558289
*CONN
*I *5092:A I *D sg13g2_nor2_1
*I *5091:Y O *D sg13g2_o21ai_1
*CAP
1 *5092:A 0
2 *5091:Y 0.000279145
3 *311:8 0.000279145
4 *311:8 *642:18 0
5 *311:8 *716:58 0
*RES
1 *5091:Y *311:8 42.8222 
2 *311:8 *5092:A 40 
*END

*D_NET *312 0.00153545
*CONN
*I *5095:B I *D sg13g2_nor2_1
*I *5093:Y O *D sg13g2_nor2b_1
*CAP
1 *5095:B 0
2 *5093:Y 0.000383609
3 *312:10 0.000383609
4 *312:10 *643:17 0
5 *312:10 *665:79 0
6 *312:10 *666:28 0
7 *312:10 *667:56 0.000768231
8 *312:10 *898:8 0
*RES
1 *5093:Y *312:10 45.1809 
2 *312:10 *5095:B 40 
*END

*D_NET *313 0.000552447
*CONN
*I *5095:A I *D sg13g2_nor2_1
*I *5094:Y O *D sg13g2_o21ai_1
*CAP
1 *5095:A 0
2 *5094:Y 0.000105896
3 *313:8 0.000105896
4 *313:8 *667:56 0.000340656
5 *313:8 *719:77 0
*RES
1 *5094:Y *313:8 41.5862 
2 *313:8 *5095:A 40 
*END

*D_NET *314 0.000654033
*CONN
*I *5098:B I *D sg13g2_nor2_1
*I *5096:Y O *D sg13g2_nor2b_1
*CAP
1 *5098:B 0.000289318
2 *5096:Y 0.000289318
3 *5098:B *5944:A 7.53965e-05
4 *5098:B *660:18 0
5 *5098:B *1086:10 0
6 *5555:D *5098:B 0
7 *261:31 *5098:B 0
*RES
1 *5096:Y *5098:B 42.9973 
*END

*D_NET *315 0.0002886
*CONN
*I *5098:A I *D sg13g2_nor2_1
*I *5097:Y O *D sg13g2_o21ai_1
*CAP
1 *5098:A 0
2 *5097:Y 0.0001443
3 *315:8 0.0001443
4 *315:8 *643:19 0
*RES
1 *5097:Y *315:8 41.5862 
2 *315:8 *5098:A 40 
*END

*D_NET *316 0.000695517
*CONN
*I *5101:B I *D sg13g2_nor2_1
*I *5099:Y O *D sg13g2_nor2b_1
*CAP
1 *5101:B 0.000109773
2 *5099:Y 0.000237986
3 *316:10 0.000347759
4 *5101:B *5100:B1 0
5 *316:10 *5100:B1 0
6 *316:10 *658:77 0
7 *316:10 *662:48 0
*RES
1 *5099:Y *316:10 42.369 
2 *316:10 *5101:B 41.1845 
*END

*D_NET *317 9.50856e-05
*CONN
*I *5101:A I *D sg13g2_nor2_1
*I *5100:Y O *D sg13g2_o21ai_1
*CAP
1 *5101:A 4.75428e-05
2 *5100:Y 4.75428e-05
3 *5101:A *6100:A 0
*RES
1 *5100:Y *5101:A 40.5974 
*END

*D_NET *318 0.000798532
*CONN
*I *5104:B I *D sg13g2_nor2_1
*I *5102:Y O *D sg13g2_nor2b_1
*CAP
1 *5104:B 0.000160572
2 *5102:Y 0.000198597
3 *318:10 0.000359169
4 *5104:B *6100:A 0
5 *318:10 *5103:B1 8.01938e-05
6 *318:10 *5559:CLK 0
7 *318:10 *5561:CLK 0
8 *318:10 *319:8 0
*RES
1 *5102:Y *318:10 42.1218 
2 *318:10 *5104:B 41.6171 
*END

*D_NET *319 0.000115205
*CONN
*I *5104:A I *D sg13g2_nor2_1
*I *5103:Y O *D sg13g2_o21ai_1
*CAP
1 *5104:A 0
2 *5103:Y 5.76024e-05
3 *319:8 5.76024e-05
4 *318:10 *319:8 0
*RES
1 *5103:Y *319:8 40.5974 
2 *319:8 *5104:A 40 
*END

*D_NET *320 0.000679544
*CONN
*I *5107:B I *D sg13g2_nor2_1
*I *5105:Y O *D sg13g2_nor2b_1
*CAP
1 *5107:B 0.000133123
2 *5105:Y 0.000206648
3 *320:8 0.000339772
4 *5107:B *706:64 0
5 *320:8 *662:48 0
6 *320:8 *706:75 0
7 *320:8 *783:8 0
*RES
1 *5105:Y *320:8 42.3278 
2 *320:8 *5107:B 41.4008 
*END

*D_NET *321 9.81466e-05
*CONN
*I *5107:A I *D sg13g2_nor2_1
*I *5106:Y O *D sg13g2_o21ai_1
*CAP
1 *5107:A 4.90733e-05
2 *5106:Y 4.90733e-05
*RES
1 *5106:Y *5107:A 40.5974 
*END

*D_NET *322 0.00133368
*CONN
*I *5110:B I *D sg13g2_nor2_1
*I *5108:Y O *D sg13g2_nor2b_1
*CAP
1 *5110:B 0
2 *5108:Y 0.000327367
3 *322:10 0.000327367
4 *322:10 *5105:A 0
5 *322:10 *5108:B_N 0.000208758
6 *322:10 *5563:CLK 0
7 *322:10 *5943:A 4.77425e-05
8 *322:10 *658:16 0
9 *322:10 *659:23 0.000422448
10 *322:10 *659:37 0
*RES
1 *5108:Y *322:10 43.8831 
2 *322:10 *5110:B 40 
*END

*D_NET *323 0.000386362
*CONN
*I *5110:A I *D sg13g2_nor2_1
*I *5109:Y O *D sg13g2_o21ai_1
*CAP
1 *5110:A 0.00015301
2 *5109:Y 0.00015301
3 *5110:A *5563:CLK 8.0342e-05
4 *5110:A *659:23 0
5 *5110:A *988:10 0
*RES
1 *5109:Y *5110:A 41.8746 
*END

*D_NET *324 0.00207106
*CONN
*I *5113:B I *D sg13g2_nor2_1
*I *5111:Y O *D sg13g2_nor2b_1
*CAP
1 *5113:B 0.000356108
2 *5111:Y 0.000188587
3 *324:8 0.000544695
4 *5113:B *5112:B1 0.00053399
5 *5113:B *5113:A 0
6 *324:8 *658:39 0.000447678
*RES
1 *5111:Y *324:8 42.575 
2 *324:8 *5113:B 43.5638 
*END

*D_NET *325 0.00129403
*CONN
*I *5113:A I *D sg13g2_nor2_1
*I *5112:Y O *D sg13g2_o21ai_1
*CAP
1 *5113:A 0.000433629
2 *5112:Y 0.000433629
3 *5113:A *5112:B1 0
4 *5113:A *658:39 2.21754e-05
5 *5113:B *5113:A 0
6 *5565:D *5113:A 0.000404597
*RES
1 *5112:Y *5113:A 44.4084 
*END

*D_NET *326 0.00216854
*CONN
*I *5116:B I *D sg13g2_nor2_1
*I *5114:Y O *D sg13g2_nor2b_1
*CAP
1 *5116:B 0.000367125
2 *5114:Y 0.000252892
3 *326:8 0.000620017
4 *5116:B *5116:A 0.000176498
5 *5116:B *709:30 0
6 *326:8 *635:12 0
7 *326:8 *658:54 0.000340109
8 *326:8 *706:10 0.00023464
9 *100:10 *5116:B 0.000177257
*RES
1 *5114:Y *326:8 43.3166 
2 *326:8 *5116:B 43.3475 
*END

*D_NET *327 0.00138254
*CONN
*I *5116:A I *D sg13g2_nor2_1
*I *5115:Y O *D sg13g2_o21ai_1
*CAP
1 *5116:A 0.000442594
2 *5115:Y 0.000442594
3 *5116:A *5112:B1 1.54556e-05
4 *5116:A *5115:A2 4.78356e-05
5 *5116:A *5567:RESET_B 0
6 *5116:A *706:14 8.03089e-05
7 *5116:A *709:30 0
8 *5116:B *5116:A 0.000176498
9 *100:10 *5116:A 0.000177257
*RES
1 *5115:Y *5116:A 44.4496 
*END

*D_NET *328 0.00169903
*CONN
*I *5119:B I *D sg13g2_nor2_1
*I *5117:Y O *D sg13g2_nor2b_1
*CAP
1 *5119:B 0.000238227
2 *5117:Y 0.000424852
3 *328:8 0.000663079
4 *5119:B *5118:B1 0
5 *5119:B *5119:A 0
6 *5119:B *1021:27 8.00842e-05
7 *328:8 *329:10 0.00029279
8 *328:8 *1021:8 0
9 boot_addr[16] *5119:B 0
10 *5569:D *5119:B 0
*RES
1 *5117:Y *328:8 44.7998 
2 *328:8 *5119:B 42.266 
*END

*D_NET *329 0.00146229
*CONN
*I *5119:A I *D sg13g2_nor2_1
*I *5118:Y O *D sg13g2_o21ai_1
*CAP
1 *5119:A 0.000196292
2 *5118:Y 0.000219799
3 *329:10 0.000416091
4 *5119:A *1021:27 8.02598e-05
5 *329:10 *5118:B1 4.77425e-05
6 boot_addr[16] *5119:A 0.000209315
7 *5119:B *5119:A 0
8 *328:8 *329:10 0.00029279
*RES
1 *5118:Y *329:10 42.369 
2 *329:10 *5119:A 42.0497 
*END

*D_NET *330 0.00091003
*CONN
*I *5121:B1 I *D sg13g2_a21oi_1
*I *5120:Y O *D sg13g2_o21ai_1
*CAP
1 *5121:B1 0.000447287
2 *5120:Y 0.000447287
3 *5121:B1 *5120:B1 1.54556e-05
4 *5121:B1 *5120:A2 0
5 *5121:B1 *5571:RESET_B 0
6 *5121:B1 *6080:A 0
*RES
1 *5120:Y *5121:B1 44.841 
*END

*D_NET *331 0.000329189
*CONN
*I *5124:B I *D sg13g2_nor2_1
*I *5122:Y O *D sg13g2_nor2b_1
*CAP
1 *5124:B 0.000164595
2 *5122:Y 0.000164595
3 *5124:B *662:23 0
4 *5573:D *5124:B 0
*RES
1 *5122:Y *5124:B 41.751 
*END

*D_NET *332 0.000508506
*CONN
*I *5124:A I *D sg13g2_nor2_1
*I *5123:Y O *D sg13g2_o21ai_1
*CAP
1 *5124:A 0
2 *5123:Y 0.000164231
3 *332:8 0.000164231
4 *332:8 *707:65 0
5 *332:8 *1045:20 0.000180044
6 *332:8 *1045:39 0
7 *332:8 *1046:10 0
*RES
1 *5123:Y *332:8 42.0677 
2 *332:8 *5124:A 40 
*END

*D_NET *333 0.000870846
*CONN
*I *5126:B1 I *D sg13g2_a21oi_1
*I *5125:Y O *D sg13g2_o21ai_1
*CAP
1 *5126:B1 0
2 *5125:Y 0.000157926
3 *333:8 0.000157926
4 *333:8 *5575:CLK 0
5 *333:8 *646:12 0
6 *333:8 *707:93 0.000554994
*RES
1 *5125:Y *333:8 42.575 
2 *333:8 *5126:B1 40 
*END

*D_NET *334 0.00135778
*CONN
*I *5128:B1 I *D sg13g2_a21oi_1
*I *5127:Y O *D sg13g2_o21ai_1
*CAP
1 *5128:B1 0.000339791
2 *5127:Y 0.000339791
3 *5128:B1 *5127:A2 0
4 *5128:B1 *5128:A1 0
5 *5128:B1 *705:71 0.000274677
6 *5128:B1 *820:14 0
7 *5577:D *5128:B1 0.000403526
*RES
1 *5127:Y *5128:B1 43.5638 
*END

*D_NET *335 0.000982179
*CONN
*I *5130:B1 I *D sg13g2_a21oi_1
*I *5129:Y O *D sg13g2_o21ai_1
*CAP
1 *5130:B1 0
2 *5129:Y 0.000483389
3 *335:12 0.000483389
4 *335:12 *6022:A 0
5 *335:12 *631:79 1.54008e-05
6 *335:12 *632:66 0
7 *335:12 *1025:10 0
8 *335:12 *1026:8 0
*RES
1 *5129:Y *335:12 45.3148 
2 *335:12 *5130:B1 40 
*END

*D_NET *336 0.00156166
*CONN
*I *5132:B1 I *D sg13g2_a21oi_1
*I *5131:Y O *D sg13g2_o21ai_1
*CAP
1 *5132:B1 0.000425316
2 *5131:Y 0.000425316
3 *5132:B1 *5131:A2 0
4 *5132:B1 *1026:30 0
5 *5132:A2 *5132:B1 0.00046884
6 *107:10 *5132:B1 0.000242187
*RES
1 *5131:Y *5132:B1 44.6144 
*END

*D_NET *337 0.00157639
*CONN
*I *5134:B1 I *D sg13g2_a21oi_1
*I *5133:Y O *D sg13g2_o21ai_1
*CAP
1 *5134:B1 0
2 *5133:Y 0.000676533
3 *337:18 0.000676533
4 *337:18 *5133:B1 1.54008e-05
5 *337:18 *5583:RESET_B 0
6 *337:18 *1026:16 0.000207923
*RES
1 *5133:Y *337:18 47.9722 
2 *337:18 *5134:B1 40 
*END

*D_NET *338 0.00125561
*CONN
*I *5136:B1 I *D sg13g2_a21oi_1
*I *5135:Y O *D sg13g2_o21ai_1
*CAP
1 *5136:B1 0.000434156
2 *5135:Y 0.000434156
3 *5136:B1 *5135:B1 0
4 *5136:B1 *5135:A1 0
5 *5136:B1 *5135:A2 0.000274742
6 *5136:B1 *5585:CLK 0
7 *109:10 *5136:B1 0.000112558
8 *255:14 *5136:B1 0
*RES
1 *5135:Y *5136:B1 44.6144 
*END

*D_NET *339 0.00140928
*CONN
*I *5138:B1 I *D sg13g2_a21oi_1
*I *5137:Y O *D sg13g2_o21ai_1
*CAP
1 *5138:B1 0.000397565
2 *5137:Y 0.000397565
3 *5138:B1 *5137:B1 1.54008e-05
4 *5138:B1 *742:29 0
5 *5138:B1 *1025:97 0.000598751
*RES
1 *5137:Y *5138:B1 44.3466 
*END

*D_NET *340 0.000331665
*CONN
*I *5140:A I *D sg13g2_and2_1
*I *5139:X O *D sg13g2_mux2_1
*CAP
1 *5140:A 0.000165832
2 *5139:X 0.000165832
3 *5140:A *1102:69 0
4 *5589:D *5140:A 0
*RES
1 *5139:X *5140:A 41.8128 
*END

*D_NET *341 9.68552e-05
*CONN
*I *5142:B1 I *D sg13g2_a21oi_1
*I *5141:Y O *D sg13g2_o21ai_1
*CAP
1 *5142:B1 4.84276e-05
2 *5141:Y 4.84276e-05
3 *5591:D *5142:B1 0
*RES
1 *5141:Y *5142:B1 40.5974 
*END

*D_NET *342 0.000804312
*CONN
*I *5144:B1 I *D sg13g2_a21oi_1
*I *5143:Y O *D sg13g2_o21ai_1
*CAP
1 *5144:B1 0.000402156
2 *5143:Y 0.000402156
3 *5144:B1 *5593:CLK 0
4 *5144:B1 *776:32 0
5 *253:14 *5144:B1 0
*RES
1 *5143:Y *5144:B1 44.1612 
*END

*D_NET *343 0.00108423
*CONN
*I *5146:B1 I *D sg13g2_a21oi_1
*I *5145:Y O *D sg13g2_o21ai_1
*CAP
1 *5146:B1 0.000434009
2 *5145:Y 0.000434009
3 *5146:B1 *5145:B1 1.54556e-05
4 *5146:B1 *5145:A2 0
5 *5146:B1 *5146:A1 0
6 *5146:B1 *5595:RESET_B 0
7 *5146:B1 *6092:A 0
8 *5595:D *5146:B1 0.000200753
*RES
1 *5145:Y *5146:B1 43.9964 
*END

*D_NET *344 0.00014196
*CONN
*I *5261:A I *D sg13g2_nand4_1
*I *5147:X O *D sg13g2_and2_1
*CAP
1 *5261:A 7.098e-05
2 *5147:X 7.098e-05
3 *5261:A *5210:A1 0
*RES
1 *5147:X *5261:A 40.8446 
*END

*D_NET *345 0.00116395
*CONN
*I *5149:A I *D sg13g2_and2_1
*I *5148:X O *D sg13g2_mux2_1
*CAP
1 *5149:A 0.000276561
2 *5148:X 0.000276561
3 *5149:A *5145:B1 0.000530593
4 *5149:A *5597:RESET_B 0
5 *5149:A *705:49 8.02379e-05
6 *5149:A *1106:14 0
*RES
1 *5148:X *5149:A 43.6359 
*END

*D_NET *346 0.00156309
*CONN
*I *5151:B1 I *D sg13g2_a21oi_1
*I *5150:Y O *D sg13g2_o21ai_1
*CAP
1 *5151:B1 0.000405248
2 *5150:Y 0.000405248
3 *5151:B1 *5150:B1 7.99179e-05
4 *5151:B1 *5150:A2 0
5 *5151:B1 *5599:CLK 4.77425e-05
6 *5151:B1 *630:57 0.000240396
7 *5151:B1 *709:47 0
8 *5151:B1 *743:10 0
9 *5151:B1 *1031:66 0.000304608
10 *116:16 *5151:B1 7.99246e-05
*RES
1 *5150:Y *5151:B1 44.4496 
*END

*D_NET *347 0.00248591
*CONN
*I *6012:A I *D sg13g2_buf_1
*I *5214:C I *D sg13g2_and4_1
*I *5152:Y O *D sg13g2_nand2b_1
*CAP
1 *6012:A 0
2 *5214:C 0.000638816
3 *5152:Y 8.35514e-05
4 *347:27 0.000178201
5 *347:8 0.000900569
6 *5214:C *5214:D 1.54008e-05
7 *5214:C *6010:A 0
8 *5214:C *352:25 0
9 *5214:C *708:58 0.00011226
10 *5214:C *708:68 1.54008e-05
11 *5214:C *1015:10 0
12 *347:8 *5169:A2 0
13 *347:8 *348:14 0
14 *347:27 *5153:B 0.000180236
15 *347:27 *348:14 4.75265e-05
16 *347:27 *707:65 7.34424e-05
17 *347:27 *1014:40 0
18 *347:27 *1015:104 0
19 *133:10 *5214:C 0.000240502
*RES
1 *5152:Y *347:8 20.8858 
2 *347:8 *5214:C 26.8598 
3 *347:8 *347:27 41.9055 
4 *347:27 *6012:A 20 
*END

*D_NET *348 0.0200722
*CONN
*I *5172:B1 I *D sg13g2_o21ai_1
*I *5181:B1 I *D sg13g2_o21ai_1
*I *5186:B1 I *D sg13g2_o21ai_1
*I *5192:B1 I *D sg13g2_o21ai_1
*I *5265:B I *D sg13g2_nand2_1
*I *5269:B I *D sg13g2_nand2_1
*I *5255:B I *D sg13g2_nand2_1
*I *5153:X O *D sg13g2_and2_1
*CAP
1 *5172:B1 0.000313965
2 *5181:B1 0
3 *5186:B1 0
4 *5192:B1 0
5 *5265:B 0
6 *5269:B 3.87833e-05
7 *5255:B 0.000640475
8 *5153:X 0.000881389
9 *348:63 0.000778361
10 *348:57 0.000807962
11 *348:38 0.00215357
12 *348:36 0.00147637
13 *348:32 0.00102407
14 *348:22 0.00210698
15 *348:18 0.002147
16 *348:14 0.00222779
17 *5172:B1 *5172:A2 4.77425e-05
18 *5172:B1 *5179:C 0
19 *5172:B1 *361:8 0.000501385
20 *5172:B1 *361:34 4.77425e-05
21 *5255:B *5147:B 0.000177071
22 *5255:B *5210:A1 0.000177214
23 *5255:B *5255:A 0
24 *5255:B *5257:B1 0
25 *5255:B *5266:A2 0
26 *5255:B *388:22 0
27 *5255:B *388:24 0
28 *5255:B *388:36 0
29 *5255:B *1105:37 0
30 *348:14 *5169:A2 0
31 *348:14 *5170:A 0
32 *348:14 *6010:A 0
33 *348:14 *1015:10 1.53311e-05
34 *348:14 *1015:117 0.000433458
35 *348:14 *1112:33 7.99179e-05
36 *348:18 *5057:D 0
37 *348:18 *5169:B1 0
38 *348:18 *5617:CLK 0
39 *348:18 *367:101 0
40 *348:18 *723:10 0
41 *348:18 *1112:35 0
42 *348:18 *1115:37 0
43 *348:18 *1116:91 0
44 *348:22 *5183:A2 0
45 *348:22 *5617:CLK 0
46 *348:22 *370:10 0
47 *348:22 *370:12 0
48 *348:22 *636:28 0
49 *348:22 *1090:85 0
50 *348:32 *5186:A2 1.54008e-05
51 *348:32 *5187:B1 0
52 *348:32 *5192:A2 7.51285e-05
53 *348:32 *5196:D 0
54 *348:32 *5625:CLK 0
55 *348:32 *605:253 0
56 *348:32 *691:8 0
57 *348:32 *705:33 0.00130085
58 *348:32 *705:113 0
59 *348:32 *1087:44 0
60 *348:32 *1089:6 0
61 *348:32 *1089:12 0
62 *348:32 *1090:85 0
63 *348:38 *5210:C1 0
64 *348:38 *5210:A1 0.00011253
65 *348:38 *5625:RESET_B 0
66 *348:38 *5631:RESET_B 0
67 *348:38 *607:20 0
68 *348:38 *1105:37 0
69 *348:57 *5210:A1 3.23417e-05
70 *348:57 *431:8 0.00012816
71 *348:63 *5147:B 0
72 *348:63 *5210:A1 4.77534e-05
73 *348:63 *5263:B 0.000313453
74 *348:63 *5263:C 0
75 *348:63 *410:12 0
76 *348:63 *430:20 0.00113735
77 *348:63 *430:35 0
78 *348:63 *431:8 7.51285e-05
79 *348:63 *656:18 0
80 *348:63 *657:33 0
81 *348:63 *1107:19 0
82 *348:63 *1107:32 0
83 *348:63 *1107:38 0.000395067
84 *5210:B2 *348:38 8.0216e-05
85 *5270:A1 *348:63 0.000234726
86 *5631:D *348:38 0
87 *125:10 *348:18 0
88 *281:12 *348:18 0
89 *347:8 *348:14 0
90 *347:27 *348:14 4.75265e-05
*RES
1 *5153:X *348:14 48.8477 
2 *348:14 *348:18 10.2794 
3 *348:18 *348:22 32.463 
4 *348:22 *348:32 32.4939 
5 *348:32 *348:36 20.3193 
6 *348:36 *348:38 13.7299 
7 *348:38 *5255:B 26.6435 
8 *348:38 *348:57 40.9167 
9 *348:57 *348:63 30.0631 
10 *348:63 *5269:B 40.3193 
11 *348:57 *5265:B 20 
12 *348:36 *5192:B1 20 
13 *348:22 *5186:B1 20 
14 *348:18 *5181:B1 40 
15 *348:14 *5172:B1 43.8522 
*END

*D_NET *349 0.0103828
*CONN
*I *5179:B I *D sg13g2_nor3_1
*I *5176:A I *D sg13g2_nor3_1
*I *6003:A I *D sg13g2_buf_1
*I *5154:Y O *D sg13g2_nand2_1
*CAP
1 *5179:B 0
2 *5176:A 3.87479e-05
3 *6003:A 0.000160513
4 *5154:Y 0.00054013
5 *349:48 0.000692133
6 *349:29 0.000836054
7 *349:25 0.00165224
8 *349:10 0.00224771
9 *6003:A *5164:C 0
10 *6003:A *6002:A 0
11 *349:10 *636:38 0
12 *349:10 *662:38 0
13 *349:10 *706:98 5.47442e-05
14 *349:10 *719:25 0
15 *349:10 *1004:10 0.000340704
16 *349:10 *1015:131 8.02595e-05
17 *349:25 *5171:A 8.00842e-05
18 *349:25 *5175:A 0
19 *349:25 *5177:B 0
20 *349:25 *355:8 0.000500302
21 *349:25 *361:34 0.000240118
22 *349:25 *636:38 0
23 *349:25 *719:25 0
24 *349:25 *1004:10 0.000448515
25 *349:25 *1004:25 0.00218486
26 *349:25 *1005:19 0
27 *349:25 *1111:23 0
28 *349:25 *1113:81 0
29 *349:29 *1113:81 0
30 *349:29 *1115:10 0.000234185
31 *349:48 *1113:14 0
32 *349:48 *1113:81 0
33 *349:48 *1115:10 5.15366e-05
*RES
1 *5154:Y *349:10 45.5826 
2 *349:10 *6003:A 41.0312 
3 *349:10 *349:25 39.5494 
4 *349:25 *349:29 21.339 
5 *349:29 *5176:A 40.3193 
6 *349:29 *349:48 46.6435 
7 *349:48 *5179:B 40 
*END

*D_NET *350 0.00096409
*CONN
*I *5158:B1 I *D sg13g2_a21oi_1
*I *5155:Y O *D sg13g2_o21ai_1
*CAP
1 *5158:B1 0.000313522
2 *5155:Y 0.000313522
3 *5158:B1 *5078:A 0
4 *5158:B1 *5158:A1 0
5 *5158:B1 *5973:A 0
6 *5158:B1 *661:59 0
7 *5158:B1 *708:14 0.000337046
8 *5601:D *5158:B1 0
*RES
1 *5155:Y *5158:B1 43.3578 
*END

*D_NET *351 0.00498166
*CONN
*I *6011:A I *D sg13g2_buf_1
*I *5283:B2 I *D sg13g2_a22oi_1
*I *5156:Y O *D sg13g2_nor2_1
*CAP
1 *6011:A 0
2 *5283:B2 0.00082484
3 *5156:Y 0.000125785
4 *351:18 0.00082484
5 *351:16 0.000528788
6 *351:8 0.000654573
7 *5283:B2 *5281:A1 0
8 *5283:B2 *5282:B1 0.000533372
9 *5283:B2 *5283:B1 7.04641e-05
10 *5283:B2 *5283:A2 0
11 *5283:B2 *5283:A1 0
12 *5283:B2 *5285:A 0
13 *5283:B2 *5914:A 0
14 *5283:B2 *444:10 7.9706e-05
15 *5283:B2 *445:10 4.77534e-05
16 *5283:B2 *638:10 0
17 *5283:B2 *1020:51 0.000370718
18 *5283:B2 *1043:32 0
19 *351:8 *5279:B 0.000209174
20 *351:8 *5281:A1 0
21 *351:8 *5281:A2 0
22 *351:16 *5279:C 0.000235676
23 *351:16 *442:8 0.000130394
24 *351:16 *443:8 0
25 *351:16 *664:28 0.000237794
26 *351:16 *1014:8 0
27 *351:16 *1020:51 0.000107782
*RES
1 *5156:Y *351:8 41.4008 
2 *351:8 *351:16 46.5405 
3 *351:16 *351:18 20 
4 *351:18 *5283:B2 28.7962 
5 *351:18 *6011:A 20 
*END

*D_NET *352 0.00594483
*CONN
*I *6009:A I *D sg13g2_buf_1
*I *6010:A I *D sg13g2_buf_1
*I *5157:X O *D sg13g2_or2_1
*CAP
1 *6009:A 5.99072e-05
2 *6010:A 0.00110354
3 *5157:X 2.9025e-05
4 *352:25 0.00136651
5 *352:6 0.00243917
6 *6009:A *367:42 0.000112558
7 *6009:A *1005:27 0.000112618
8 *6010:A *5169:A1 0.0004977
9 *6010:A *5169:A2 0
10 *6010:A *5172:A1 4.77425e-05
11 *6010:A *5179:A 0
12 *6010:A *5179:C 0
13 *6010:A *361:34 0.00017607
14 *6010:A *661:39 0
15 *6010:A *1045:45 0
16 *352:25 *5212:A2 0
17 *352:25 *5214:D 0
18 *352:25 *5633:RESET_B 0
19 *352:25 *392:10 0
20 *352:25 *1003:10 0
21 *5214:C *6010:A 0
22 *5214:C *352:25 0
23 *133:10 *352:25 0
24 *348:14 *6010:A 0
*RES
1 *5157:X *352:6 20.3502 
2 *352:6 *6010:A 31.2888 
3 *352:6 *352:25 31.3609 
4 *352:25 *6009:A 40.7519 
*END

*D_NET *353 0.000284307
*CONN
*I *5161:A I *D sg13g2_and4_1
*I *5159:X O *D sg13g2_a21o_1
*CAP
1 *5161:A 0.000118282
2 *5159:X 0.000118282
3 *5161:A *5084:A 0
4 *5161:A *5161:B 4.77425e-05
5 *5603:D *5161:A 0
*RES
1 *5159:X *5161:A 41.3802 
*END

*D_NET *354 0.00211714
*CONN
*I *5161:D I *D sg13g2_and4_1
*I *5162:B_N I *D sg13g2_nor2b_1
*I *5160:Y O *D sg13g2_nand3_1
*CAP
1 *5161:D 0
2 *5162:B_N 0
3 *5160:Y 0
4 *354:25 0.000126504
5 *354:12 0.000225368
6 *354:4 0.000351872
7 *354:12 *1005:19 0.00028826
8 *354:12 *1111:23 0.000287757
9 *354:25 *5161:C 4.77425e-05
10 *354:25 *662:38 0.000395068
11 *354:25 *1015:131 0.000394566
*RES
1 *5160:Y *354:4 20 
2 *354:4 *354:12 42.7398 
3 *354:12 *5162:B_N 20 
4 *354:4 *354:25 42.369 
5 *354:25 *5161:D 20 
*END

*D_NET *355 0.00163281
*CONN
*I *5164:C I *D sg13g2_nor3_1
*I *5162:Y O *D sg13g2_nor2b_1
*CAP
1 *5164:C 0.000143102
2 *5162:Y 0.000108872
3 *355:8 0.000251974
4 *5164:C *5164:B 0.000144208
5 *5164:C *1005:19 0
6 *5164:C *1111:10 1.54008e-05
7 *355:8 *636:38 0
8 *355:8 *1111:10 0.000234224
9 *355:8 *1111:23 0.000234726
10 *6003:A *5164:C 0
11 *349:25 *355:8 0.000500302
*RES
1 *5162:Y *355:8 42.3278 
2 *355:8 *5164:C 41.4008 
*END

*D_NET *356 0.000698708
*CONN
*I *5164:A I *D sg13g2_nor3_1
*I *5165:B I *D sg13g2_nor2_1
*I *5163:X O *D sg13g2_and4_1
*CAP
1 *5164:A 0
2 *5165:B 0.000222317
3 *5163:X 8.68663e-05
4 *356:8 0.000309183
5 *5165:B *5164:B 0
6 *356:8 *5605:CLK 8.0342e-05
7 *5605:D *356:8 0
*RES
1 *5163:X *356:8 21.133 
2 *356:8 *5165:B 21.8334 
3 *356:8 *5164:A 20 
*END

*D_NET *357 0.00222585
*CONN
*I *5167:C I *D sg13g2_nor3_1
*I *5165:Y O *D sg13g2_nor2_1
*CAP
1 *5167:C 0.000131584
2 *5165:Y 0.000323161
3 *357:8 0.000454744
4 *5167:C *5167:B 1.54556e-05
5 *5167:C *5988:A 0.000176559
6 *5167:C *1004:36 0.000241477
7 *357:8 *636:38 0
8 *357:8 *719:25 0.000882874
9 *357:8 *1005:19 0
*RES
1 *5165:Y *357:8 44.0582 
2 *357:8 *5167:C 41.6171 
*END

*D_NET *358 0.0179887
*CONN
*I *5167:A I *D sg13g2_nor3_1
*I *5216:B I *D sg13g2_nand4_1
*I *5219:C I *D sg13g2_and4_1
*I *5230:B I *D sg13g2_nand4_1
*I *5242:B I *D sg13g2_and4_1
*I *5166:Y O *D sg13g2_nor2_1
*CAP
1 *5167:A 0.000206445
2 *5216:B 0
3 *5219:C 0
4 *5230:B 9.86768e-05
5 *5242:B 0.00100988
6 *5166:Y 0
7 *358:78 0.00199424
8 *358:36 0.00233648
9 *358:24 0.00163669
10 *358:14 0.00230038
11 *358:4 0.00367941
12 *5167:A *5167:B 0
13 *5167:A *5619:CLK 0
14 *5167:A *637:32 0
15 *5167:A *1004:42 0
16 *5230:B *1002:69 0
17 *5230:B *1002:84 4.78192e-05
18 *5242:B *5038:B 0.000765375
19 *5242:B *1002:69 0
20 *358:14 *5063:B1 0
21 *358:14 *5166:A 4.77702e-05
22 *358:14 *367:18 0
23 *358:14 *367:42 0
24 *358:14 *393:12 0
25 *358:14 *1014:48 0
26 *358:14 *1016:14 3.24568e-05
27 *358:14 *1016:16 0.000161829
28 *358:14 *1016:26 0.000145173
29 *358:14 *1093:18 0.000209599
30 *358:14 *1093:50 0
31 *358:14 *1093:58 0
32 *358:24 *5219:D 0.000144388
33 *358:24 *5220:B2 0
34 *358:24 *5220:A2 0
35 *358:24 *367:42 0
36 *358:36 *5039:A 0
37 *358:36 *5039:B 0
38 *358:36 *5039:D 0
39 *358:36 *5219:D 1.54008e-05
40 *358:36 *5222:A 0
41 *358:36 *5231:C 0
42 *358:36 *5240:D 0
43 *358:36 *632:43 0.000306794
44 *358:36 *1002:84 0
45 *358:36 *1095:55 0
46 *358:36 *1096:18 0
47 *358:36 *1099:16 0
48 *358:78 *5051:A 0
49 *358:78 *5052:A 4.78521e-05
50 *358:78 *5055:A 0
51 *358:78 *5057:B 0
52 *358:78 *5178:A 0
53 *358:78 *1016:14 0.000209812
54 *358:78 *1097:61 0.000181608
55 *358:78 *1108:63 0.000393736
56 *358:78 *1114:29 0
57 *358:78 *1114:31 0
58 *5058:B *358:14 0.000144857
59 *5063:A1 *358:14 0
60 *5178:C *358:78 0.000112268
61 *5230:A *5230:B 1.54008e-05
62 *5230:A *358:36 7.97151e-05
63 *5242:A *5242:B 8.0216e-05
64 *268:24 *358:36 0
65 *269:10 *358:14 0
66 *269:10 *358:36 0.000371583
67 *270:18 *358:14 0
68 *281:12 *358:78 0.000128618
69 *281:16 *358:14 0
70 *282:8 *358:78 0
71 *283:12 *358:24 0
72 *283:12 *358:36 0
73 *284:8 *358:78 0
74 *285:6 *358:78 0.000694542
75 *285:21 *358:78 0
76 *286:53 *358:24 5.46112e-05
77 *286:53 *358:36 1.54008e-05
78 *286:61 *358:36 0.000176099
79 *287:10 *358:78 0.000143577
80 *288:10 *358:14 0
*RES
1 *5166:Y *358:4 20 
2 *358:4 *358:14 18.0044 
3 *358:14 *358:24 44.0479 
4 *358:24 *358:36 32.5042 
5 *358:36 *5242:B 49.0434 
6 *358:36 *5230:B 40.9167 
7 *358:24 *5219:C 20 
8 *358:14 *5216:B 20 
9 *358:4 *358:78 40.2807 
10 *358:78 *5167:A 41.8334 
*END

*D_NET *359 0.000224103
*CONN
*I *5171:C I *D sg13g2_nor3_1
*I *5168:Y O *D sg13g2_a21oi_1
*CAP
1 *5171:C 0.000104351
2 *5168:Y 0.000104351
3 *5171:C *5171:A 0
4 *5171:C *1004:25 1.54008e-05
*RES
1 *5168:Y *5171:C 41.133 
*END

*D_NET *360 0.000342166
*CONN
*I *5170:B I *D sg13g2_nor2_1
*I *5169:Y O *D sg13g2_o21ai_1
*CAP
1 *5170:B 6.18843e-05
2 *5169:Y 4.5976e-05
3 *360:8 0.00010786
4 *5170:B *5170:A 0
5 *360:8 *5179:A 0
6 *360:8 *1113:16 0.000126445
*RES
1 *5169:Y *360:8 40.5974 
2 *360:8 *5170:B 40.5356 
*END

*D_NET *361 0.00460495
*CONN
*I *5171:A I *D sg13g2_nor3_1
*I *5174:A2 I *D sg13g2_a21oi_1
*I *5175:C I *D sg13g2_and3_1
*I *5172:A2 I *D sg13g2_o21ai_1
*I *5173:A2 I *D sg13g2_a21oi_1
*I *5170:Y O *D sg13g2_nor2_1
*CAP
1 *5171:A 4.59826e-05
2 *5174:A2 0.000100997
3 *5175:C 0
4 *5172:A2 3.10612e-05
5 *5173:A2 0.000185857
6 *5170:Y 0.000159389
7 *361:42 0.000234576
8 *361:34 0.00076245
9 *361:21 0.000613949
10 *361:8 0.000345246
11 *5172:A2 *5172:A1 1.54008e-05
12 *5173:A2 *1113:14 0.000342059
13 *5174:A2 *5176:C 0
14 *361:8 *5169:B1 0.000232778
15 *361:34 *5176:B 0
16 *361:34 *5179:C 0
17 *361:42 *1112:12 0.000287017
18 *361:42 *1113:81 0.000155049
19 *5171:C *5171:A 0
20 *5172:B1 *5172:A2 4.77425e-05
21 *5172:B1 *361:8 0.000501385
22 *5172:B1 *361:34 4.77425e-05
23 *6010:A *361:34 0.00017607
24 *122:12 *5173:A2 0
25 *349:25 *5171:A 8.00842e-05
26 *349:25 *361:34 0.000240118
*RES
1 *5170:Y *361:8 42.3278 
2 *361:8 *5173:A2 42.1527 
3 *361:8 *361:21 20 
4 *361:21 *5172:A2 20.3193 
5 *361:21 *361:34 5.9637 
6 *361:34 *361:42 41.8746 
7 *361:42 *5175:C 20 
8 *361:42 *5174:A2 21.0918 
9 *361:34 *5171:A 20.5356 
*END

*D_NET *362 9.90264e-05
*CONN
*I *5173:B1 I *D sg13g2_a21oi_1
*I *5172:Y O *D sg13g2_o21ai_1
*CAP
1 *5173:B1 4.95132e-05
2 *5172:Y 4.95132e-05
*RES
1 *5172:Y *5173:B1 40.5974 
*END

*D_NET *363 0.00123134
*CONN
*I *5176:B I *D sg13g2_nor3_1
*I *5174:Y O *D sg13g2_a21oi_1
*CAP
1 *5176:B 5.75747e-05
2 *5174:Y 0.000339113
3 *363:10 0.000396688
4 *5176:B *5176:C 1.03509e-05
5 *5176:B *1113:73 0
6 *363:10 *365:10 7.3236e-05
7 *363:10 *661:59 0.000306772
8 *363:10 *1113:73 4.76034e-05
9 *363:10 *1115:10 0
10 *361:34 *5176:B 0
*RES
1 *5174:Y *363:10 43.1415 
2 *363:10 *5176:B 40.5356 
*END

*D_NET *364 0.00106099
*CONN
*I *5176:C I *D sg13g2_nor3_1
*I *5177:B I *D sg13g2_nor2_1
*I *5175:X O *D sg13g2_and3_1
*CAP
1 *5176:C 0.000165966
2 *5177:B 0.000183919
3 *5175:X 5.06636e-05
4 *364:6 0.000400549
5 *5176:C *1113:73 0.000186468
6 *364:6 *1113:73 0
7 *5174:A2 *5176:C 0
8 *5176:B *5176:C 1.03509e-05
9 *123:10 *5176:C 4.77425e-05
10 *123:10 *5177:B 1.53311e-05
11 *349:25 *5177:B 0
*RES
1 *5175:X *364:6 20.5356 
2 *364:6 *5177:B 22.1321 
3 *364:6 *5176:C 21.993 
*END

*D_NET *365 0.00188805
*CONN
*I *5179:C I *D sg13g2_nor3_1
*I *5177:Y O *D sg13g2_nor2_1
*CAP
1 *5179:C 0.000595623
2 *5177:Y 0.000191579
3 *365:10 0.000787202
4 *5179:C *1113:73 0
5 *365:10 *1115:10 0
6 *5172:B1 *5179:C 0
7 *5615:D *5179:C 0.000240411
8 *6010:A *5179:C 0
9 *361:34 *5179:C 0
10 *363:10 *365:10 7.3236e-05
*RES
1 *5177:Y *365:10 41.9055 
2 *365:10 *5179:C 45.6753 
*END

*D_NET *366 0.00380443
*CONN
*I *5179:A I *D sg13g2_nor3_1
*I *5182:A2 I *D sg13g2_a21oi_1
*I *5178:Y O *D sg13g2_nor3_1
*CAP
1 *5179:A 0.000726254
2 *5182:A2 0.00066478
3 *5178:Y 0
4 *366:6 0.00139103
5 *5179:A *5170:A 0.000442356
6 *5179:A *1014:40 0
7 *5179:A *1016:14 0.000499799
8 *5179:A *1113:16 0
9 *5179:A *1115:37 0
10 *5182:A2 *1014:48 0
11 *5182:A2 *1014:52 0
12 *5182:A2 *1116:83 0
13 *5182:A2 *1116:91 8.02105e-05
14 *5615:D *5179:A 0
15 *6010:A *5179:A 0
16 *282:12 *5182:A2 0
17 *287:12 *5179:A 0
18 *287:12 *5182:A2 0
19 *287:14 *5182:A2 0
20 *287:92 *5179:A 0
21 *360:8 *5179:A 0
*RES
1 *5178:Y *366:6 40 
2 *366:6 *5182:A2 46.3242 
3 *366:6 *5179:A 48.549 
*END

*D_NET *367 0.0214739
*CONN
*I *5181:A2 I *D sg13g2_o21ai_1
*I *5183:A2 I *D sg13g2_a21oi_1
*I *5212:A1 I *D sg13g2_a21o_1
*I *5225:B I *D sg13g2_nand4_1
*I *5258:A I *D sg13g2_nand4_1
*I *5244:B I *D sg13g2_nand4_1
*I *5248:A I *D sg13g2_nand4_1
*I *5180:Y O *D sg13g2_nor3_1
*CAP
1 *5181:A2 0.000146776
2 *5183:A2 0.000744104
3 *5212:A1 0
4 *5225:B 0.000220389
5 *5258:A 2.16082e-05
6 *5244:B 0
7 *5248:A 0.0001554
8 *5180:Y 0
9 *367:101 0.00193663
10 *367:56 0.000693138
11 *367:46 0.00200859
12 *367:42 0.00343049
13 *367:18 0.00263467
14 *367:4 0.00191956
15 *5181:A2 *5181:A1 8.00842e-05
16 *5181:A2 *1116:83 1.54008e-05
17 *5183:A2 *1116:27 1.54008e-05
18 *5183:A2 *1116:37 0.000144994
19 *5183:A2 *1117:78 0.00014434
20 *5225:B *1002:90 0.000232848
21 *5225:B *1005:96 0
22 *5225:B *1098:31 0
23 *5248:A *5248:B 0.00044363
24 *5248:A *5248:C 0
25 *5258:A *5258:B 3.23965e-05
26 *5258:A *425:10 4.77425e-05
27 *367:18 *387:25 0.000237686
28 *367:18 *1016:26 0.000566102
29 *367:18 *1093:18 0.000237643
30 *367:42 *5212:A2 5.68051e-05
31 *367:42 *5220:A2 0.000135779
32 *367:42 *5227:A2 0.000175513
33 *367:42 *5228:C 0.000466774
34 *367:42 *1005:27 0.000175721
35 *367:42 *1015:10 0.000305011
36 *367:42 *1093:50 0.000268822
37 *367:42 *1093:58 7.99949e-05
38 *367:42 *1093:62 0.00137037
39 *367:46 *5038:D 0
40 *367:46 *404:8 0.000235055
41 *367:46 *425:10 7.51285e-05
42 *367:46 *1005:49 0
43 *367:46 *1005:96 0
44 *367:46 *1098:31 0
45 *367:46 *1098:35 0
46 *367:56 *5248:B 7.52149e-05
47 *367:56 *5248:C 0
48 *367:56 *5258:B 1.54556e-05
49 *367:56 *412:14 0
50 *367:56 *412:38 0
51 *367:56 *412:49 0
52 *367:56 *425:10 4.77425e-05
53 *367:56 *1002:8 0
54 *367:56 *1002:32 0.000435861
55 *367:56 *1002:34 0.000212127
56 *367:101 *5180:A 4.77425e-05
57 *367:101 *1115:37 0
58 *367:101 *1116:91 0
59 *5058:B *367:18 0.000177509
60 *5058:B *367:101 6.46834e-05
61 *5223:A *367:42 0
62 *6009:A *367:42 0.000112558
63 *268:8 *367:46 0
64 *281:12 *367:101 0
65 *285:21 *367:101 0.000234224
66 *286:14 *367:18 0.00011255
67 *286:14 *367:101 0
68 *286:67 *367:42 0
69 *287:12 *367:101 0
70 *287:14 *5183:A2 0
71 *287:14 *367:101 0
72 *287:92 *367:101 0.000338872
73 *288:10 *367:18 0
74 *288:14 *367:42 0.00014476
75 *348:18 *367:101 0
76 *348:22 *5183:A2 0
77 *358:14 *367:18 0
78 *358:14 *367:42 0
79 *358:24 *367:42 0
*RES
1 *5180:Y *367:4 20 
2 *367:4 *367:18 49.3524 
3 *367:18 *367:42 38.7563 
4 *367:42 *367:46 33.4518 
5 *367:46 *367:56 25.7886 
6 *367:56 *5248:A 42.1527 
7 *367:56 *5244:B 40 
8 *367:46 *5258:A 20.3193 
9 *367:42 *5225:B 42.0806 
10 *367:18 *5212:A1 20 
11 *367:4 *367:101 30.5884 
12 *367:101 *5183:A2 47.7456 
13 *367:101 *5181:A2 41.4214 
*END

*D_NET *368 9.45957e-05
*CONN
*I *5182:B1 I *D sg13g2_a21oi_1
*I *5181:Y O *D sg13g2_o21ai_1
*CAP
1 *5182:B1 4.72978e-05
2 *5181:Y 4.72978e-05
*RES
1 *5181:Y *5182:B1 40.5974 
*END

*D_NET *369 0.000794645
*CONN
*I *5185:C I *D sg13g2_nor3_1
*I *5183:Y O *D sg13g2_a21oi_1
*CAP
1 *5185:C 0.000360819
2 *5183:Y 0.000360819
3 *5185:C *5100:B1 0
4 *5185:C *5185:B 7.3007e-05
5 *5185:C *5913:A 0
6 *5185:C *1116:27 0
7 *5185:C *1117:78 0
*RES
1 *5183:Y *5185:C 43.8522 
*END

*D_NET *370 0.00420747
*CONN
*I *5185:A I *D sg13g2_nor3_1
*I *5187:A2 I *D sg13g2_a21oi_1
*I *5186:A2 I *D sg13g2_o21ai_1
*I *5188:A2 I *D sg13g2_a21oi_1
*I *5184:Y O *D sg13g2_nor4_1
*CAP
1 *5185:A 3.11465e-05
2 *5187:A2 2.42686e-05
3 *5186:A2 0.0002416
4 *5188:A2 0.000119307
5 *5184:Y 0.00070023
6 *370:25 0.000265869
7 *370:12 0.000379308
8 *370:10 0.000991378
9 *5185:A *5100:B1 4.77425e-05
10 *5186:A2 *5186:A1 0
11 *5186:A2 *5187:B1 0
12 *5186:A2 *1087:33 0.000177297
13 *5187:A2 *1087:33 4.77425e-05
14 *5188:A2 *5187:B1 4.77425e-05
15 *5188:A2 *1087:16 0
16 *5188:A2 *1087:20 0.000235055
17 *5188:A2 *1087:33 5.30319e-05
18 *370:10 *5557:CLK 0
19 *370:10 *5661:CLK 0
20 *370:10 *5912:A 0.000265805
21 *370:10 *608:10 7.34778e-05
22 *370:10 *636:28 0.00012816
23 *370:10 *1004:42 0
24 *370:12 *608:10 0.000287776
25 *370:12 *1004:44 0
26 *370:12 *1087:33 7.51285e-05
27 *5184:C *370:10 0
28 *348:22 *370:10 0
29 *348:22 *370:12 0
30 *348:32 *5186:A2 1.54008e-05
*RES
1 *5184:Y *370:10 47.2821 
2 *370:10 *370:12 3.3166 
3 *370:12 *5188:A2 41.6583 
4 *370:12 *370:25 20 
5 *370:25 *5186:A2 22.5029 
6 *370:25 *5187:A2 20.3193 
7 *370:10 *5185:A 40.3193 
*END

*D_NET *371 0.00057495
*CONN
*I *5187:B1 I *D sg13g2_a21oi_1
*I *5186:Y O *D sg13g2_o21ai_1
*CAP
1 *5187:B1 0.000263604
2 *5186:Y 0.000263604
3 *5186:A2 *5187:B1 0
4 *5188:A2 *5187:B1 4.77425e-05
5 *5621:D *5187:B1 0
6 *348:32 *5187:B1 0
*RES
1 *5186:Y *5187:B1 42.9664 
*END

*D_NET *372 0.000514724
*CONN
*I *5191:C I *D sg13g2_nor3_1
*I *5188:Y O *D sg13g2_a21oi_1
*CAP
1 *5191:C 0.000249634
2 *5188:Y 0.000249634
3 *5191:C *5188:B1 0
4 *5191:C *5191:A 0
5 *5191:C *5191:B 1.54556e-05
*RES
1 *5188:Y *5191:C 43.1106 
*END

*D_NET *373 0.00404807
*CONN
*I *5190:B I *D sg13g2_nor4_1
*I *5209:C I *D sg13g2_nor4_1
*I *5207:A I *D sg13g2_nor2_1
*I *5208:C I *D sg13g2_nor4_1
*I *5189:Y O *D sg13g2_nand4_1
*CAP
1 *5190:B 0
2 *5209:C 0
3 *5207:A 0.000209222
4 *5208:C 6.14073e-05
5 *5189:Y 0.00020822
6 *373:24 0.0003294
7 *373:20 0.000703668
8 *373:14 0.000669373
9 *373:10 0.000232695
10 *5207:A *5207:B 0
11 *5207:A *5208:D 0
12 *5207:A *5259:B 0
13 *5207:A *386:23 1.54008e-05
14 *5207:A *389:18 0.000242313
15 *5208:C *5208:A 7.61954e-05
16 *5208:C *1014:70 7.62389e-05
17 *373:10 *5189:D 0
18 *373:10 *374:10 0
19 *373:10 *1016:49 7.51285e-05
20 *373:14 *1014:58 3.23417e-05
21 *373:14 *1014:70 1.54008e-05
22 *373:14 *1016:49 1.54008e-05
23 *373:20 *386:23 1.54008e-05
24 *373:20 *1014:70 0.000663435
25 *373:24 *5208:A 0.00018387
26 *5209:B *373:20 0.000143999
27 *287:28 *373:20 7.89557e-05
*RES
1 *5189:Y *373:10 41.9055 
2 *373:10 *373:14 20.3193 
3 *373:14 *373:20 6.3963 
4 *373:20 *373:24 20.8446 
5 *373:24 *5208:C 40.8446 
6 *373:24 *5207:A 42.0497 
7 *373:20 *5209:C 20 
8 *373:14 *5190:B 20 
*END

*D_NET *374 0.0104227
*CONN
*I *5191:A I *D sg13g2_nor3_1
*I *5193:A2 I *D sg13g2_a21oi_1
*I *5192:A2 I *D sg13g2_o21ai_1
*I *5201:B I *D sg13g2_nand3_1
*I *5197:C I *D sg13g2_and3_1
*I *5194:A2 I *D sg13g2_a21oi_1
*I *5199:A1 I *D sg13g2_a21oi_1
*I *5200:D I *D sg13g2_and4_1
*I *5190:Y O *D sg13g2_nor4_1
*CAP
1 *5191:A 0.000495115
2 *5193:A2 0
3 *5192:A2 0.000127114
4 *5201:B 0.000213672
5 *5197:C 0
6 *5194:A2 0
7 *5199:A1 0.000248949
8 *5200:D 0.000159156
9 *5190:Y 2.49108e-05
10 *374:69 0.000218594
11 *374:54 0.000783263
12 *374:39 0.000813617
13 *374:26 0.000347925
14 *374:22 0.000618793
15 *374:20 0.000504879
16 *374:16 0.000533271
17 *374:10 0.00167404
18 *374:8 0.000831978
19 *5191:A *5191:B 0
20 *5191:A *1090:8 0
21 *5192:A2 *5210:C1 0
22 *5192:A2 *705:33 0
23 *5199:A1 *5199:A2 0
24 *5199:A1 *5202:C 0
25 *5199:A1 *377:6 1.54556e-05
26 *5199:A1 *691:36 0
27 *5200:D *5202:A 0
28 *5200:D *691:22 0.000343546
29 *5200:D *705:33 0
30 *5200:D *1090:30 0
31 *5201:B *5210:C1 0
32 *5201:B *377:6 0
33 *5201:B *607:20 0
34 *374:10 *5040:B 0
35 *374:10 *5183:B1 0
36 *374:10 *5189:B 0.000447182
37 *374:10 *378:8 0
38 *374:10 *691:8 0
39 *374:10 *1087:61 0.000287256
40 *374:10 *1090:85 0
41 *374:16 *5193:A1 1.54556e-05
42 *374:16 *607:20 0.000129706
43 *374:16 *691:8 0
44 *374:16 *691:10 0
45 *374:16 *1090:12 0
46 *374:16 *1090:85 0
47 *374:20 *5193:A1 8.02434e-05
48 *374:20 *5193:B1 0
49 *374:20 *607:20 0.000274518
50 *374:22 *5202:A 0
51 *374:22 *5210:C1 0
52 *374:22 *705:33 0
53 *374:26 *5202:A 0
54 *374:26 *705:33 0
55 *374:54 *5199:A2 0
56 *374:54 *5201:C 0
57 *374:54 *691:16 0
58 *374:54 *691:36 0.00066339
59 *374:54 *691:47 1.54556e-05
60 *374:69 *5197:B 3.58069e-05
61 *374:69 *691:47 0.000372347
62 *374:69 *1090:67 0
63 *5191:C *5191:A 0
64 *5625:D *374:16 0
65 *5627:D *374:69 7.19653e-05
66 *348:32 *5192:A2 7.51285e-05
67 *373:10 *374:10 0
*RES
1 *5190:Y *374:8 40.3193 
2 *374:8 *374:10 9.7438 
3 *374:10 *374:16 24.0376 
4 *374:16 *374:20 21.8334 
5 *374:20 *374:22 1.8334 
6 *374:22 *374:26 2.1527 
7 *374:26 *5200:D 42.1527 
8 *374:26 *374:39 20 
9 *374:39 *5199:A1 22.5029 
10 *374:39 *374:54 6.2933 
11 *374:54 *5194:A2 20 
12 *374:54 *374:69 42.8402 
13 *374:69 *5197:C 20 
14 *374:22 *5201:B 42.266 
15 *374:20 *5192:A2 41.339 
16 *374:16 *5193:A2 20 
17 *374:10 *5191:A 45.2942 
*END

*D_NET *375 0.000297394
*CONN
*I *5193:B1 I *D sg13g2_a21oi_1
*I *5192:Y O *D sg13g2_o21ai_1
*CAP
1 *5193:B1 0.000148697
2 *5192:Y 0.000148697
3 *5193:B1 *5192:A1 0
4 *5193:B1 *5193:A1 0
5 *5193:B1 *5625:RESET_B 0
6 *5625:D *5193:B1 0
7 *374:20 *5193:B1 0
*RES
1 *5192:Y *5193:B1 41.4008 
*END

*D_NET *376 0.000729651
*CONN
*I *5198:B I *D sg13g2_nor3_1
*I *5194:Y O *D sg13g2_a21oi_1
*CAP
1 *5198:B 0.00029305
2 *5194:Y 0.00029305
3 *5198:B *5198:C 0.00014355
4 *5198:B *691:36 0
*RES
1 *5194:Y *5198:B 42.9664 
*END

*D_NET *377 0.000650638
*CONN
*I *5201:C I *D sg13g2_nand3_1
*I *5199:A2 I *D sg13g2_a21oi_1
*I *5195:X O *D sg13g2_and2_1
*CAP
1 *5201:C 0.000106012
2 *5199:A2 2.77263e-05
3 *5195:X 0.000183852
4 *377:6 0.000317591
5 *5199:A1 *5199:A2 0
6 *5199:A1 *377:6 1.54556e-05
7 *5201:B *377:6 0
8 *374:54 *5199:A2 0
9 *374:54 *5201:C 0
*RES
1 *5195:X *377:6 21.6171 
2 *377:6 *5199:A2 20.3502 
3 *377:6 *5201:C 21.339 
*END

*D_NET *378 0.00648147
*CONN
*I *5205:C I *D sg13g2_nor4_1
*I *5204:A I *D sg13g2_nor2_1
*I *5196:Y O *D sg13g2_nand4_1
*CAP
1 *5205:C 0.000115231
2 *5204:A 4.5985e-05
3 *5196:Y 0
4 *378:8 0.000762063
5 *378:6 0.000600847
6 *5205:C *5205:D 4.77534e-05
7 *5205:C *1016:35 0.000341949
8 *378:8 *5189:B 0
9 *378:8 *705:113 0
10 *378:8 *1016:35 0.00111948
11 *378:8 *1016:41 0.000235556
12 *378:8 *1088:50 0
13 *378:8 *1088:61 0
14 *378:8 *1090:104 0.000340704
15 *378:8 *1116:63 0
16 *378:8 *1117:44 0
17 *5205:B *5205:C 8.01116e-05
18 *270:18 *5205:C 0.000319852
19 *270:18 *378:8 0.00247194
20 *374:10 *378:8 0
*RES
1 *5196:Y *378:6 40 
2 *378:6 *378:8 11.9686 
3 *378:8 *5204:A 40.5356 
4 *378:8 *5205:C 42.3381 
*END

*D_NET *379 0.000757716
*CONN
*I *5198:C I *D sg13g2_nor3_1
*I *5197:X O *D sg13g2_and3_1
*CAP
1 *5198:C 0.000184529
2 *5197:X 0.000184529
3 *5198:B *5198:C 0.00014355
4 *5627:D *5198:C 0.000245108
*RES
1 *5197:X *5198:C 42.0703 
*END

*D_NET *380 0.000664195
*CONN
*I *5202:B I *D sg13g2_nor3_1
*I *5199:Y O *D sg13g2_a21oi_1
*CAP
1 *5202:B 4.61761e-05
2 *5199:Y 0.000147378
3 *380:8 0.000193554
4 *5202:B *5200:A 8.00842e-05
5 *5202:B *5202:C 1.54008e-05
6 *380:8 *5202:A 0.000181601
7 *5629:D *5202:B 0
*RES
1 *5199:Y *380:8 41.339 
2 *380:8 *5202:B 40.5356 
*END

*D_NET *381 0.000775601
*CONN
*I *5202:C I *D sg13g2_nor3_1
*I *5200:X O *D sg13g2_and4_1
*CAP
1 *5202:C 0.000323887
2 *5200:X 0.000323887
3 *5202:C *5202:A 0.000112426
4 *5199:A1 *5202:C 0
5 *5202:B *5202:C 1.54008e-05
6 *5629:D *5202:C 0
*RES
1 *5200:X *5202:C 43.6771 
*END

*D_NET *382 0.00168851
*CONN
*I *5210:B1 I *D sg13g2_a221oi_1
*I *5201:Y O *D sg13g2_nand3_1
*CAP
1 *5210:B1 0
2 *5201:Y 0.000804193
3 *382:10 0.000804193
4 *382:10 *5659:CLK 0
5 *382:10 *5910:A 0
6 *382:10 *634:6 0
7 *382:10 *634:32 0
8 *382:10 *1091:16 8.01211e-05
*RES
1 *5201:Y *382:10 47.8692 
2 *382:10 *5210:B1 40 
*END

*D_NET *383 0.00127736
*CONN
*I *5205:D I *D sg13g2_nor4_1
*I *5204:B I *D sg13g2_nor2_1
*I *5203:Y O *D sg13g2_nand4_1
*CAP
1 *5205:D 8.36207e-05
2 *5204:B 0
3 *5203:Y 0.000269317
4 *383:10 0.000352938
5 *383:10 *5203:C 0
6 *383:10 *384:6 0
7 *5205:C *5205:D 4.77534e-05
8 *270:18 *5205:D 0.000182109
9 *270:18 *383:10 0.000341621
*RES
1 *5203:Y *383:10 43.2033 
2 *383:10 *5204:B 40 
3 *383:10 *5205:D 41.3802 
*END

*D_NET *384 0.00599289
*CONN
*I *5233:B I *D sg13g2_nand4_1
*I *5213:C I *D sg13g2_nand4_1
*I *5204:Y O *D sg13g2_nor2_1
*CAP
1 *5233:B 0.00116459
2 *5213:C 0
3 *5204:Y 0.000778447
4 *384:12 0.000162699
5 *384:6 0.00210573
6 *5233:B *5663:CLK 0
7 *5233:B *410:8 0
8 *5233:B *621:14 0
9 *5233:B *1094:24 0
10 *384:6 *5041:C 0
11 *384:6 *5203:B 0
12 *384:6 *5203:C 0
13 *384:6 *385:14 0
14 *384:6 *1094:24 0.000274414
15 *5042:A *384:6 0
16 *5060:D *384:12 0.000399241
17 *268:24 *5233:B 0.00110777
18 *268:24 *384:6 0
19 *279:12 *5233:B 0
20 *383:10 *384:6 0
*RES
1 *5204:Y *384:6 27.2409 
2 *384:6 *384:12 41.8334 
3 *384:12 *5213:C 20 
4 *384:6 *5233:B 31.9171 
*END

*D_NET *385 0.0111263
*CONN
*I *5218:B I *D sg13g2_nand4_1
*I *5264:A I *D sg13g2_nand4_1
*I *5205:Y O *D sg13g2_nor4_1
*CAP
1 *5218:B 0
2 *5264:A 0
3 *5205:Y 0.0017764
4 *385:37 0.000981124
5 *385:26 0.00170865
6 *385:16 0.00268978
7 *385:14 0.0017764
8 *385:14 *5213:D 0.000144891
9 *385:26 *5271:A 0
10 *385:26 *5274:B 0
11 *385:26 *410:20 0.000274189
12 *385:26 *605:231 0
13 *385:26 *605:233 0
14 *385:26 *1015:35 0
15 *385:26 *1106:29 0
16 *385:37 *5218:C 0.000207922
17 *385:37 *5218:D 0
18 *385:37 *390:18 0
19 *385:37 *396:8 0
20 *385:37 *605:231 0
21 *385:37 *1015:35 0
22 *5042:D *385:14 8.00842e-05
23 *135:8 *385:37 0.000660533
24 *268:24 *385:14 0.000218604
25 *283:6 *385:14 0
26 *283:12 *385:14 0
27 *286:61 *385:37 0.00060768
28 *384:6 *385:14 0
*RES
1 *5205:Y *385:14 37.5409 
2 *385:14 *385:16 20 
3 *385:16 *385:26 37.2834 
4 *385:26 *5264:A 20 
5 *385:16 *385:37 31.8553 
6 *385:37 *5218:B 20 
*END

*D_NET *386 0.0018001
*CONN
*I *5209:D I *D sg13g2_nor4_1
*I *5207:B I *D sg13g2_nor2_1
*I *5208:D I *D sg13g2_nor4_1
*I *5206:Y O *D sg13g2_nand4_1
*CAP
1 *5209:D 0
2 *5207:B 0.000240532
3 *5208:D 0.000215926
4 *5206:Y 0
5 *386:23 0.000532975
6 *386:4 0.000508369
7 *5207:B *5661:CLK 0
8 *5207:B *389:18 8.01424e-05
9 *386:23 *5661:CLK 0
10 *5207:A *5207:B 0
11 *5207:A *5208:D 0
12 *5207:A *386:23 1.54008e-05
13 *5208:B *5208:D 0.0001124
14 *5208:B *386:23 0
15 *287:28 *386:23 7.89557e-05
16 *373:20 *386:23 1.54008e-05
*RES
1 *5206:Y *386:4 20 
2 *386:4 *5208:D 22.2866 
3 *386:4 *386:23 3.3784 
4 *386:23 *5207:B 22.6368 
5 *386:23 *5209:D 20 
*END

*D_NET *387 0.0101692
*CONN
*I *6001:A I *D sg13g2_buf_1
*I *6000:A I *D sg13g2_buf_1
*I *5207:Y O *D sg13g2_nor2_1
*CAP
1 *6001:A 0
2 *6000:A 0
3 *5207:Y 0.000452321
4 *387:25 0.00149806
5 *387:14 0.00163724
6 *387:8 0.00358762
7 *387:14 *5045:A 0.00056637
8 *387:14 *5271:B 0.000209676
9 *387:14 *5663:RESET_B 0
10 *387:14 *657:18 0
11 *387:14 *1015:50 0.000856061
12 *387:14 *1110:19 0.000436292
13 *387:25 *708:58 0.000450182
14 *387:25 *1093:10 0
15 *387:25 *1093:18 0
16 *5045:C *387:14 0
17 *5060:A *387:14 0
18 *272:8 *387:25 0.000237643
19 *279:12 *387:14 0
20 *290:10 *387:14 0
21 *291:12 *387:25 0
22 *367:18 *387:25 0.000237686
*RES
1 *5207:Y *387:8 45.047 
2 *387:8 *387:14 38.4679 
3 *387:14 *6000:A 20 
4 *387:8 *387:25 34.7959 
5 *387:25 *6001:A 20 
*END

*D_NET *388 0.00701137
*CONN
*I *5210:A2 I *D sg13g2_a221oi_1
*I *5261:B I *D sg13g2_nand4_1
*I *5254:A I *D sg13g2_nand4_1
*I *5252:B I *D sg13g2_nand4_1
*I *5208:Y O *D sg13g2_nor4_1
*CAP
1 *5210:A2 0
2 *5261:B 0
3 *5254:A 9.70746e-05
4 *5252:B 0
5 *5208:Y 0.000324316
6 *388:36 0.000491184
7 *388:24 0.000877058
8 *388:22 0.00110381
9 *388:12 0.00170014
10 *388:8 0.00120944
11 *5254:A *410:39 0.000111596
12 *388:8 *5259:B 0
13 *388:12 *1092:8 0
14 *388:22 *5049:A 0
15 *388:22 *5049:B 0
16 *388:22 *5210:A1 0.000566267
17 *388:22 *430:20 8.01118e-05
18 *388:22 *1104:35 0
19 *388:24 *5261:C 0.000242154
20 *388:24 *410:39 0
21 *388:24 *427:10 8.00842e-05
22 *388:36 *5252:C 4.78356e-05
23 *388:36 *5252:A 8.02924e-05
24 *388:36 *5252:D 0
25 *388:36 *5257:B1 0
26 *388:36 *1106:14 0
27 *5255:B *388:22 0
28 *5255:B *388:24 0
29 *5255:B *388:36 0
*RES
1 *5208:Y *388:8 43.3475 
2 *388:8 *388:12 29.4142 
3 *388:12 *388:22 7.8263 
4 *388:22 *388:24 3.1312 
5 *388:24 *388:36 44.8616 
6 *388:36 *5252:B 20 
7 *388:24 *5254:A 21.1021 
8 *388:22 *5261:B 20 
9 *388:12 *5210:A2 20 
*END

*D_NET *389 0.00781801
*CONN
*I *5268:A I *D sg13g2_nand4_1
*I *5237:B I *D sg13g2_nand4_1
*I *5273:A I *D sg13g2_nand4_1
*I *5209:Y O *D sg13g2_nor4_1
*CAP
1 *5268:A 0
2 *5237:B 0
3 *5273:A 0
4 *5209:Y 0.00124791
5 *389:35 0.000886079
6 *389:22 0.00100553
7 *389:18 0.00136736
8 *389:18 *5259:B 0
9 *389:18 *5267:B 4.77425e-05
10 *389:18 *5268:D 0
11 *389:18 *5272:C 8.00842e-05
12 *389:18 *5273:D 0
13 *389:18 *5661:CLK 0
14 *389:18 *433:8 2.4669e-05
15 *389:22 *5275:A1 7.57164e-05
16 *389:22 *410:12 0.000342036
17 *389:35 *5237:A 0.00101798
18 *389:35 *5275:A1 0.000341707
19 *389:35 *5663:CLK 0
20 *389:35 *405:18 4.79124e-05
21 *389:35 *410:12 0.00101084
22 *389:35 *657:33 0
23 *389:35 *1110:8 0
24 *5046:A *389:18 0
25 *5207:A *389:18 0.000242313
26 *5207:B *389:18 8.01424e-05
27 *5272:A *389:18 0
*RES
1 *5209:Y *389:18 32.5557 
2 *389:18 *389:22 21.5862 
3 *389:22 *5273:A 40 
4 *389:22 *389:35 31.6081 
5 *389:35 *5237:B 20 
6 *389:18 *5268:A 20 
*END

*D_NET *390 0.00703673
*CONN
*I *5217:B2 I *D sg13g2_a221oi_1
*I *5224:A1 I *D sg13g2_a221oi_1
*I *5229:B2 I *D sg13g2_a221oi_1
*I *5211:X O *D sg13g2_and4_1
*CAP
1 *5217:B2 0
2 *5224:A1 0
3 *5229:B2 0
4 *5211:X 0.000443746
5 *390:28 0.000834734
6 *390:18 0.00182508
7 *390:12 0.00118568
8 *390:8 0.000639076
9 *390:8 *1012:113 0
10 *390:12 *5217:C1 4.75265e-05
11 *390:18 *5217:C1 1.53311e-05
12 *390:18 *5217:B1 0
13 *390:18 *5218:C 0
14 *390:18 *5218:D 0
15 *390:18 *5224:B1 0.000192759
16 *390:18 *5224:A2 1.27224e-05
17 *390:18 *5635:RESET_B 0
18 *390:18 *1095:10 0
19 *390:28 *5221:B 0
20 *390:28 *5224:C1 0
21 *390:28 *5224:B1 1.54008e-05
22 *390:28 *5224:A2 0.000304036
23 *390:28 *397:14 0.000505688
24 *390:28 *708:68 0.000786118
25 *390:28 *1005:108 4.75265e-05
26 *5635:D *390:12 0
27 *5639:D *390:18 0
28 *261:12 *390:8 0.000181298
29 *261:12 *390:12 0
30 *385:37 *390:18 0
*RES
1 *5211:X *390:8 43.811 
2 *390:8 *390:12 21.8334 
3 *390:12 *390:18 10.5678 
4 *390:18 *390:28 49.579 
5 *390:28 *5229:B2 20 
6 *390:18 *5224:A1 20 
7 *390:12 *5217:B2 20 
*END

*D_NET *391 0.000317393
*CONN
*I *5214:A I *D sg13g2_and4_1
*I *5212:X O *D sg13g2_a21o_1
*CAP
1 *5214:A 0.000118737
2 *5212:X 0.000118737
3 *5214:A *708:58 6.45171e-05
4 *5214:A *708:68 1.54008e-05
5 *5214:A *1015:10 0
*RES
1 *5212:X *5214:A 41.3802 
*END

*D_NET *392 0.0042779
*CONN
*I *5217:A2 I *D sg13g2_a221oi_1
*I *5214:D I *D sg13g2_and4_1
*I *5213:Y O *D sg13g2_nand4_1
*CAP
1 *5217:A2 0.000511461
2 *5214:D 0.000219839
3 *5213:Y 0.000721322
4 *392:10 0.00145262
5 *5214:D *708:68 0
6 *5217:A2 *708:68 0
7 *5060:D *392:10 0.00083143
8 *5214:C *5214:D 1.54008e-05
9 *261:12 *5217:A2 0
10 *283:12 *392:10 8.01776e-05
11 *286:31 *392:10 0.000445646
12 *352:25 *5214:D 0
13 *352:25 *392:10 0
*RES
1 *5213:Y *392:10 47.5602 
2 *392:10 *5214:D 41.8334 
3 *392:10 *5217:A2 44.3543 
*END

*D_NET *393 0.00618934
*CONN
*I *5217:B1 I *D sg13g2_a221oi_1
*I *5218:C I *D sg13g2_nand4_1
*I *5216:D I *D sg13g2_nand4_1
*I *5220:B2 I *D sg13g2_a221oi_1
*I *5215:X O *D sg13g2_and2_1
*CAP
1 *5217:B1 0.000239218
2 *5218:C 0.000645718
3 *5216:D 0
4 *5220:B2 0.000244992
5 *5215:X 0
6 *393:32 0.00108301
7 *393:12 0.000586692
8 *393:6 0.000539777
9 *5217:B1 *708:68 0
10 *5218:C *5218:D 1.54008e-05
11 *5218:C *5637:CLK 0
12 *5218:C *708:68 0
13 *5220:B2 *5220:A2 0
14 *393:12 *657:14 0.000340288
15 *393:12 *1094:18 0.000159096
16 *393:12 *1094:24 0.000181192
17 *393:32 *657:14 0.000954301
18 *393:32 *1094:16 0.000797125
19 *393:32 *1094:18 0.000179273
20 *261:12 *5217:B1 1.53311e-05
21 *269:10 *5220:B2 0
22 *269:10 *393:12 0
23 *358:14 *393:12 0
24 *358:24 *5220:B2 0
25 *385:37 *5218:C 0.000207922
26 *390:18 *5217:B1 0
27 *390:18 *5218:C 0
*RES
1 *5215:X *393:6 40 
2 *393:6 *393:12 24.0685 
3 *393:12 *5220:B2 22.2866 
4 *393:12 *5216:D 20 
5 *393:6 *393:32 24.5526 
6 *393:32 *5218:C 26.8289 
7 *393:32 *5217:B1 22.5647 
*END

*D_NET *394 0.000481079
*CONN
*I *5220:A2 I *D sg13g2_a221oi_1
*I *5216:Y O *D sg13g2_nand4_1
*CAP
1 *5220:A2 0.00017265
2 *5216:Y 0.00017265
3 *5220:B2 *5220:A2 0
4 *358:24 *5220:A2 0
5 *367:42 *5220:A2 0.000135779
*RES
1 *5216:Y *5220:A2 41.7021 
*END

*D_NET *395 0.000751717
*CONN
*I *5224:B1 I *D sg13g2_a221oi_1
*I *5218:Y O *D sg13g2_nand4_1
*CAP
1 *5224:B1 0.000199811
2 *5218:Y 0.000199811
3 *5224:B1 *5221:B 0.000143934
4 *5224:B1 *5637:CLK 0
5 *390:18 *5224:B1 0.000192759
6 *390:28 *5224:B1 1.54008e-05
*RES
1 *5218:Y *5224:B1 42.2454 
*END

*D_NET *396 0.000815396
*CONN
*I *5220:B1 I *D sg13g2_a221oi_1
*I *5219:X O *D sg13g2_and4_1
*CAP
1 *5220:B1 5.09204e-05
2 *5219:X 8.3089e-05
3 *396:8 0.000134009
4 *396:8 *1015:35 0.000285923
5 *5220:A1 *5220:B1 8.00842e-05
6 *135:8 *396:8 0.00018137
7 *385:37 *396:8 0
*RES
1 *5219:X *396:8 41.339 
2 *396:8 *5220:B1 40.5356 
*END

*D_NET *397 0.00383709
*CONN
*I *5224:A2 I *D sg13g2_a221oi_1
*I *5223:C I *D sg13g2_nand4_1
*I *5225:D I *D sg13g2_nand4_1
*I *5221:X O *D sg13g2_and4_1
*CAP
1 *5224:A2 0.000188251
2 *5223:C 0
3 *5225:D 0.000244274
4 *5221:X 8.20468e-05
5 *397:14 0.000838057
6 *397:8 0.000864081
7 *5224:A2 *632:58 0
8 *5225:D *5223:B 0.000240057
9 *5225:D *5223:D 1.54008e-05
10 *5225:D *708:68 0
11 *5225:D *1002:84 1.54008e-05
12 *397:8 *5224:C1 0.000143287
13 *397:14 *5221:D 0
14 *397:14 *5223:D 0.000240503
15 *397:14 *1012:55 0
16 *5223:A *5225:D 0
17 *5224:B2 *397:8 0.000143287
18 *288:14 *397:14 0
19 *390:18 *5224:A2 1.27224e-05
20 *390:28 *5224:A2 0.000304036
21 *390:28 *397:14 0.000505688
*RES
1 *5221:X *397:8 40.9682 
2 *397:8 *397:14 26.4169 
3 *397:14 *5225:D 22.4308 
4 *397:14 *5223:C 20 
5 *397:8 *5224:A2 42.1038 
*END

*D_NET *398 0.00742446
*CONN
*I *5228:C I *D sg13g2_nor3_1
*I *5239:B I *D sg13g2_nor3_1
*I *5232:A I *D sg13g2_nor2_1
*I *5241:A I *D sg13g2_nor2_1
*I *5222:Y O *D sg13g2_nand4_1
*CAP
1 *5228:C 0.00082041
2 *5239:B 0
3 *5232:A 5.65798e-05
4 *5241:A 0.000447333
5 *5222:Y 0
6 *398:16 0.000845211
7 *398:12 0.00110621
8 *398:6 0.00158532
9 *5228:C *5227:A2 0
10 *5228:C *5230:D 0
11 *5228:C *1002:84 0
12 *5228:C *1012:55 0
13 *5232:A *5231:A 0
14 *5232:A *405:10 4.79124e-05
15 *5241:A *5038:B 0
16 *5241:A *5038:C 4.77537e-05
17 *5241:A *5231:A 0.000144718
18 *5241:A *5241:B 0.000133772
19 *5241:A *406:18 0
20 *5241:A *1100:23 0
21 *5241:A *1100:34 0
22 *5241:A *1101:48 0.000112535
23 *398:12 *5233:C 0
24 *398:12 *5239:C 1.54008e-05
25 *398:12 *5663:CLK 0.000226687
26 *398:12 *410:8 0.00017729
27 *398:12 *1012:55 0
28 *398:12 *1012:57 0
29 *398:16 *5038:B 0
30 *398:16 *5232:B 0
31 *398:16 *5239:C 0.000207854
32 *398:16 *5663:CLK 1.54008e-05
33 *398:16 *405:10 0
34 *398:16 *406:18 0
35 *398:16 *1101:48 0
36 *5228:A *5228:C 0
37 *5228:B *5228:C 1.54556e-05
38 *255:40 *398:16 0
39 *286:67 *5228:C 0.000951845
40 *288:27 *5228:C 0
41 *288:27 *398:12 0
42 *367:42 *5228:C 0.000466774
*RES
1 *5222:Y *398:6 40 
2 *398:6 *398:12 27.1585 
3 *398:12 *398:16 3.5741 
4 *398:16 *5241:A 25.0635 
5 *398:16 *5232:A 20.7519 
6 *398:12 *5239:B 20 
7 *398:6 *5228:C 48.5799 
*END

*D_NET *399 0.00244016
*CONN
*I *5227:A2 I *D sg13g2_a21oi_1
*I *5223:Y O *D sg13g2_nand4_1
*CAP
1 *5227:A2 0.000883818
2 *5223:Y 0.000883818
3 *5227:A2 *5223:B 0
4 *5227:A2 *5227:B1 0
5 *5227:A2 *1002:84 0
6 *5227:A2 *1015:26 0.000111926
7 *5227:A2 *1098:29 0
8 *5223:A *5227:A2 1.54008e-05
9 *5227:A1 *5227:A2 1.54008e-05
10 *5228:A *5227:A2 0.00014459
11 *5228:B *5227:A2 0.000209697
12 *5228:C *5227:A2 0
13 *367:42 *5227:A2 0.000175513
*RES
1 *5223:Y *5227:A2 48.858 
*END

*D_NET *400 0.00126192
*CONN
*I *5229:A2 I *D sg13g2_a221oi_1
*I *5226:A I *D sg13g2_nand3_1
*I *5225:Y O *D sg13g2_nand4_1
*CAP
1 *5229:A2 7.58261e-05
2 *5226:A 0.00026517
3 *5225:Y 0.000162192
4 *400:10 0.000503187
5 *5226:A *5021:A 7.99242e-05
6 *5226:A *1098:29 0
7 *400:10 *708:68 0
8 *400:10 *1098:29 0.000175623
9 *5134:A2 *5226:A 0
10 *5229:A1 *5226:A 0
*RES
1 *5225:Y *400:10 22.1321 
2 *400:10 *5226:A 22.6162 
3 *400:10 *5229:A2 20.9347 
*END

*D_NET *401 0.00059694
*CONN
*I *5227:B1 I *D sg13g2_a21oi_1
*I *5226:Y O *D sg13g2_nand3_1
*CAP
1 *5227:B1 0.000178369
2 *5226:Y 0.000178369
3 *5227:B1 *1098:29 0.000240202
4 *5227:A2 *5227:B1 0
*RES
1 *5226:Y *5227:B1 41.9673 
*END

*D_NET *402 0.00188083
*CONN
*I *5229:B1 I *D sg13g2_a221oi_1
*I *5230:D I *D sg13g2_nand4_1
*I *5228:Y O *D sg13g2_nor3_1
*CAP
1 *5229:B1 0.000479456
2 *5230:D 0.000205023
3 *5228:Y 0
4 *402:6 0.000684479
5 *5229:B1 *708:68 0.000208411
6 *5229:B1 *1099:10 0
7 *5230:D *1002:84 8.03091e-05
8 *5230:D *1099:10 0
9 *5134:A2 *5229:B1 7.9314e-05
10 *5228:A *5229:B1 0
11 *5228:C *5230:D 0
12 *5229:A1 *5229:B1 0.00014384
13 *286:67 *5230:D 0
*RES
1 *5228:Y *402:6 40 
2 *402:6 *5230:D 42.1218 
3 *402:6 *5229:B1 44.223 
*END

*D_NET *403 0.00466157
*CONN
*I *5235:A2 I *D sg13g2_a21oi_1
*I *5230:Y O *D sg13g2_nand4_1
*CAP
1 *5235:A2 0.000809628
2 *5230:Y 0.000792064
3 *403:16 0.000857331
4 *403:10 0.000839766
5 *5235:A2 *5135:B1 0.00056637
6 *5235:A2 *5235:B1 0
7 *5235:A2 *5238:A1 0.000337221
8 *5235:A2 *5238:A2 0
9 *5235:A2 *5647:RESET_B 0.000209147
10 *403:10 *700:86 0
11 *403:10 *1101:39 0.00023464
12 *5228:B *403:10 0
13 *5235:A1 *5235:A2 1.54008e-05
14 *255:14 *5235:A2 0
*RES
1 *5230:Y *403:10 47.8383 
2 *403:10 *403:16 40.5974 
3 *403:16 *5235:A2 48.3955 
*END

*D_NET *404 0.00131641
*CONN
*I *5232:B I *D sg13g2_nor2_1
*I *5239:C I *D sg13g2_nor3_1
*I *5231:Y O *D sg13g2_nand3_1
*CAP
1 *5232:B 5.03217e-05
2 *5239:C 0.000177428
3 *5231:Y 4.36827e-05
4 *404:10 0.000227749
5 *404:8 4.36827e-05
6 *5232:B *405:10 8.01773e-05
7 *404:8 *1005:49 0.000235055
8 *367:46 *404:8 0.000235055
9 *398:12 *5239:C 1.54008e-05
10 *398:16 *5232:B 0
11 *398:16 *5239:C 0.000207854
*RES
1 *5231:Y *404:8 41.0918 
2 *404:8 *404:10 20 
3 *404:10 *5239:C 21.751 
4 *404:10 *5232:B 20.5356 
*END

*D_NET *405 0.00243844
*CONN
*I *5233:C I *D sg13g2_nand4_1
*I *5237:C I *D sg13g2_nand4_1
*I *5232:Y O *D sg13g2_nor2_1
*CAP
1 *5233:C 0.000258473
2 *5237:C 0
3 *5232:Y 0.000222726
4 *405:18 0.000265421
5 *405:10 0.00074662
6 *5233:C *5233:D 4.7803e-05
7 *5233:C *406:10 0.00027432
8 *5233:C *410:8 0
9 *5233:C *621:14 0
10 *405:10 *406:10 0.000111478
11 *405:18 *5663:CLK 0.000234726
12 *405:18 *621:24 0
13 *405:18 *632:10 5.30319e-05
14 *405:18 *1005:49 0
15 *5232:A *405:10 4.79124e-05
16 *5232:B *405:10 8.01773e-05
17 *255:40 *405:18 4.78359e-05
18 *268:24 *405:10 0
19 *288:27 *405:18 0
20 *389:35 *405:18 4.79124e-05
21 *398:12 *5233:C 0
22 *398:16 *405:10 0
*RES
1 *5232:Y *405:10 22.2866 
2 *405:10 *405:18 42.6471 
3 *405:18 *5237:C 20 
4 *405:10 *5233:C 22.9355 
*END

*D_NET *406 0.00732543
*CONN
*I *5234:A I *D sg13g2_nand3_1
*I *5236:A I *D sg13g2_nand3_1
*I *5233:Y O *D sg13g2_nand4_1
*CAP
1 *5234:A 0.000301103
2 *5236:A 0.000227033
3 *5233:Y 0.000342082
4 *406:22 0.000715083
5 *406:18 0.000972066
6 *406:10 0.0011272
7 *5234:A *629:80 0.000339294
8 *5234:A *709:70 2.21754e-05
9 *5236:A *629:80 0.000339294
10 *5236:A *1101:23 0.000371866
11 *406:10 *621:14 0
12 *406:10 *621:24 0.000394248
13 *406:10 *1005:49 0.000393407
14 *406:18 *5038:B 0.00024109
15 *406:18 *5238:A2 0.000177093
16 *406:18 *621:24 0.000468139
17 *406:18 *700:86 0
18 *406:18 *709:62 0.000234224
19 *406:18 *1103:68 0
20 *406:22 *709:70 0
21 *406:22 *1101:23 9.71236e-05
22 *406:22 *1101:48 0.000177109
23 *5233:C *406:10 0.00027432
24 *5241:A *406:18 0
25 *255:40 *406:18 0
26 *398:16 *406:18 0
27 *405:10 *406:10 0.000111478
*RES
1 *5233:Y *406:10 44.3157 
2 *406:10 *406:18 47.6838 
3 *406:18 *406:22 21.8334 
4 *406:22 *5236:A 22.6986 
5 *406:22 *5234:A 23.296 
*END

*D_NET *407 0.00128805
*CONN
*I *5235:B1 I *D sg13g2_a21oi_1
*I *5234:Y O *D sg13g2_nand3_1
*CAP
1 *5235:B1 0.000412552
2 *5234:Y 7.92735e-05
3 *407:8 0.000491825
4 *5235:B1 *1100:23 0
5 *407:8 *709:78 0.000289003
6 *5235:A1 *5235:B1 1.54008e-05
7 *5235:A2 *5235:B1 0
8 *5645:D *5235:B1 0
*RES
1 *5234:Y *407:8 41.339 
2 *407:8 *5235:B1 43.914 
*END

*D_NET *408 0.00144201
*CONN
*I *5238:A1 I *D sg13g2_a21oi_1
*I *5236:Y O *D sg13g2_nand3_1
*CAP
1 *5238:A1 0.000424393
2 *5236:Y 0.000424393
3 *5238:A1 *5236:C 0
4 *5238:A1 *631:16 0
5 *5238:A1 *1101:23 0
6 *5238:A1 *1101:39 0
7 *5238:A1 *1103:68 4.72956e-05
8 *5235:A2 *5238:A1 0.000337221
9 *140:10 *5238:A1 0.000208708
*RES
1 *5236:Y *5238:A1 44.5372 
*END

*D_NET *409 0.00227815
*CONN
*I *5238:A2 I *D sg13g2_a21oi_1
*I *5237:Y O *D sg13g2_nand4_1
*CAP
1 *5238:A2 0.000191966
2 *5237:Y 0.000794896
3 *409:14 0.000986862
4 *5238:A2 *631:16 0
5 *5238:A2 *1101:39 0
6 *5238:A2 *1103:68 0
7 *409:14 *5237:A 1.54556e-05
8 *409:14 *412:8 0
9 *409:14 *631:16 0
10 *409:14 *1015:50 0
11 *5235:A2 *5238:A2 0
12 *255:36 *409:14 0
13 *255:40 *5238:A2 0.000111878
14 *255:40 *409:14 0
15 *406:18 *5238:A2 0.000177093
*RES
1 *5237:Y *409:14 47.4881 
2 *409:14 *5238:A2 42.2814 
*END

*D_NET *410 0.0101624
*CONN
*I *5264:B I *D sg13g2_nand4_1
*I *5254:B I *D sg13g2_nand4_1
*I *5252:C I *D sg13g2_nand4_1
*I *5261:C I *D sg13g2_nand4_1
*I *5239:Y O *D sg13g2_nor3_1
*CAP
1 *5264:B 0
2 *5254:B 0
3 *5252:C 0.000304284
4 *5261:C 0.00018728
5 *5239:Y 0.000664497
6 *410:39 0.00051536
7 *410:20 0.00117354
8 *410:12 0.00173122
9 *410:8 0.00162053
10 *5252:C *5252:A 8.02379e-05
11 *5252:C *5252:D 1.54556e-05
12 *5252:C *5254:C 4.78685e-05
13 *5252:C *5254:D 0
14 *5252:C *1104:35 0
15 *5261:C *5261:D 0
16 *5261:C *421:21 0
17 *410:8 *5233:D 4.7803e-05
18 *410:8 *5663:CLK 0
19 *410:8 *621:14 0
20 *410:12 *5269:A 0
21 *410:12 *5271:A 0
22 *410:12 *5273:C 0.000341206
23 *410:12 *5274:B 0
24 *410:12 *412:70 0
25 *410:12 *421:41 0.000872508
26 *410:12 *1015:35 0
27 *410:12 *1110:8 0
28 *410:20 *5274:B 0
29 *410:20 *605:233 0
30 *410:20 *605:235 0
31 *410:20 *705:39 0
32 *410:20 *1106:29 0
33 *410:39 *5254:C 0.000111668
34 *410:39 *5261:D 0
35 *410:39 *421:21 0.00024298
36 *5233:B *410:8 0
37 *5233:C *410:8 0
38 *5254:A *410:39 0.000111596
39 *5270:A1 *410:12 0
40 *260:8 *410:20 0
41 *348:63 *410:12 0
42 *385:26 *410:20 0.000274189
43 *388:24 *5261:C 0.000242154
44 *388:24 *410:39 0
45 *388:36 *5252:C 4.78356e-05
46 *389:22 *410:12 0.000342036
47 *389:35 *410:12 0.00101084
48 *398:12 *410:8 0.00017729
*RES
1 *5239:Y *410:8 45.9431 
2 *410:8 *410:12 32.463 
3 *410:12 *410:20 48.1164 
4 *410:20 *5261:C 21.9673 
5 *410:20 *410:39 2.70375 
6 *410:39 *5252:C 22.9355 
7 *410:39 *5254:B 20 
8 *410:12 *5264:B 20 
*END

*D_NET *411 0.000528411
*CONN
*I *5241:B I *D sg13g2_nor2_1
*I *5240:Y O *D sg13g2_nand4_1
*CAP
1 *5241:B 0.00019732
2 *5240:Y 0.00019732
3 *5241:B *1100:23 0
4 *5241:A *5241:B 0.000133772
*RES
1 *5240:Y *5241:B 41.9982 
*END

*D_NET *412 0.00816795
*CONN
*I *5242:D I *D sg13g2_and4_1
*I *5268:B I *D sg13g2_nand4_1
*I *5273:B I *D sg13g2_nand4_1
*I *5256:C I *D sg13g2_and4_1
*I *5258:C I *D sg13g2_nand4_1
*I *5244:D I *D sg13g2_nand4_1
*I *5248:C I *D sg13g2_nand4_1
*I *5241:Y O *D sg13g2_nor2_1
*CAP
1 *5242:D 3.19151e-05
2 *5268:B 4.59073e-05
3 *5273:B 0
4 *5256:C 0
5 *5258:C 0
6 *5244:D 0
7 *5248:C 0.000311215
8 *5241:Y 0.000355946
9 *412:70 0.000115744
10 *412:60 0.000740208
11 *412:49 0.000793859
12 *412:38 0.00059918
13 *412:31 0.0004306
14 *412:14 0.000647926
15 *412:8 0.000677851
16 *5242:D *1102:36 0
17 *5248:C *5244:C 0
18 *5248:C *5248:B 0
19 *5248:C *5248:D 4.79124e-05
20 *5248:C *709:62 0
21 *5248:C *1102:40 0
22 *5268:B *421:47 3.23417e-05
23 *412:8 *709:62 0
24 *412:8 *1002:69 0.00103228
25 *412:14 *709:62 0
26 *412:14 *1002:34 0
27 *412:14 *1002:58 0
28 *412:31 *5244:C 1.54556e-05
29 *412:31 *1102:36 8.02105e-05
30 *412:38 *5244:C 6.46888e-05
31 *412:38 *5258:D 1.54008e-05
32 *412:38 *1102:36 0.000111988
33 *412:49 *5256:B 1.54556e-05
34 *412:49 *5258:B 0.000144052
35 *412:49 *5258:D 0.000316513
36 *412:60 *5256:B 8.03692e-05
37 *412:60 *421:47 0.000825022
38 *412:60 *621:10 0
39 *412:70 *5273:C 0.000289003
40 *412:70 *5274:B 0.000346904
41 *5248:A *5248:C 0
42 *5260:A1 *412:38 0
43 *367:56 *5248:C 0
44 *367:56 *412:14 0
45 *367:56 *412:38 0
46 *367:56 *412:49 0
47 *409:14 *412:8 0
48 *410:12 *412:70 0
*RES
1 *5241:Y *412:8 45.047 
2 *412:8 *412:14 3.2445 
3 *412:14 *5248:C 43.4608 
4 *412:14 *412:31 20.5356 
5 *412:31 *5244:D 20 
6 *412:31 *412:38 3.9964 
7 *412:38 *5258:C 20 
8 *412:38 *412:49 2.5338 
9 *412:49 *5256:C 20 
10 *412:49 *412:60 6.6435 
11 *412:60 *412:70 42.06 
12 *412:70 *5273:B 20 
13 *412:60 *5268:B 20.5356 
14 *412:8 *5242:D 40.3193 
*END

*D_NET *413 0.00485638
*CONN
*I *5243:B I *D sg13g2_nor2_1
*I *5249:B2 I *D sg13g2_a221oi_1
*I *5251:B2 I *D sg13g2_a221oi_1
*I *5242:X O *D sg13g2_and4_1
*CAP
1 *5243:B 0.000297258
2 *5249:B2 0
3 *5251:B2 0.000374566
4 *5242:X 0.000454525
5 *413:14 0.000964041
6 *413:10 0.00134126
7 *5243:B *5246:A 0
8 *5243:B *5246:B 3.75762e-05
9 *5243:B *1102:21 0
10 *5251:B2 *5249:C1 0
11 *5251:B2 *5250:C 0
12 *5251:B2 *419:10 0
13 *5251:B2 *1005:78 4.77425e-05
14 *5251:B2 *1102:59 4.77425e-05
15 *5251:B2 *1103:29 0.000288502
16 *413:10 *416:8 0
17 *413:10 *1015:50 0
18 *413:10 *1015:88 0
19 *413:10 *1102:21 0
20 *413:10 *1102:36 0
21 *413:10 *1103:68 0
22 *413:14 *415:12 0.00100317
23 *413:14 *416:8 0
24 *413:14 *417:8 0
25 *413:14 *418:10 0
26 *413:14 *629:10 0
27 *413:14 *1015:88 0
28 *413:14 *1102:27 0
29 *5142:A2 *5251:B2 0
30 *5249:A1 *5251:B2 0
31 *5249:A1 *413:14 0
*RES
1 *5242:X *413:10 44.4702 
2 *413:10 *413:14 7.8383 
3 *413:14 *5251:B2 44.1612 
4 *413:14 *5249:B2 40 
5 *413:10 *5243:B 42.8325 
*END

*D_NET *414 0.000344475
*CONN
*I *5246:B I *D sg13g2_nor2_1
*I *5243:Y O *D sg13g2_nor2_1
*CAP
1 *5246:B 0.000153449
2 *5243:Y 0.000153449
3 *5246:B *704:27 0
4 *5243:B *5246:B 3.75762e-05
*RES
1 *5243:Y *5246:B 42.0085 
*END

*D_NET *415 0.0025764
*CONN
*I *5245:A I *D sg13g2_nand3_1
*I *5249:A2 I *D sg13g2_a221oi_1
*I *5244:Y O *D sg13g2_nand4_1
*CAP
1 *5245:A 0
2 *5249:A2 0
3 *5244:Y 0.000315637
4 *415:12 0.000301393
5 *415:6 0.000617031
6 *415:6 *418:10 0
7 *415:6 *704:23 0.000323773
8 *415:6 *704:27 1.54008e-05
9 *415:6 *1102:36 0
10 *415:12 *1103:12 0
11 *415:12 *1103:18 0
12 *413:14 *415:12 0.00100317
*RES
1 *5244:Y *415:6 23.3475 
2 *415:6 *415:12 44.6479 
3 *415:12 *5249:A2 20 
4 *415:6 *5245:A 20 
*END

*D_NET *416 0.00085035
*CONN
*I *5246:A I *D sg13g2_nor2_1
*I *5245:Y O *D sg13g2_nand3_1
*CAP
1 *5246:A 0.000177921
2 *5245:Y 0.000247254
3 *416:8 0.000425175
4 *5246:A *1015:56 0
5 *416:8 *1103:12 0
6 *416:8 *1103:68 0
7 *5243:B *5246:A 0
8 *413:10 *416:8 0
9 *413:14 *416:8 0
*RES
1 *5245:Y *416:8 42.0806 
2 *416:8 *5246:A 41.6171 
*END

*D_NET *417 0.00137477
*CONN
*I *5248:D I *D sg13g2_nand4_1
*I *5249:B1 I *D sg13g2_a221oi_1
*I *5247:X O *D sg13g2_and2_1
*CAP
1 *5248:D 0.000186052
2 *5249:B1 0.000139935
3 *5247:X 0.000443347
4 *417:8 0.00039723
5 *5248:D *418:10 0.000144866
6 *5249:B1 *5249:C1 0
7 *5249:B1 *629:52 0
8 *417:8 *418:10 0
9 *417:8 *1102:27 0
10 *5248:C *5248:D 4.79124e-05
11 *5249:A1 *5249:B1 1.54282e-05
12 *413:14 *417:8 0
*RES
1 *5247:X *417:8 42.575 
2 *417:8 *5249:B1 41.4008 
3 *5247:X *5248:D 42.2145 
*END

*D_NET *418 0.00380835
*CONN
*I *5251:A2 I *D sg13g2_a221oi_1
*I *5248:Y O *D sg13g2_nand4_1
*CAP
1 *5251:A2 4.34034e-05
2 *5248:Y 0.00049635
3 *418:10 0.000539754
4 *418:10 *629:10 0.000746592
5 *418:10 *704:23 0.00154788
6 *418:10 *1102:27 0.000289504
7 *5248:D *418:10 0.000144866
8 *413:14 *418:10 0
9 *415:6 *418:10 0
10 *417:8 *418:10 0
*RES
1 *5248:Y *418:10 48.585 
2 *418:10 *5251:A2 40.2807 
*END

*D_NET *419 0.00391037
*CONN
*I *5252:D I *D sg13g2_nand4_1
*I *5251:B1 I *D sg13g2_a221oi_1
*I *5250:X O *D sg13g2_and3_1
*CAP
1 *5252:D 0.000303484
2 *5251:B1 0
3 *5250:X 0.00022124
4 *419:27 0.000910692
5 *419:10 0.000828448
6 *5252:D *5252:A 0
7 *5252:D *5257:A2 0
8 *5252:D *1104:35 0.000533952
9 *419:10 *5253:C 0.000168094
10 *419:10 *1102:59 4.77425e-05
11 *419:27 *5017:A 0
12 *419:27 *5253:C 0
13 *419:27 *5253:D 0.00023547
14 *419:27 *1102:59 0.000404082
15 *419:27 *1104:24 0
16 *419:27 *1104:35 0
17 *5251:B2 *419:10 0
18 *5251:A1 *419:10 1.54008e-05
19 *5251:A1 *419:27 0.000226315
20 *5252:C *5252:D 1.54556e-05
21 *5257:A1 *5252:D 0
22 *5257:A1 *419:27 0
23 *388:36 *5252:D 0
*RES
1 *5250:X *419:10 22.5647 
2 *419:10 *5251:B1 20 
3 *419:10 *419:27 46.9628 
4 *419:27 *5252:D 23.5638 
*END

*D_NET *420 0.000423358
*CONN
*I *5257:A2 I *D sg13g2_a21oi_1
*I *5252:Y O *D sg13g2_nand4_1
*CAP
1 *5257:A2 0.000203951
2 *5252:Y 0.000203951
3 *5257:A2 *5252:A 0
4 *5257:A2 *5257:B1 0
5 *5252:D *5257:A2 0
6 *5257:A1 *5257:A2 1.54556e-05
*RES
1 *5252:Y *5257:A2 42.2454 
*END

*D_NET *421 0.0117066
*CONN
*I *5273:C I *D sg13g2_nand4_1
*I *5268:C I *D sg13g2_nand4_1
*I *5256:D I *D sg13g2_and4_1
*I *5258:D I *D sg13g2_nand4_1
*I *5264:C I *D sg13g2_nand4_1
*I *5261:D I *D sg13g2_nand4_1
*I *5254:C I *D sg13g2_nand4_1
*I *5253:X O *D sg13g2_and4_1
*CAP
1 *5273:C 6.7659e-05
2 *5268:C 0
3 *5256:D 0
4 *5258:D 0.00022815
5 *5264:C 0
6 *5261:D 2.77263e-05
7 *5254:C 9.27026e-05
8 *5253:X 0.00076919
9 *421:47 0.000877736
10 *421:43 0.000649586
11 *421:41 0.000403208
12 *421:32 0.000704459
13 *421:21 0.000686745
14 *421:12 0.000382811
15 *421:10 0.00076919
16 *5254:C *5254:D 1.54556e-05
17 *5254:C *1031:12 7.93152e-05
18 *5254:C *1104:35 0
19 *5258:D *5260:B1 0
20 *5258:D *424:10 0
21 *421:10 *620:8 4.69735e-05
22 *421:10 *620:14 0.000287672
23 *421:10 *620:25 7.51285e-05
24 *421:10 *856:10 0
25 *421:10 *1104:35 0
26 *421:10 *1106:8 0
27 *421:21 *1031:12 0.000371186
28 *421:21 *1104:35 0
29 *421:32 *656:18 0
30 *421:32 *656:22 0.000821415
31 *421:32 *657:41 0.00108289
32 *421:41 *5274:B 0
33 *421:41 *657:41 0.000157445
34 *421:47 *5259:B 0
35 *421:47 *5268:D 1.54008e-05
36 *5252:C *5254:C 4.78685e-05
37 *5259:A *5258:D 0
38 *5260:A1 *5258:D 0
39 *5261:C *5261:D 0
40 *5261:C *421:21 0
41 *5268:B *421:47 3.23417e-05
42 *260:8 *421:10 0
43 *410:12 *5273:C 0.000341206
44 *410:12 *421:41 0.000872508
45 *410:39 *5254:C 0.000111668
46 *410:39 *5261:D 0
47 *410:39 *421:21 0.00024298
48 *412:38 *5258:D 1.54008e-05
49 *412:49 *5258:D 0.000316513
50 *412:60 *421:47 0.000825022
51 *412:70 *5273:C 0.000289003
*RES
1 *5253:X *421:10 45.6475 
2 *421:10 *421:12 20 
3 *421:12 *5254:C 20.9682 
4 *421:12 *421:21 3.1312 
5 *421:21 *5261:D 20.3502 
6 *421:21 *421:32 25.7886 
7 *421:32 *5264:C 40 
8 *421:32 *421:41 4.3054 
9 *421:41 *421:43 20 
10 *421:43 *421:47 6.7568 
11 *421:47 *5258:D 22.5338 
12 *421:47 *5256:D 20 
13 *421:43 *5268:C 20 
14 *421:41 *5273:C 41.5862 
*END

*D_NET *422 0.000607912
*CONN
*I *5255:A I *D sg13g2_nand2_1
*I *5254:Y O *D sg13g2_nand4_1
*CAP
1 *5255:A 3.18702e-05
2 *5254:Y 0.0001297
3 *422:10 0.000161571
4 *5255:A *1105:37 0
5 *422:10 *620:14 0.000284771
6 *422:10 *1012:67 0
7 *422:10 *1031:12 0
8 *5255:B *5255:A 0
*RES
1 *5254:Y *422:10 41.6583 
2 *422:10 *5255:A 40.3193 
*END

*D_NET *423 0.000737983
*CONN
*I *5257:B1 I *D sg13g2_a21oi_1
*I *5255:Y O *D sg13g2_nand2_1
*CAP
1 *5257:B1 0.000368992
2 *5255:Y 0.000368992
3 *5257:B1 *5252:A 0
4 *5257:B1 *1105:37 0
5 *5255:B *5257:B1 0
6 *5257:A1 *5257:B1 0
7 *5257:A2 *5257:B1 0
8 *388:36 *5257:B1 0
*RES
1 *5255:Y *5257:B1 43.9449 
*END

*D_NET *424 0.000860535
*CONN
*I *5260:B2 I *D sg13g2_a221oi_1
*I *5256:X O *D sg13g2_and4_1
*CAP
1 *5260:B2 4.44606e-05
2 *5256:X 0.000159109
3 *424:10 0.00020357
4 *5260:B2 *5260:C1 4.78356e-05
5 *424:10 *5260:B1 0.000144058
6 *424:10 *1005:49 0.000181192
7 *5258:D *424:10 0
8 *5259:A *5260:B2 8.03089e-05
9 *5657:D *5260:B2 0
*RES
1 *5256:X *424:10 41.8128 
2 *424:10 *5260:B2 40.5356 
*END

*D_NET *425 0.00065495
*CONN
*I *5260:A2 I *D sg13g2_a221oi_1
*I *5258:Y O *D sg13g2_nand4_1
*CAP
1 *5260:A2 0
2 *5258:Y 0.000202126
3 *425:10 0.000202126
4 *425:10 *1002:32 8.00842e-05
5 *425:10 *1005:49 0
6 *5258:A *425:10 4.77425e-05
7 *367:46 *425:10 7.51285e-05
8 *367:56 *425:10 4.77425e-05
*RES
1 *5258:Y *425:10 42.2171 
2 *425:10 *5260:A2 40 
*END

*D_NET *426 0.000670128
*CONN
*I *5260:B1 I *D sg13g2_a221oi_1
*I *5259:Y O *D sg13g2_nor2_1
*CAP
1 *5260:B1 0.000183214
2 *5259:Y 0.000183214
3 *5258:D *5260:B1 0
4 *5259:A *5260:B1 0.000144187
5 *5260:A1 *5260:B1 1.54556e-05
6 *424:10 *5260:B1 0.000144058
*RES
1 *5259:Y *5260:B1 41.9982 
*END

*D_NET *427 0.00142124
*CONN
*I *5266:A2 I *D sg13g2_a21oi_1
*I *5261:Y O *D sg13g2_nand4_1
*CAP
1 *5266:A2 0.000198532
2 *5261:Y 0.000211707
3 *427:10 0.000410239
4 *5266:A2 *5147:A 4.77425e-05
5 *5266:A2 *5147:B 0
6 *5266:A2 *1105:37 0
7 *427:10 *656:22 0.000392853
8 *427:10 *705:39 0
9 *5255:B *5266:A2 0
10 *5266:A1 *5266:A2 8.00842e-05
11 *388:24 *427:10 8.00842e-05
*RES
1 *5261:Y *427:10 42.369 
2 *427:10 *5266:A2 41.8334 
*END

*D_NET *428 0.000298943
*CONN
*I *5264:D I *D sg13g2_nand4_1
*I *5262:X O *D sg13g2_and3_1
*CAP
1 *5264:D 0.000149472
2 *5262:X 0.000149472
3 *5264:D *430:12 0
4 *5264:D *656:8 0
*RES
1 *5262:X *5264:D 41.4111 
*END

*D_NET *429 0.00234968
*CONN
*I *5272:C I *D sg13g2_nor3_1
*I *5267:B I *D sg13g2_nor2_1
*I *5263:Y O *D sg13g2_nand3_1
*CAP
1 *5272:C 0.000164746
2 *5267:B 9.64979e-05
3 *5263:Y 0.00035803
4 *429:8 0.000619274
5 *5267:B *5259:B 0.000112426
6 *5272:C *657:33 0.000265575
7 *429:8 *430:35 0
8 *429:8 *657:33 0.000605305
9 *280:16 *5272:C 0
10 *280:16 *429:8 0
11 *389:18 *5267:B 4.77425e-05
12 *389:18 *5272:C 8.00842e-05
*RES
1 *5263:Y *429:8 44.3054 
2 *429:8 *5267:B 41.1021 
3 *429:8 *5272:C 42.0909 
*END

*D_NET *430 0.0050826
*CONN
*I *5270:A2 I *D sg13g2_a21oi_1
*I *5265:A I *D sg13g2_nand2_1
*I *5264:Y O *D sg13g2_nand4_1
*CAP
1 *5270:A2 0
2 *5265:A 0
3 *5264:Y 0.000343712
4 *430:35 0.000436978
5 *430:20 0.000286258
6 *430:12 0.00106695
7 *430:12 *656:18 0
8 *430:12 *1106:29 4.77425e-05
9 *430:12 *1106:38 0.000177203
10 *430:20 *5147:B 0.000288173
11 *430:20 *5210:A1 0
12 *430:20 *5263:C 7.30101e-05
13 *430:20 *1106:40 0.000446207
14 *430:20 *1106:42 0.000394566
15 *430:35 *5047:B 0
16 *430:35 *5263:B 0.000177981
17 *430:35 *657:33 0.000126358
18 *5264:D *430:12 0
19 *280:16 *430:35 0
20 *348:63 *430:20 0.00113735
21 *348:63 *430:35 0
22 *388:22 *430:20 8.01118e-05
23 *429:8 *430:35 0
*RES
1 *5264:Y *430:12 23.6256 
2 *430:12 *430:20 45.8298 
3 *430:20 *5265:A 20 
4 *430:12 *430:35 43.8934 
5 *430:35 *5270:A2 20 
*END

*D_NET *431 0.000638452
*CONN
*I *5266:B1 I *D sg13g2_a21oi_1
*I *5265:Y O *D sg13g2_nand2_1
*CAP
1 *5266:B1 0
2 *5265:Y 0.000217582
3 *431:8 0.000217582
4 *431:8 *1107:19 0
5 *5266:A1 *431:8 0
6 *146:8 *431:8 0
7 *348:57 *431:8 0.00012816
8 *348:63 *431:8 7.51285e-05
*RES
1 *5265:Y *431:8 42.3278 
2 *431:8 *5266:B1 40 
*END

*D_NET *432 0.000341174
*CONN
*I *5268:D I *D sg13g2_nand4_1
*I *5267:Y O *D sg13g2_nor2_1
*CAP
1 *5268:D 0.000162887
2 *5267:Y 0.000162887
3 *5268:D *5259:B 0
4 *389:18 *5268:D 0
5 *421:47 *5268:D 1.54008e-05
*RES
1 *5267:Y *5268:D 41.4008 
*END

*D_NET *433 0.00235908
*CONN
*I *5275:A1 I *D sg13g2_a21oi_1
*I *5269:A I *D sg13g2_nand2_1
*I *5268:Y O *D sg13g2_nand4_1
*CAP
1 *5275:A1 0.0003642
2 *5269:A 0.000315026
3 *5268:Y 5.44809e-05
4 *433:8 0.000733707
5 *5269:A *5259:B 0.000144521
6 *5275:A1 *5275:A2 0.000177466
7 *5275:A1 *5275:B1 0
8 *5275:A1 *657:33 0
9 *433:8 *5273:D 7.97045e-05
10 *5270:A1 *5269:A 0
11 *5663:D *5275:A1 4.7885e-05
12 *249:10 *5275:A1 0
13 *389:18 *433:8 2.4669e-05
14 *389:22 *5275:A1 7.57164e-05
15 *389:35 *5275:A1 0.000341707
16 *410:12 *5269:A 0
*RES
1 *5268:Y *433:8 40.5356 
2 *433:8 *5269:A 43.0488 
3 *433:8 *5275:A1 44.429 
*END

*D_NET *434 0.000316679
*CONN
*I *5270:B1 I *D sg13g2_a21oi_1
*I *5269:Y O *D sg13g2_nand2_1
*CAP
1 *5270:B1 0.000118297
2 *5269:Y 0.000118297
3 *5661:D *5270:B1 8.00842e-05
*RES
1 *5269:Y *5270:B1 41.3802 
*END

*D_NET *435 0.000664165
*CONN
*I *5275:A2 I *D sg13g2_a21oi_1
*I *5271:Y O *D sg13g2_nand2_1
*CAP
1 *5275:A2 0.000214845
2 *5271:Y 0.000214845
3 *5275:A2 *5271:B 5.70106e-05
4 *5275:A2 *1110:19 0
5 *5275:A1 *5275:A2 0.000177466
6 *5663:D *5275:A2 0
*RES
1 *5271:Y *5275:A2 42.5647 
*END

*D_NET *436 0.000416997
*CONN
*I *5273:D I *D sg13g2_nand4_1
*I *5272:Y O *D sg13g2_nor3_1
*CAP
1 *5273:D 0.000168646
2 *5272:Y 0.000168646
3 *5273:D *5275:B1 0
4 *389:18 *5273:D 0
5 *433:8 *5273:D 7.97045e-05
*RES
1 *5272:Y *5273:D 41.751 
*END

*D_NET *437 0.000250963
*CONN
*I *5274:A I *D sg13g2_nand2_1
*I *5273:Y O *D sg13g2_nand4_1
*CAP
1 *5274:A 0.00010161
2 *5273:Y 0.00010161
3 *5274:A *5274:B 0
4 *5274:A *5275:B1 4.77425e-05
*RES
1 *5273:Y *5274:A 41.133 
*END

*D_NET *438 0.000424433
*CONN
*I *5275:B1 I *D sg13g2_a21oi_1
*I *5274:Y O *D sg13g2_nand2_1
*CAP
1 *5275:B1 0.000164403
2 *5274:Y 0.000164403
3 *5273:D *5275:B1 0
4 *5274:A *5275:B1 4.77425e-05
5 *5275:A1 *5275:B1 0
6 *5663:D *5275:B1 4.7885e-05
*RES
1 *5274:Y *5275:B1 41.6171 
*END

*D_NET *439 0.00027654
*CONN
*I *5277:B1 I *D sg13g2_a21oi_1
*I *5276:Y O *D sg13g2_nor2_1
*CAP
1 *5277:B1 9.81484e-05
2 *5276:Y 9.81484e-05
3 *5277:B1 *5283:A2 8.02434e-05
4 *5277:B1 *1014:16 0
*RES
1 *5276:Y *5277:B1 41.133 
*END

*D_NET *440 0.000648872
*CONN
*I *5283:A2 I *D sg13g2_a22oi_1
*I *5277:Y O *D sg13g2_a21oi_1
*CAP
1 *5283:A2 0.000260443
2 *5277:Y 0.000260443
3 *5283:A2 *5277:A1 4.77425e-05
4 *5283:A2 *5285:A 0
5 *5283:A2 *445:10 0
6 *5283:A2 *672:35 0
7 *5283:A2 *1014:16 0
8 *5277:B1 *5283:A2 8.02434e-05
9 *5283:B2 *5283:A2 0
*RES
1 *5277:Y *5283:A2 42.8325 
*END

*D_NET *441 0.000618515
*CONN
*I *5281:A2 I *D sg13g2_a21oi_1
*I *5278:Y O *D sg13g2_o21ai_1
*CAP
1 *5281:A2 0.000243376
2 *5278:Y 0.000243376
3 *5281:A2 *5278:B1 3.14415e-05
4 *5281:A2 *5279:B 0
5 *5281:A2 *5281:A1 1.54556e-05
6 *5281:A2 *5281:B1 0
7 *5281:A2 *672:117 0
8 *5281:A2 *675:8 0
9 *5281:A2 *675:14 0
10 *5281:A2 *1020:68 8.48662e-05
11 *5665:D *5281:A2 0
12 *351:8 *5281:A2 0
*RES
1 *5278:Y *5281:A2 42.7965 
*END

*D_NET *442 0.000634018
*CONN
*I *5280:A2 I *D sg13g2_o21ai_1
*I *5279:Y O *D sg13g2_nor3_1
*CAP
1 *5280:A2 4.22549e-05
2 *5279:Y 9.26132e-05
3 *442:8 0.000134868
4 *5280:A2 *5280:B1 7.7492e-05
5 *5280:A2 *5280:A1 8.03692e-05
6 *442:8 *1014:16 7.6026e-05
7 *351:16 *442:8 0.000130394
*RES
1 *5279:Y *442:8 41.0918 
2 *442:8 *5280:A2 40.5356 
*END

*D_NET *443 0.00192664
*CONN
*I *5281:B1 I *D sg13g2_a21oi_1
*I *5280:Y O *D sg13g2_o21ai_1
*CAP
1 *5281:B1 0.000351965
2 *5280:Y 0.000287967
3 *443:8 0.000639932
4 *5281:B1 *5281:A1 0.000404465
5 *5281:B1 *1020:68 0
6 *443:8 *5279:C 0
7 *443:8 *672:117 0
8 *443:8 *675:14 0
9 *5281:A2 *5281:B1 0
10 *5665:D *5281:B1 0.000242313
11 *351:16 *443:8 0
*RES
1 *5280:Y *443:8 42.3278 
2 *443:8 *5281:B1 43.914 
*END

*D_NET *444 0.000774194
*CONN
*I *5283:B1 I *D sg13g2_a22oi_1
*I *5282:Y O *D sg13g2_a21oi_1
*CAP
1 *5283:B1 0.000111871
2 *5282:Y 0.000131574
3 *444:10 0.000243445
4 *5283:B1 *5283:A1 8.93797e-05
5 *5283:B1 *445:10 4.77534e-05
6 *444:10 *638:10 0
7 *5283:B2 *5283:B1 7.04641e-05
8 *5283:B2 *444:10 7.9706e-05
*RES
1 *5282:Y *444:10 41.133 
2 *444:10 *5283:B1 41.1845 
*END

*D_NET *445 0.000562847
*CONN
*I *5285:B I *D sg13g2_nor2_1
*I *5283:Y O *D sg13g2_a22oi_1
*CAP
1 *5285:B 0
2 *5283:Y 0.000116515
3 *445:10 0.000116515
4 *445:10 *5028:A 0
5 *445:10 *672:99 0
6 *5283:B1 *445:10 4.77534e-05
7 *5283:B2 *445:10 4.77534e-05
8 *5283:A2 *445:10 0
9 *150:8 *445:10 0.000234311
*RES
1 *5283:Y *445:10 41.6274 
2 *445:10 *5285:B 40 
*END

*D_NET *446 0.00123862
*CONN
*I *5285:A I *D sg13g2_nor2_1
*I *5284:Y O *D sg13g2_o21ai_1
*CAP
1 *5285:A 0.000131875
2 *5284:Y 0.000159088
3 *446:8 0.000290963
4 *5285:A *638:10 0
5 *5285:A *1014:16 0.000209835
6 *446:8 *638:16 0
7 *446:8 *638:47 0
8 *446:8 *715:97 0.000446855
9 *5283:B2 *5285:A 0
10 *5283:A2 *5285:A 0
*RES
1 *5284:Y *446:8 42.0806 
2 *446:8 *5285:A 41.4008 
*END

*D_NET *447 0.00082329
*CONN
*I *5288:C I *D sg13g2_nor3_1
*I *5286:Y O *D sg13g2_nor2_1
*CAP
1 *5288:C 0.000179149
2 *5286:Y 8.01892e-05
3 *447:8 0.000259338
4 *5288:C *5288:B 0.000304613
*RES
1 *5286:Y *447:8 40.8446 
2 *447:8 *5288:C 42.0497 
*END

*D_NET *448 0.000377056
*CONN
*I *5288:A I *D sg13g2_nor3_1
*I *5287:Y O *D sg13g2_a21oi_1
*CAP
1 *5288:A 5.37213e-05
2 *5287:Y 9.48443e-05
3 *448:8 0.000148566
4 *5288:A *1023:26 7.99242e-05
5 *448:8 *1023:34 0
6 *263:18 *448:8 0
*RES
1 *5287:Y *448:8 41.0918 
2 *448:8 *5288:A 40.5356 
*END

*D_NET *449 0.000992964
*CONN
*I *5291:C I *D sg13g2_nor3_1
*I *5289:Y O *D sg13g2_nor2_1
*CAP
1 *5291:C 0.000360924
2 *5289:Y 0.000360924
3 *5291:C *5290:A2 0.000143671
4 *5291:C *5291:A 4.75265e-05
5 *5291:C *1065:14 0
6 *5671:D *5291:C 7.99179e-05
*RES
1 *5289:Y *5291:C 44.0685 
*END

*D_NET *450 0.000413923
*CONN
*I *5291:A I *D sg13g2_nor3_1
*I *5290:Y O *D sg13g2_a21oi_1
*CAP
1 *5291:A 2.82494e-05
2 *5290:Y 0.000147248
3 *450:8 0.000175498
4 *5291:A *5290:A2 1.54008e-05
5 *5291:C *5291:A 4.75265e-05
*RES
1 *5290:Y *450:8 41.0918 
2 *450:8 *5291:A 40.3193 
*END

*D_NET *451 0.000752236
*CONN
*I *5294:C I *D sg13g2_nor3_1
*I *5292:Y O *D sg13g2_nor2_1
*CAP
1 *5294:C 0.000376118
2 *5292:Y 0.000376118
3 *5294:C *5292:B 0
4 *6016:A *5294:C 0
*RES
1 *5292:Y *5294:C 43.914 
*END

*D_NET *452 0.000436201
*CONN
*I *5294:A I *D sg13g2_nor3_1
*I *5293:Y O *D sg13g2_a21oi_1
*CAP
1 *5294:A 2.91479e-05
2 *5293:Y 0.000165081
3 *452:8 0.000194229
4 *5294:A *5292:B 4.77425e-05
5 *452:8 *687:56 0
6 *6016:A *5294:A 0
*RES
1 *5293:Y *452:8 41.8334 
2 *452:8 *5294:A 40.3193 
*END

*D_NET *453 0.000617775
*CONN
*I *5297:C I *D sg13g2_nor3_1
*I *5295:Y O *D sg13g2_nor2_1
*CAP
1 *5297:C 0.000187794
2 *5295:Y 0.000187794
3 *5297:C *696:31 0
4 *5675:D *5297:C 0
5 *6016:A *5297:C 0.000242187
*RES
1 *5295:Y *5297:C 41.9673 
*END

*D_NET *454 0.00114189
*CONN
*I *5297:A I *D sg13g2_nor3_1
*I *5296:Y O *D sg13g2_a21oi_1
*CAP
1 *5297:A 2.58588e-05
2 *5296:Y 0.000199002
3 *454:10 0.000224861
4 *5297:A *696:31 4.77866e-05
5 *5297:A *1019:87 4.77425e-05
6 *454:10 *5296:A1 4.78521e-05
7 *454:10 *5296:B1 4.77425e-05
8 *454:10 *5845:CLK 0.000501044
9 *454:10 *685:10 0
*RES
1 *5296:Y *454:10 42.8634 
2 *454:10 *5297:A 40.3193 
*END

*D_NET *455 0.000204103
*CONN
*I *5300:C I *D sg13g2_nor3_1
*I *5298:Y O *D sg13g2_nor2_1
*CAP
1 *5300:C 0.000102051
2 *5298:Y 0.000102051
3 *5300:C *5300:A 0
4 *5300:C *1037:8 0
5 *5677:D *5300:C 0
*RES
1 *5298:Y *5300:C 41.133 
*END

*D_NET *456 0.000523714
*CONN
*I *5300:A I *D sg13g2_nor3_1
*I *5299:Y O *D sg13g2_a21oi_1
*CAP
1 *5300:A 5.05093e-05
2 *5299:Y 0.00020362
3 *456:8 0.000254129
4 *5300:A *696:33 0
5 *456:8 *5677:CLK 0
6 *456:8 *696:56 0
7 *456:8 *934:25 0
8 *5300:C *5300:A 0
9 *5677:D *5300:A 1.54556e-05
*RES
1 *5299:Y *456:8 42.0806 
2 *456:8 *5300:A 40.5356 
*END

*D_NET *457 0.000427942
*CONN
*I *5303:C I *D sg13g2_nor3_1
*I *5301:Y O *D sg13g2_nor2_1
*CAP
1 *5303:C 0.000206243
2 *5301:Y 0.000206243
3 *5303:C *5301:B 0
4 *5303:C *5303:B 1.54556e-05
5 *5303:C *695:10 0
6 *5679:D *5303:C 0
*RES
1 *5301:Y *5303:C 41.9982 
*END

*D_NET *458 0.001784
*CONN
*I *5303:A I *D sg13g2_nor3_1
*I *5302:Y O *D sg13g2_a21oi_1
*CAP
1 *5303:A 5.36406e-05
2 *5302:Y 0.000696162
3 *458:10 0.000749803
4 *5303:A *5301:B 0.000139561
5 *5303:A *1019:18 0
6 *458:10 *606:12 0
7 *458:10 *669:97 0
8 *458:10 *671:12 0.000144833
9 *458:10 *679:35 0
10 *458:10 *1028:8 0
*RES
1 *5302:Y *458:10 46.4916 
2 *458:10 *5303:A 40.739 
*END

*D_NET *459 0.000830873
*CONN
*I *5306:C I *D sg13g2_nor3_1
*I *5304:Y O *D sg13g2_nor2_1
*CAP
1 *5306:C 3.43418e-05
2 *5304:Y 0.000138754
3 *459:8 0.000173096
4 *5306:C *5306:A 0
5 *5306:C *694:55 1.54008e-05
6 *459:8 *5533:A 0.00012816
7 *459:8 *694:49 0.00034112
*RES
1 *5304:Y *459:8 42.0806 
2 *459:8 *5306:C 40.3193 
*END

*D_NET *460 0.000914043
*CONN
*I *5306:A I *D sg13g2_nor3_1
*I *5305:Y O *D sg13g2_a21oi_1
*CAP
1 *5306:A 0.000449294
2 *5305:Y 0.000449294
3 *5306:A *694:45 0
4 *5306:A *694:55 1.54556e-05
5 *5306:A *1017:6 0
6 *5306:C *5306:A 0
7 *5681:D *5306:A 0
*RES
1 *5305:Y *5306:A 44.4255 
*END

*D_NET *461 0.000362524
*CONN
*I *5309:C I *D sg13g2_nor3_1
*I *5307:Y O *D sg13g2_nor2_1
*CAP
1 *5309:C 0.000181262
2 *5307:Y 0.000181262
3 *5309:C *695:18 0
4 *5683:D *5309:C 0
*RES
1 *5307:Y *5309:C 41.9982 
*END

*D_NET *462 0.00146764
*CONN
*I *5309:A I *D sg13g2_nor3_1
*I *5308:Y O *D sg13g2_a21oi_1
*CAP
1 *5309:A 0
2 *5308:Y 0.000403082
3 *462:12 0.000403082
4 *462:12 *5308:A1 0
5 *462:12 *5308:B1 0
6 *462:12 *5309:B 0.000501633
7 *462:12 *5683:RESET_B 0
8 *462:12 *695:31 0.000159839
9 *462:12 *1017:62 0
*RES
1 *5308:Y *462:12 45.2839 
2 *462:12 *5309:A 40 
*END

*D_NET *463 0.000442671
*CONN
*I *5312:C I *D sg13g2_nor3_1
*I *5310:Y O *D sg13g2_nor2_1
*CAP
1 *5312:C 0.000214405
2 *5310:Y 0.000214405
3 *5312:C *5312:B 1.38607e-05
4 *5312:C *5685:D 0
5 *5312:C *663:34 0
*RES
1 *5310:Y *5312:C 41.9673 
*END

*D_NET *464 0.00197857
*CONN
*I *5312:A I *D sg13g2_nor3_1
*I *5311:Y O *D sg13g2_a21oi_1
*CAP
1 *5312:A 0
2 *5311:Y 0.0002538
3 *464:12 0.0002538
4 *464:12 *5312:B 7.57164e-05
5 *464:12 *663:51 0.000552918
6 *464:12 *673:10 0
7 *464:12 *701:41 0.000129077
8 *464:12 *1023:114 0.000713261
*RES
1 *5311:Y *464:12 44.4805 
2 *464:12 *5312:A 40 
*END

*D_NET *465 0.00136013
*CONN
*I *5315:C I *D sg13g2_nor3_1
*I *5313:Y O *D sg13g2_nor2_1
*CAP
1 *5315:C 0.00039983
2 *5313:Y 0.00039983
3 *5315:C *5313:B 0.000369344
4 *5315:C *5315:B 1.53311e-05
5 *5315:C *5687:RESET_B 0
6 *160:10 *5315:C 0.00017579
*RES
1 *5313:Y *5315:C 44.2333 
*END

*D_NET *466 0.000486037
*CONN
*I *5315:A I *D sg13g2_nor3_1
*I *5314:Y O *D sg13g2_a21oi_1
*CAP
1 *5315:A 3.75563e-05
2 *5314:Y 0.000205462
3 *466:8 0.000243018
4 *466:8 *702:39 0
5 *466:8 *718:34 0
*RES
1 *5314:Y *466:8 41.8334 
2 *466:8 *5315:A 40.3193 
*END

*D_NET *467 0.000420826
*CONN
*I *5318:C I *D sg13g2_nor3_1
*I *5316:Y O *D sg13g2_nor2_1
*CAP
1 *5318:C 0.000186457
2 *5316:Y 0.000186457
3 *5318:C *5318:B 4.79124e-05
4 *5318:C *6026:A 0
*RES
1 *5316:Y *5318:C 41.9673 
*END

*D_NET *468 0.000632683
*CONN
*I *5318:A I *D sg13g2_nor3_1
*I *5317:Y O *D sg13g2_a21oi_1
*CAP
1 *5318:A 3.13338e-05
2 *5317:Y 0.000261137
3 *468:8 0.00029247
4 *5318:A *6026:A 4.77425e-05
5 *468:8 *701:124 0
*RES
1 *5317:Y *468:8 42.3278 
2 *468:8 *5318:A 40.3193 
*END

*D_NET *469 0.000563455
*CONN
*I *5321:C I *D sg13g2_nor3_1
*I *5319:Y O *D sg13g2_nor2_1
*CAP
1 *5321:C 0.000281727
2 *5319:Y 0.000281727
3 *5321:C *5321:B 0
4 *5321:C *5691:RESET_B 0
5 *5321:C *5967:A 0
6 *5321:C *1029:21 0
*RES
1 *5319:Y *5321:C 42.495 
*END

*D_NET *470 0.00155784
*CONN
*I *5321:A I *D sg13g2_nor3_1
*I *5320:Y O *D sg13g2_a21oi_1
*CAP
1 *5321:A 0
2 *5320:Y 0.000468472
3 *470:10 0.000468472
4 *470:10 *5320:A1 0.000209048
5 *470:10 *5320:B1 0.000176707
6 *470:10 *696:105 0
7 *162:8 *470:10 0.000235141
*RES
1 *5320:Y *470:10 45.459 
2 *470:10 *5321:A 40 
*END

*D_NET *471 0.000530123
*CONN
*I *5324:C I *D sg13g2_nor3_1
*I *5322:Y O *D sg13g2_nor2_1
*CAP
1 *5324:C 0.000144037
2 *5322:Y 0.000144037
3 *5324:C *696:43 0.00024205
4 *5324:C *713:20 0
*RES
1 *5322:Y *5324:C 41.6171 
*END

*D_NET *472 0.00110254
*CONN
*I *5324:A I *D sg13g2_nor3_1
*I *5323:Y O *D sg13g2_a21oi_1
*CAP
1 *5324:A 0.000118534
2 *5323:Y 0.000327734
3 *472:8 0.000446269
4 *5324:A *671:12 0.000209999
5 *5324:A *696:43 0
6 *5324:A *713:20 0
7 *472:8 *697:48 0
8 *5693:D *5324:A 0
*RES
1 *5323:Y *472:8 43.811 
2 *472:8 *5324:A 41.4008 
*END

*D_NET *473 0.000340884
*CONN
*I *5327:C I *D sg13g2_nor3_1
*I *5325:Y O *D sg13g2_nor2_1
*CAP
1 *5327:C 0.000155041
2 *5325:Y 0.000155041
3 *5327:C *5325:B 1.54008e-05
4 *5327:C *5327:B 1.54008e-05
5 *5327:C *669:6 0
6 *5327:C *1027:8 0
7 *5327:C *1027:18 0
*RES
1 *5325:Y *5327:C 41.4323 
*END

*D_NET *474 0.00149985
*CONN
*I *5327:A I *D sg13g2_nor3_1
*I *5326:Y O *D sg13g2_a21oi_1
*CAP
1 *5327:A 0.000141619
2 *5326:Y 0.000503379
3 *474:8 0.000644997
4 *5327:A *5327:B 0
5 *5327:A *669:6 0.000209856
6 *474:8 *683:36 0
7 *474:8 *683:47 0
8 *474:8 *695:31 0
9 *474:8 *711:18 0
10 *474:8 *1027:78 0
*RES
1 *5326:Y *474:8 44.5526 
2 *474:8 *5327:A 41.4008 
*END

*D_NET *475 0.000714634
*CONN
*I *5330:C I *D sg13g2_nor3_1
*I *5328:Y O *D sg13g2_nor2_1
*CAP
1 *5330:C 0.000317211
2 *5328:Y 0.000317211
3 *5330:C *5328:B 0
4 *5330:C *5330:A 0
5 *5330:C *5697:RESET_B 0
6 *5330:C *1082:10 0
7 *5697:D *5330:C 8.02127e-05
*RES
1 *5328:Y *5330:C 43.5638 
*END

*D_NET *476 0.000666239
*CONN
*I *5330:A I *D sg13g2_nor3_1
*I *5329:Y O *D sg13g2_a21oi_1
*CAP
1 *5330:A 0.00033312
2 *5329:Y 0.00033312
3 *5330:A *5329:A1 0
4 *5330:C *5330:A 0
5 *5697:D *5330:A 0
*RES
1 *5329:Y *5330:A 44.0067 
*END

*D_NET *477 0.000219257
*CONN
*I *5333:C I *D sg13g2_nor3_1
*I *5331:Y O *D sg13g2_nor2_1
*CAP
1 *5333:C 0.000101928
2 *5331:Y 0.000101928
3 *5333:C *5331:B 0
4 *5333:C *5333:A 0
5 *5333:C *685:22 0
6 *5699:D *5333:C 1.54008e-05
*RES
1 *5331:Y *5333:C 41.133 
*END

*D_NET *478 0.0020682
*CONN
*I *5333:A I *D sg13g2_nor3_1
*I *5332:Y O *D sg13g2_a21oi_1
*CAP
1 *5333:A 0.000320849
2 *5332:Y 0.000439095
3 *478:10 0.000759944
4 *5333:A *5699:RESET_B 0
5 *5333:A *1083:32 0.000500682
6 *478:10 *5332:A1 4.76327e-05
7 *478:10 *711:20 0
8 *5333:C *5333:A 0
9 *5699:D *5333:A 0
*RES
1 *5332:Y *478:10 44.6247 
2 *478:10 *5333:A 43.3475 
*END

*D_NET *479 0.00057784
*CONN
*I *5336:C I *D sg13g2_nor3_1
*I *5334:Y O *D sg13g2_nor2_1
*CAP
1 *5336:C 0.00028892
2 *5334:Y 0.00028892
3 *5336:C *5334:A 0
4 *5336:C *5701:RESET_B 0
5 *5336:C *668:25 0
*RES
1 *5334:Y *5336:C 43.3475 
*END

*D_NET *480 0.0014143
*CONN
*I *5336:A I *D sg13g2_nor3_1
*I *5335:Y O *D sg13g2_a21oi_1
*CAP
1 *5336:A 3.59753e-05
2 *5335:Y 0.000106047
3 *480:8 0.000142022
4 *5336:A *5336:B 0
5 *480:8 *5701:CLK 0.000287672
6 *480:8 *626:48 0.000288087
7 *480:8 *702:84 0.000554492
*RES
1 *5335:Y *480:8 42.575 
2 *480:8 *5336:A 40.3193 
*END

*D_NET *481 0.000479302
*CONN
*I *5339:C I *D sg13g2_nor3_1
*I *5337:Y O *D sg13g2_nor2_1
*CAP
1 *5339:C 0.000167951
2 *5337:Y 0.000167951
3 *5339:C *5339:A 0
4 *5339:C *5339:B 0.0001434
5 *5339:C *702:10 0
6 *6059:A *5339:C 0
*RES
1 *5337:Y *5339:C 41.751 
*END

*D_NET *482 0.000680789
*CONN
*I *5339:A I *D sg13g2_nor3_1
*I *5338:Y O *D sg13g2_a21oi_1
*CAP
1 *5339:A 4.59351e-05
2 *5338:Y 0.000256196
3 *482:8 0.000302131
4 *5339:A *5339:B 0
5 *5339:A *5687:CLK 0
6 *482:8 *640:8 7.65281e-05
7 *5339:C *5339:A 0
*RES
1 *5338:Y *482:8 42.8222 
2 *482:8 *5339:A 40.5356 
*END

*D_NET *483 0.00138348
*CONN
*I *5342:C I *D sg13g2_nor3_1
*I *5340:Y O *D sg13g2_nor2_1
*CAP
1 *5342:C 0.00053907
2 *5340:Y 0.00053907
3 *5342:C *5340:A 0.000144915
4 *5342:C *5341:A1 0.00014502
5 *5342:C *6057:A 0
6 *5342:C *701:124 0
7 *5342:C *1055:19 0
8 *5705:D *5342:C 1.54008e-05
*RES
1 *5340:Y *5342:C 45.542 
*END

*D_NET *484 0.000893429
*CONN
*I *5342:A I *D sg13g2_nor3_1
*I *5341:Y O *D sg13g2_a21oi_1
*CAP
1 *5342:A 0.000180468
2 *5341:Y 0.000266246
3 *484:8 0.000446715
4 *5342:A *5902:A 0
5 *5342:A *701:124 0
6 *484:8 *674:49 0
7 *484:8 *920:32 0
8 *484:8 *1055:19 0
*RES
1 *5341:Y *484:8 42.8222 
2 *484:8 *5342:A 41.6171 
*END

*D_NET *485 0.000982603
*CONN
*I *5345:C I *D sg13g2_nor3_1
*I *5343:Y O *D sg13g2_nor2_1
*CAP
1 *5345:C 0
2 *5343:Y 0.000411026
3 *485:18 0.000411026
4 *485:18 *5343:B 0.000160552
5 *485:18 *5344:A1 0
6 *485:18 *486:10 0
7 *485:18 *687:24 0
*RES
1 *5343:Y *485:18 44.2951 
2 *485:18 *5345:C 40 
*END

*D_NET *486 0.00130171
*CONN
*I *5345:A I *D sg13g2_nor3_1
*I *5344:Y O *D sg13g2_a21oi_1
*CAP
1 *5345:A 0.000195894
2 *5344:Y 0.000390929
3 *486:10 0.000586823
4 *5345:A *696:105 0
5 *486:10 *5344:A1 8.0216e-05
6 *486:10 *5344:A2 0
7 *486:10 *5344:B1 4.78524e-05
8 *486:10 *5406:A1 0
9 *486:10 *605:154 0
10 *486:10 *1056:23 0
11 *485:18 *486:10 0
*RES
1 *5344:Y *486:10 43.5741 
2 *486:10 *5345:A 41.8334 
*END

*D_NET *487 0.000504803
*CONN
*I *5348:C I *D sg13g2_nor3_1
*I *5346:Y O *D sg13g2_nor2_1
*CAP
1 *5348:C 0.000179842
2 *5346:Y 0.000179842
3 *5348:C *697:48 0.00014512
*RES
1 *5346:Y *5348:C 41.9982 
*END

*D_NET *488 0.000315516
*CONN
*I *5348:A I *D sg13g2_nor3_1
*I *5347:Y O *D sg13g2_a21oi_1
*CAP
1 *5348:A 0.000157758
2 *5347:Y 0.000157758
3 *5348:A *5347:A2 0
4 *5348:A *5370:B 0
5 *5348:A *5372:B 0
6 *5348:A *697:48 0
*RES
1 *5347:Y *5348:A 41.6274 
*END

*D_NET *489 0.00027993
*CONN
*I *5351:C I *D sg13g2_nor3_1
*I *5349:Y O *D sg13g2_nor2_1
*CAP
1 *5351:C 9.98433e-05
2 *5349:Y 9.98433e-05
3 *5351:C *695:56 8.02431e-05
4 *5351:C *1018:26 0
*RES
1 *5349:Y *5351:C 41.133 
*END

*D_NET *490 0.000866168
*CONN
*I *5351:A I *D sg13g2_nor3_1
*I *5350:Y O *D sg13g2_a21oi_1
*CAP
1 *5351:A 0.000328967
2 *5350:Y 0.000328967
3 *5351:A *5350:A1 1.54556e-05
4 *5351:A *5374:A1 0
5 *5351:A *5711:D 1.54556e-05
6 *5351:A *683:81 0.000177323
7 *5351:A *695:56 0
8 *5351:A *1018:20 0
9 *6052:A *5351:A 0
*RES
1 *5350:Y *5351:A 43.708 
*END

*D_NET *491 0.00122528
*CONN
*I *5354:C I *D sg13g2_nor3_1
*I *5352:Y O *D sg13g2_nor2_1
*CAP
1 *5354:C 0.000266859
2 *5352:Y 0.000266859
3 *5354:C *5352:B 0.000338049
4 *5354:C *5354:B 1.54008e-05
5 *5354:C *685:42 0
6 *5354:C *1059:16 0
7 *5713:D *5354:C 0.000338109
*RES
1 *5352:Y *5354:C 43.296 
*END

*D_NET *492 0.000854816
*CONN
*I *5354:A I *D sg13g2_nor3_1
*I *5353:Y O *D sg13g2_a21oi_1
*CAP
1 *5354:A 4.43935e-05
2 *5353:Y 0.000156771
3 *492:8 0.000201165
4 *492:8 *644:41 0.000452486
5 *492:8 *1017:10 0
*RES
1 *5353:Y *492:8 42.0806 
2 *492:8 *5354:A 40.3193 
*END

*D_NET *493 0.00022016
*CONN
*I *5357:C I *D sg13g2_nor3_1
*I *5355:Y O *D sg13g2_nor2_1
*CAP
1 *5357:C 0.000102352
2 *5355:Y 0.000102352
3 *5357:C *5355:B 0
4 *5357:C *5357:B 1.54556e-05
5 *5357:C *5414:A1 0
6 *5357:C *647:44 0
7 *5357:C *1060:8 0
8 *5357:C *1060:19 0
*RES
1 *5355:Y *5357:C 41.133 
*END

*D_NET *494 0.00191261
*CONN
*I *5357:A I *D sg13g2_nor3_1
*I *5356:Y O *D sg13g2_a21oi_1
*CAP
1 *5357:A 0
2 *5356:Y 0.000537998
3 *494:14 0.000537998
4 *494:14 *647:66 0.000562019
5 *494:14 *683:51 0.000274594
*RES
1 *5356:Y *494:14 46.0667 
2 *494:14 *5357:A 40 
*END

*D_NET *495 0.000573917
*CONN
*I *5360:C I *D sg13g2_nor3_1
*I *5358:Y O *D sg13g2_nor2_1
*CAP
1 *5360:C 0.000174377
2 *5358:Y 0.000174377
3 *5360:C *5360:A 0
4 *5360:C *5360:B 0.000225164
*RES
1 *5358:Y *5360:C 41.9982 
*END

*D_NET *496 0.00106282
*CONN
*I *5360:A I *D sg13g2_nor3_1
*I *5359:Y O *D sg13g2_a21oi_1
*CAP
1 *5360:A 0.000160628
2 *5359:Y 0.00037078
3 *496:8 0.000531409
4 *5360:A *5717:D 0
5 *5360:C *5360:A 0
*RES
1 *5359:Y *496:8 43.3166 
2 *496:8 *5360:A 41.4008 
*END

*D_NET *497 0.0006128
*CONN
*I *5363:C I *D sg13g2_nor3_1
*I *5361:Y O *D sg13g2_nor2_1
*CAP
1 *5363:C 0.0002987
2 *5361:Y 0.0002987
3 *5363:C *5361:A 0
4 *5363:C *5361:B 0
5 *5363:C *6073:A 0
6 *5363:C *702:73 1.54008e-05
7 *5363:C *718:51 0
8 *5363:C *1062:12 0
*RES
1 *5361:Y *5363:C 43.2342 
*END

*D_NET *498 0.00192636
*CONN
*I *5363:A I *D sg13g2_nor3_1
*I *5362:Y O *D sg13g2_a21oi_1
*CAP
1 *5363:A 0
2 *5362:Y 0.000427357
3 *498:10 0.000427357
4 *498:10 *5719:RESET_B 0
5 *498:10 *674:33 0.000130344
6 *498:10 *689:60 0
7 *498:10 *1022:34 0.000941304
*RES
1 *5362:Y *498:10 45.7062 
2 *498:10 *5363:A 40 
*END

*D_NET *499 0.000711369
*CONN
*I *5366:C I *D sg13g2_nor3_1
*I *5364:Y O *D sg13g2_nor2_1
*CAP
1 *5366:C 0.000178239
2 *5364:Y 0.000178239
3 *5366:C *5364:B 0.000209856
4 *5366:C *5369:B 0.000145035
*RES
1 *5364:Y *5366:C 41.9982 
*END

*D_NET *500 0.000301976
*CONN
*I *5366:A I *D sg13g2_nor3_1
*I *5365:Y O *D sg13g2_a21oi_1
*CAP
1 *5366:A 4.47345e-05
2 *5365:Y 0.000106254
3 *500:8 0.000150988
4 *5366:A *5369:B 0
5 *5366:A *674:49 0
6 *5366:A *702:107 0
7 *500:8 *962:8 0
8 *500:8 *993:32 0
*RES
1 *5365:Y *500:8 41.0918 
2 *500:8 *5366:A 40.3193 
*END

*D_NET *501 0.00051784
*CONN
*I *5369:C I *D sg13g2_nor3_1
*I *5367:Y O *D sg13g2_nor2_1
*CAP
1 *5369:C 0.000251219
2 *5367:Y 0.000251219
3 *5369:C *5343:B 0
4 *5369:C *5369:B 1.54008e-05
5 *5369:C *605:154 0
*RES
1 *5367:Y *5369:C 42.7295 
*END

*D_NET *502 0.00164597
*CONN
*I *5369:A I *D sg13g2_nor3_1
*I *5368:Y O *D sg13g2_a21oi_1
*CAP
1 *5369:A 0.000212097
2 *5368:Y 0.000195871
3 *502:8 0.000407968
4 *5369:A *5368:A2 0
5 *5369:A *605:154 0
6 *5369:A *605:158 0
7 *502:8 *605:165 0
8 *502:8 *984:30 0.000555322
9 *502:8 *1030:41 0
10 *6043:A *5369:A 0.000274715
*RES
1 *5368:Y *502:8 42.575 
2 *502:8 *5369:A 42.266 
*END

*D_NET *503 0.000756278
*CONN
*I *5372:C I *D sg13g2_nor3_1
*I *5370:Y O *D sg13g2_nor2_1
*CAP
1 *5372:C 0.000378139
2 *5370:Y 0.000378139
3 *5372:C *5371:A2 0
4 *5372:C *5372:B 0
5 *5372:C *5709:CLK 0
6 *5372:C *605:130 0
*RES
1 *5370:Y *5372:C 43.3475 
*END

*D_NET *504 0.0012291
*CONN
*I *5372:A I *D sg13g2_nor3_1
*I *5371:Y O *D sg13g2_a21oi_1
*CAP
1 *5372:A 0.000206386
2 *5371:Y 0.000238911
3 *504:8 0.000445297
4 *5372:A *5372:B 0.000338509
5 *504:8 *764:10 0
6 *504:8 *1066:41 0
*RES
1 *5371:Y *504:8 42.575 
2 *504:8 *5372:A 42.266 
*END

*D_NET *505 0.000834073
*CONN
*I *5375:C I *D sg13g2_nor3_1
*I *5373:Y O *D sg13g2_nor2_1
*CAP
1 *5375:C 0
2 *5373:Y 0.000288309
3 *505:10 0.000288309
4 *505:10 *5727:RESET_B 0
5 *505:10 *623:27 0
6 *505:10 *1018:12 0.000209637
7 *505:10 *1019:71 4.78192e-05
8 *505:10 *1027:78 0
9 *5727:D *505:10 0
*RES
1 *5373:Y *505:10 42.8943 
2 *505:10 *5375:C 40 
*END

*D_NET *506 0.00053755
*CONN
*I *5375:A I *D sg13g2_nor3_1
*I *5374:Y O *D sg13g2_a21oi_1
*CAP
1 *5375:A 0.000163847
2 *5374:Y 0.000163847
3 *5375:A *5374:A1 0
4 *5375:A *5374:A2 0.000209856
5 *5375:A *5374:B1 0
6 *5375:A *695:71 0
7 *5727:D *5375:A 0
*RES
1 *5374:Y *5375:A 41.751 
*END

*D_NET *507 0.00053647
*CONN
*I *5378:C I *D sg13g2_nor3_1
*I *5376:Y O *D sg13g2_nor2_1
*CAP
1 *5378:C 0.000183448
2 *5376:Y 0.000183448
3 *5378:C *5376:B 0.000154173
4 *5378:C *613:8 0
5 *5378:C *694:87 1.54008e-05
6 *5378:C *1017:6 0
*RES
1 *5376:Y *5378:C 41.5318 
*END

*D_NET *508 0.00208748
*CONN
*I *5378:A I *D sg13g2_nor3_1
*I *5377:Y O *D sg13g2_a21oi_1
*CAP
1 *5378:A 3.10882e-05
2 *5377:Y 0.000245482
3 *508:8 0.000276571
4 *5378:A *1017:6 4.76038e-05
5 *508:8 *685:32 0.0008772
6 *181:8 *508:8 0.000609537
*RES
1 *5377:Y *508:8 44.3054 
2 *508:8 *5378:A 40.3193 
*END

*D_NET *509 0.00101616
*CONN
*I *5381:C I *D sg13g2_nor3_1
*I *5379:Y O *D sg13g2_nor2_1
*CAP
1 *5381:C 0.00050035
2 *5379:Y 0.00050035
3 *5381:C *5379:B 0
4 *5381:C *5380:A2 0
5 *5381:C *5381:A 0
6 *5381:C *5381:B 1.54556e-05
7 *5381:C *5430:A1 0
8 *5381:C *5783:CLK 0
*RES
1 *5379:Y *5381:C 44.7792 
*END

*D_NET *510 0.000482605
*CONN
*I *5381:A I *D sg13g2_nor3_1
*I *5380:Y O *D sg13g2_a21oi_1
*CAP
1 *5381:A 0.000241303
2 *5380:Y 0.000241303
3 *5381:A *5381:B 0
4 *5381:A *5783:CLK 0
5 *5381:C *5381:A 0
6 *6040:A *5381:A 0
*RES
1 *5380:Y *5381:A 42.6677 
*END

*D_NET *511 0.000290378
*CONN
*I *5383:A2 I *D sg13g2_a21oi_1
*I *5382:Y O *D sg13g2_nor2_1
*CAP
1 *5383:A2 0.000137461
2 *5382:Y 0.000137461
3 *5383:A2 *5382:B 0
4 *5383:A2 *1032:20 0
5 *5383:A1 *5383:A2 1.54556e-05
*RES
1 *5382:Y *5383:A2 41.6274 
*END

*D_NET *512 0.000623235
*CONN
*I *5385:A I *D sg13g2_and2_1
*I *5384:X O *D sg13g2_mux2_1
*CAP
1 *5385:A 0.000271575
2 *5384:X 0.000271575
3 *5385:A *5384:A0 0
4 *5385:A *5384:A1 8.00842e-05
5 *5385:A *5385:B 0
6 *5385:A *663:34 0
7 *5385:A *673:26 0
8 *5385:A *701:41 0
*RES
1 *5384:X *5385:A 42.5962 
*END

*D_NET *513 0.0016501
*CONN
*I *5387:A I *D sg13g2_and2_1
*I *5386:X O *D sg13g2_mux2_1
*CAP
1 *5387:A 0.000496008
2 *5386:X 0.000496008
3 *5387:A *5387:B 0.000658084
4 *79:12 *5387:A 0
*RES
1 *5386:X *5387:A 44.8616 
*END

*D_NET *514 0.000495071
*CONN
*I *5389:A I *D sg13g2_and2_1
*I *5388:X O *D sg13g2_mux2_1
*CAP
1 *5389:A 0.000247535
2 *5388:X 0.000247535
3 *5389:A *5388:A1 0
4 *5389:A *687:52 0
5 *5389:A *1029:10 0
6 *5389:A *1029:19 0
*RES
1 *5388:X *5389:A 42.1836 
*END

*D_NET *515 0.000745208
*CONN
*I *5391:A I *D sg13g2_and2_1
*I *5390:X O *D sg13g2_mux2_1
*CAP
1 *5391:A 0.000227743
2 *5390:X 0.000227743
3 *5391:A *5393:B 8.0216e-05
4 *5391:A *5691:CLK 0.000177164
5 *5391:A *712:16 0
6 *5391:A *712:18 3.23417e-05
7 *5391:A *713:20 0
*RES
1 *5390:X *5391:A 42.3999 
*END

*D_NET *516 0.000429317
*CONN
*I *5393:A I *D sg13g2_and2_1
*I *5392:X O *D sg13g2_mux2_1
*CAP
1 *5393:A 0.000206931
2 *5392:X 0.000206931
3 *5393:A *5393:B 0
4 *5393:A *713:20 0
5 *5393:A *1030:30 0
6 *5745:D *5393:A 1.54556e-05
*RES
1 *5392:X *5393:A 42.4102 
*END

*D_NET *517 0.000542986
*CONN
*I *5395:A I *D sg13g2_and2_1
*I *5394:X O *D sg13g2_mux2_1
*CAP
1 *5395:A 0.000231308
2 *5394:X 0.000231308
3 *5395:A *6066:A 0
4 *5395:A *6072:A 0
5 *5395:A *711:10 0
6 *5395:A *711:18 8.03692e-05
7 *5395:A *1027:108 0
*RES
1 *5394:X *5395:A 42.3999 
*END

*D_NET *518 0.000997496
*CONN
*I *5397:A I *D sg13g2_and2_1
*I *5396:X O *D sg13g2_mux2_1
*CAP
1 *5397:A 0
2 *5396:X 0.000190354
3 *518:10 0.000190354
4 *518:10 *5397:B 0.000130859
5 *518:10 *714:45 0.00048593
*RES
1 *5396:X *518:10 43.0334 
2 *518:10 *5397:A 40 
*END

*D_NET *519 0.00053012
*CONN
*I *5399:A I *D sg13g2_and2_1
*I *5398:X O *D sg13g2_mux2_1
*CAP
1 *5399:A 0
2 *5398:X 0.00012844
3 *519:10 0.00012844
4 *519:10 *5751:RESET_B 0.000144993
5 *519:10 *711:30 0.000128247
6 *519:10 *1083:32 0
*RES
1 *5398:X *519:10 41.5656 
2 *519:10 *5399:A 40 
*END

*D_NET *520 0.000431779
*CONN
*I *5401:A I *D sg13g2_and2_1
*I *5400:X O *D sg13g2_mux2_1
*CAP
1 *5401:A 0.000208189
2 *5400:X 0.000208189
3 *5401:A *5400:A1 0
4 *5401:A *6061:A 1.54008e-05
5 *5401:A *946:10 0
6 *5401:A *1020:113 0
*RES
1 *5400:X *5401:A 42.1836 
*END

*D_NET *521 0.000898136
*CONN
*I *5403:A I *D sg13g2_and2_1
*I *5402:X O *D sg13g2_mux2_1
*CAP
1 *5403:A 0.000166571
2 *5402:X 0.000166571
3 *5403:A *5403:B 8.03692e-05
4 *5403:A *717:12 0.000307226
5 *5403:A *1023:114 0.000177399
*RES
1 *5402:X *5403:A 42.0497 
*END

*D_NET *522 0.000510618
*CONN
*I *5405:A I *D sg13g2_and2_1
*I *5404:X O *D sg13g2_mux2_1
*CAP
1 *5405:A 0.000255309
2 *5404:X 0.000255309
3 *5405:A *5405:B 0
4 *5405:A *619:16 0
*RES
1 *5404:X *5405:A 42.1836 
*END

*D_NET *523 0.00087535
*CONN
*I *5407:A I *D sg13g2_and2_1
*I *5406:X O *D sg13g2_mux2_1
*CAP
1 *5407:A 0.000227917
2 *5406:X 0.000227917
3 *5407:A *712:64 8.02102e-05
4 *5407:A *712:71 0.000226753
5 *5407:A *713:54 0.000112552
6 *5407:A *1029:66 0
*RES
1 *5406:X *5407:A 42.6471 
*END

*D_NET *524 0.000600675
*CONN
*I *5409:A I *D sg13g2_and2_1
*I *5408:X O *D sg13g2_mux2_1
*CAP
1 *5409:A 0.000179312
2 *5408:X 0.000179312
3 *5409:A *5409:B 0.00024205
4 *5409:A *617:6 0
5 *5409:A *964:25 0
*RES
1 *5408:X *5409:A 42.0497 
*END

*D_NET *525 0.000592065
*CONN
*I *5411:A I *D sg13g2_and2_1
*I *5410:X O *D sg13g2_mux2_1
*CAP
1 *5411:A 0.000255991
2 *5410:X 0.000255991
3 *5411:A *5411:B 8.00842e-05
4 *5411:A *1058:34 0
5 *5763:D *5411:A 0
*RES
1 *5410:X *5411:A 42.3999 
*END

*D_NET *526 0.000411381
*CONN
*I *5413:A I *D sg13g2_and2_1
*I *5412:X O *D sg13g2_mux2_1
*CAP
1 *5413:A 0.000133181
2 *5412:X 0.000133181
3 *5413:A *5412:A0 0
4 *5413:A *5412:S 0
5 *5413:A *714:45 6.47768e-05
6 *5413:A *714:51 8.02431e-05
7 *5413:A *1028:54 0
*RES
1 *5412:X *5413:A 41.5656 
*END

*D_NET *527 0.00086879
*CONN
*I *5415:A I *D sg13g2_and2_1
*I *5414:X O *D sg13g2_mux2_1
*CAP
1 *5415:A 0.000306475
2 *5414:X 0.000306475
3 *5415:A *5414:A1 0
4 *5415:A *711:20 8.03091e-05
5 *5415:A *711:24 9.5485e-05
6 *5415:A *992:21 0
7 *5767:D *5415:A 8.00473e-05
*RES
1 *5414:X *5415:A 43.3784 
*END

*D_NET *528 0.000427318
*CONN
*I *5417:A I *D sg13g2_and2_1
*I *5416:X O *D sg13g2_mux2_1
*CAP
1 *5417:A 0.000141149
2 *5416:X 0.000141149
3 *5417:A *5433:B 3.24351e-05
4 *5417:A *6037:A 0
5 *5417:A *663:97 0
6 *5417:A *717:57 3.23417e-05
7 *5417:A *717:59 8.02431e-05
*RES
1 *5416:X *5417:A 41.5656 
*END

*D_NET *529 0.00054357
*CONN
*I *5419:A I *D sg13g2_and2_1
*I *5418:X O *D sg13g2_mux2_1
*CAP
1 *5419:A 0.000255944
2 *5418:X 0.000255944
3 *5419:A *5418:A1 0
4 *5419:A *5419:B 3.16813e-05
5 *5419:A *5917:A 0
6 *5419:A *718:51 0
7 *5771:D *5419:A 0
*RES
1 *5418:X *5419:A 42.6471 
*END

*D_NET *530 0.000872227
*CONN
*I *5421:A I *D sg13g2_and2_1
*I *5420:X O *D sg13g2_mux2_1
*CAP
1 *5421:A 0.000226093
2 *5420:X 0.000226093
3 *5421:A *5405:B 4.79124e-05
4 *5421:A *619:16 0.000307216
5 *5421:A *717:61 6.49135e-05
*RES
1 *5420:X *5421:A 42.6471 
*END

*D_NET *531 0.00065109
*CONN
*I *5423:A I *D sg13g2_and2_1
*I *5422:X O *D sg13g2_mux2_1
*CAP
1 *5423:A 0.000188226
2 *5422:X 0.000188226
3 *5423:A *5438:A1 0
4 *5423:A *5439:B 0.000274638
5 *5423:A *1029:57 0
*RES
1 *5422:X *5423:A 42.1836 
*END

*D_NET *532 0.000416112
*CONN
*I *5425:A I *D sg13g2_and2_1
*I *5424:X O *D sg13g2_mux2_1
*CAP
1 *5425:A 0.00013548
2 *5424:X 0.00013548
3 *5425:A *5425:B 0
4 *5425:A *617:6 0
5 *5425:A *712:42 0.000145151
6 *5777:D *5425:A 0
*RES
1 *5424:X *5425:A 41.5656 
*END

*D_NET *533 0.000824459
*CONN
*I *5427:A I *D sg13g2_and2_1
*I *5426:X O *D sg13g2_mux2_1
*CAP
1 *5427:A 0
2 *5426:X 0.000412229
3 *533:10 0.000412229
4 *533:10 *5779:RESET_B 0
5 *533:10 *713:39 0
6 *533:10 *1027:92 0
7 *5779:D *533:10 0
*RES
1 *5426:X *533:10 43.6668 
2 *533:10 *5427:A 40 
*END

*D_NET *534 0.000574019
*CONN
*I *5429:A I *D sg13g2_and2_1
*I *5428:X O *D sg13g2_mux2_1
*CAP
1 *5429:A 0.000239364
2 *5428:X 0.000239364
3 *5429:A *5428:A1 7.989e-05
4 *5429:A *5429:B 1.54008e-05
5 *5429:A *644:12 0
6 *5429:A *975:27 0
*RES
1 *5428:X *5429:A 42.4308 
*END

*D_NET *535 0.000611668
*CONN
*I *5431:A I *D sg13g2_and2_1
*I *5430:X O *D sg13g2_mux2_1
*CAP
1 *5431:A 0.00026568
2 *5430:X 0.00026568
3 *5431:A *5430:A1 8.03091e-05
4 *5431:A *5431:B 0
5 *5431:A *967:10 0
*RES
1 *5430:X *5431:A 42.781 
*END

*D_NET *536 0.000596883
*CONN
*I *5433:A I *D sg13g2_and2_1
*I *5432:X O *D sg13g2_mux2_1
*CAP
1 *5433:A 0.000161188
2 *5432:X 0.000161188
3 *5433:A *5433:B 0.000274507
*RES
1 *5432:X *5433:A 41.8334 
*END

*D_NET *537 0.000651598
*CONN
*I *5435:A I *D sg13g2_and2_1
*I *5434:X O *D sg13g2_mux2_1
*CAP
1 *5435:A 0.000188699
2 *5434:X 0.000188699
3 *5435:A *5787:RESET_B 0
4 *5435:A *718:59 0.000241847
5 *5435:A *718:72 3.23529e-05
6 *5435:A *969:8 0
7 *5787:D *5435:A 0
*RES
1 *5434:X *5435:A 42.0497 
*END

*D_NET *538 0.000561938
*CONN
*I *5437:A I *D sg13g2_and2_1
*I *5436:X O *D sg13g2_mux2_1
*CAP
1 *5437:A 0.000280969
2 *5436:X 0.000280969
3 *5437:A *5789:RESET_B 0
4 *5437:A *717:59 0
5 *5437:A *1072:24 0
6 *5789:D *5437:A 0
7 *211:10 *5437:A 0
*RES
1 *5436:X *5437:A 42.9252 
*END

*D_NET *539 0.00223692
*CONN
*I *5439:A I *D sg13g2_and2_1
*I *5438:X O *D sg13g2_mux2_1
*CAP
1 *5439:A 0.000164931
2 *5438:X 0.000444602
3 *539:10 0.000609534
4 *5439:A *5438:A1 0.000144768
5 *5439:A *5439:B 0
6 *5439:A *619:16 0.000274545
7 *539:10 *5439:B 0.000598543
8 *539:10 *5775:RESET_B 0
9 *539:10 *627:8 0
*RES
1 *5438:X *539:10 44.841 
2 *539:10 *5439:A 41.8334 
*END

*D_NET *540 0.000848931
*CONN
*I *5441:A I *D sg13g2_and2_1
*I *5440:X O *D sg13g2_mux2_1
*CAP
1 *5441:A 6.42935e-05
2 *5440:X 0.000231455
3 *540:10 0.000295748
4 *5441:A *713:54 8.0342e-05
5 *5441:A *1029:66 0
6 *540:10 *5793:RESET_B 0
7 *540:10 *712:64 0.000177092
*RES
1 *5440:X *540:10 42.2454 
2 *540:10 *5441:A 40.7519 
*END

*D_NET *541 0.000295599
*CONN
*I *5443:A I *D sg13g2_and2_1
*I *5442:X O *D sg13g2_mux2_1
*CAP
1 *5443:A 0.0001478
2 *5442:X 0.0001478
3 *5443:A *5442:S 0
4 *5443:A *5795:RESET_B 0
*RES
1 *5442:X *5443:A 41.5656 
*END

*D_NET *542 0.00047245
*CONN
*I *5445:A I *D sg13g2_and2_1
*I *5444:X O *D sg13g2_mux2_1
*CAP
1 *5445:A 0.000196041
2 *5444:X 0.000196041
3 *5445:A *5445:B 8.03692e-05
4 *5445:A *5797:RESET_B 0
5 *5797:D *5445:A 0
*RES
1 *5444:X *5445:A 42.0497 
*END

*D_NET *543 0.000766253
*CONN
*I *5447:A I *D sg13g2_and2_1
*I *5446:X O *D sg13g2_mux2_1
*CAP
1 *5447:A 0.00026197
2 *5446:X 0.00026197
3 *5447:A *5446:A1 0
4 *5447:A *713:39 0.000242313
5 *5799:D *5447:A 0
*RES
1 *5446:X *5447:A 43.2445 
*END

*D_NET *544 0.000519267
*CONN
*I *5449:A I *D sg13g2_nand2_1
*I *5448:Y O *D sg13g2_nand2b_1
*CAP
1 *5449:A 0.000259634
2 *5448:Y 0.000259634
3 *5449:A *5448:B 0
4 *5449:A *5448:A_N 0
5 *5449:A *700:12 0
6 *291:12 *5449:A 0
*RES
1 *5448:Y *5449:A 42.6986 
*END

*D_NET *545 0.000523385
*CONN
*I *5450:B I *D sg13g2_nand3_1
*I *5449:Y O *D sg13g2_nand2_1
*CAP
1 *5450:B 2.60062e-05
2 *5449:Y 7.08264e-05
3 *545:8 9.68326e-05
4 *5450:B *5450:C 4.77425e-05
5 *545:8 *645:12 0.000234224
6 *545:8 *1014:40 0
7 *291:29 *5450:B 4.77537e-05
*RES
1 *5449:Y *545:8 41.0918 
2 *545:8 *5450:B 40.3193 
*END

*D_NET *546 0.00072572
*CONN
*I *5452:A2 I *D sg13g2_a21oi_1
*I *5451:Y O *D sg13g2_nand2b_1
*CAP
1 *5452:A2 0
2 *5451:Y 0.000157338
3 *546:10 0.000157338
4 *546:10 *5451:A_N 0
5 *546:10 *665:22 0
6 *546:10 *703:8 4.77425e-05
7 *546:10 *703:10 0.000288173
8 *546:10 *703:47 7.51285e-05
*RES
1 *5451:Y *546:10 42.1218 
2 *546:10 *5452:A2 40 
*END

*D_NET *547 0.000722848
*CONN
*I *5466:B I *D sg13g2_nor4_1
*I *5469:A2 I *D sg13g2_a21oi_1
*I *5453:X O *D sg13g2_and2_1
*CAP
1 *5466:B 9.03274e-05
2 *5469:A2 0.000201578
3 *5453:X 2.93801e-05
4 *547:6 0.000321286
5 *5466:B *5485:A 0
6 *5466:B *1006:8 3.24568e-05
7 *5466:B *1006:28 4.78195e-05
8 *5469:A2 *5485:A 0
9 *5469:A2 *1006:28 0
10 *547:6 *5485:A 0
*RES
1 *5453:X *547:6 20.3502 
2 *547:6 *5469:A2 21.8334 
3 *547:6 *5466:B 21.133 
*END

*D_NET *548 0.00114847
*CONN
*I *5468:C I *D sg13g2_nor4_1
*I *5454:X O *D sg13g2_and3_1
*CAP
1 *5468:C 6.06899e-05
2 *5454:X 0.000309055
3 *548:8 0.000369745
4 *5468:C *5468:B 4.77425e-05
5 *5468:C *1007:16 0
6 *548:8 *5468:B 0
7 *548:8 *651:31 0
8 *548:8 *719:43 0
9 *548:8 *940:8 0.00012651
10 *548:8 *1122:27 0.000234726
*RES
1 *5454:X *548:8 43.3166 
2 *548:8 *5468:C 40.5356 
*END

*D_NET *549 0.00197453
*CONN
*I *5470:B I *D sg13g2_nor4_1
*I *5458:B I *D sg13g2_nand3b_1
*I *5455:X O *D sg13g2_and4_1
*CAP
1 *5470:B 0.000222575
2 *5458:B 0.000386028
3 *5455:X 0
4 *549:4 0.000608604
5 *5458:B *5470:A 0
6 *5458:B *5485:A 0.00050054
7 *5458:B *678:101 0
8 *5458:B *693:10 0
9 *5458:B *1006:28 0
10 *5470:B *5470:A 6.3368e-05
11 *5470:B *5470:D 0.000128618
12 *5470:B *5485:A 6.47932e-05
*RES
1 *5455:X *549:4 20 
2 *549:4 *5458:B 23.9449 
3 *549:4 *5470:B 22.7707 
*END

*D_NET *550 0.0027009
*CONN
*I *6008:A I *D sg13g2_buf_1
*I *5456:Y O *D sg13g2_nand4_1
*CAP
1 *6008:A 0.000263269
2 *5456:Y 0.000869154
3 *550:10 0.00113242
4 *6008:A *5811:CLK 0.000436055
5 *6008:A *1006:28 0
6 *6008:A *1049:16 0
7 *550:10 *693:10 0
8 *550:10 *698:18 0
9 *550:10 *698:20 0
10 *550:10 *698:24 0
11 *550:10 *698:33 0
12 *550:10 *1007:32 0
13 *550:10 *1049:20 0
*RES
1 *5456:Y *550:10 48.2709 
2 *550:10 *6008:A 42.9149 
*END

*D_NET *551 0.0110028
*CONN
*I *5999:A I *D sg13g2_buf_1
*I *5487:B1 I *D sg13g2_a21oi_1
*I *5474:A I *D sg13g2_nand2_1
*I *5476:A1 I *D sg13g2_a221oi_1
*I *5457:Y O *D sg13g2_nor3_1
*CAP
1 *5999:A 0.000184647
2 *5487:B1 0
3 *5474:A 0.00017494
4 *5476:A1 0.00015307
5 *5457:Y 9.76972e-05
6 *551:50 0.000770007
7 *551:22 0.000679158
8 *551:20 0.00112116
9 *551:18 0.00158971
10 *551:8 0.00187205
11 *5474:A *5475:A 0.00027432
12 *5474:A *5475:C 0.000241979
13 *5476:A1 *5476:B1 4.77534e-05
14 *5476:A1 *693:20 0.000399574
15 *5999:A *714:26 0.000242423
16 *5999:A *1024:73 0
17 *551:8 *680:42 0.000181695
18 *551:18 *5464:A 0
19 *551:18 *5481:C 0.000112289
20 *551:18 *5993:A 0
21 *551:18 *552:54 0
22 *551:18 *556:10 0
23 *551:18 *605:43 0
24 *551:18 *693:35 0.000793248
25 *551:18 *714:26 4.7856e-05
26 *551:18 *714:69 6.48204e-05
27 *551:18 *1001:101 0.000122871
28 *551:18 *1008:10 0
29 *551:18 *1118:8 0.0001448
30 *551:18 *1119:16 0
31 *551:18 *1119:27 0
32 *551:22 *693:20 0.000453057
33 *551:22 *1119:27 0
34 *551:50 *651:8 0.000649405
35 *551:50 *651:14 0.00040042
36 *551:50 *800:8 0.000183828
37 *228:10 *551:50 0
*RES
1 *5457:Y *551:8 41.339 
2 *551:8 *551:18 35.244 
3 *551:18 *551:20 20 
4 *551:20 *551:22 4.5526 
5 *551:22 *5476:A1 42.1527 
6 *551:22 *5474:A 42.1527 
7 *551:20 *551:50 30.5575 
8 *551:50 *5487:B1 20 
9 *551:8 *5999:A 41.9364 
*END

*D_NET *552 0.0072958
*CONN
*I *5481:C I *D sg13g2_or3_1
*I *5480:A2 I *D sg13g2_o21ai_1
*I *5478:A I *D sg13g2_nand2_1
*I *5535:A I *D sg13g2_and4_1
*I *5489:A1 I *D sg13g2_a22oi_1
*I *5458:Y O *D sg13g2_nand3b_1
*CAP
1 *5481:C 6.16156e-05
2 *5480:A2 0
3 *5478:A 0
4 *5535:A 0.000422719
5 *5489:A1 4.30123e-05
6 *5458:Y 0.000680198
7 *552:54 0.000531683
8 *552:44 0.000715993
9 *552:38 0.00094866
10 *552:14 0.000536551
11 *552:10 0.00145375
12 *5481:C *5993:A 0.000112289
13 *5489:A1 *556:25 0
14 *5535:A *5487:A2 8.0216e-05
15 *5535:A *5489:B2 0
16 *5535:A *5535:B 0.000112426
17 *5535:A *714:99 0
18 *5535:A *1006:28 0
19 *552:10 *5458:A_N 0
20 *552:10 *5485:B 4.77534e-05
21 *552:10 *5485:A 0.000242154
22 *552:10 *5489:B1 0.000403564
23 *552:10 *5823:RESET_B 0
24 *552:10 *5927:A 0
25 *552:10 *678:101 0
26 *552:10 *698:33 0
27 *552:10 *1006:28 0
28 *552:14 *5489:B1 0.00011242
29 *552:14 *5927:A 0
30 *552:38 *556:25 0
31 *552:38 *1119:10 0
32 *552:44 *556:10 0
33 *552:44 *1119:16 1.54008e-05
34 *552:44 *1119:27 9.70197e-05
35 *552:54 *5464:A 0
36 *552:54 *556:10 8.00424e-05
37 *552:54 *556:14 0
38 *552:54 *1008:10 0
39 *552:54 *1118:25 0
40 *552:54 *1118:64 0
41 *552:54 *1119:16 0.000144833
42 *226:8 *552:38 0.000341205
43 *228:10 *5535:A 0
44 *228:10 *552:38 0
45 *551:18 *5481:C 0.000112289
46 *551:18 *552:54 0
*RES
1 *5458:Y *552:10 26.9484 
2 *552:10 *552:14 20.7519 
3 *552:14 *5489:A1 40.5974 
4 *552:14 *5535:A 44.0994 
5 *552:10 *552:38 28.755 
6 *552:38 *552:44 21.8437 
7 *552:44 *552:54 44.944 
8 *552:54 *5478:A 20 
9 *552:44 *5480:A2 20 
10 *552:38 *5481:C 40.7519 
*END

*D_NET *553 0.00160387
*CONN
*I *5460:C I *D sg13g2_nand3_1
*I *5459:Y O *D sg13g2_nor3_1
*CAP
1 *5460:C 0.000147215
2 *5459:Y 0.00014268
3 *553:8 0.000289895
4 *5460:C *5475:B 0.00027432
5 *5460:C *1001:111 0.00027432
6 *553:8 *5473:C 0.00023775
7 *553:8 *1118:35 0.000237686
*RES
1 *5459:Y *553:8 42.0806 
2 *553:8 *5460:C 41.8334 
*END

*D_NET *554 0.0012107
*CONN
*I *5461:B I *D sg13g2_nor2_1
*I *5536:B1 I *D sg13g2_o21ai_1
*I *5460:Y O *D sg13g2_nand3_1
*CAP
1 *5461:B 0
2 *5536:B1 0.000218788
3 *5460:Y 0.000371162
4 *554:6 0.000589951
5 *5536:B1 *5536:A1 0
6 *5536:B1 *5536:A2 1.54008e-05
7 *5536:B1 *556:10 0
8 *5536:B1 *604:10 1.54008e-05
9 *5536:B1 *649:63 0
10 *5536:B1 *676:14 0
11 *5536:B1 *693:14 0
12 *554:6 *5475:B 0
13 *554:6 *649:63 0
14 *554:6 *693:16 0
15 *554:6 *1121:23 0
16 *219:10 *5536:B1 0
*RES
1 *5460:Y *554:6 23.5638 
2 *554:6 *5536:B1 22.4308 
3 *554:6 *5461:B 20 
*END

*D_NET *555 0.00408298
*CONN
*I *6004:A I *D sg13g2_buf_1
*I *6005:A I *D sg13g2_buf_1
*I *5462:Y O *D sg13g2_nor2b_1
*CAP
1 *6004:A 0.000655379
2 *6005:A 0
3 *5462:Y 0.000736262
4 *555:10 0.00139164
5 *6004:A *5485:A 0
6 *6004:A *719:58 0.0012997
7 *6004:A *1030:56 0
8 *6004:A *1049:16 0
9 *555:10 *5809:RESET_B 0
10 *555:10 *700:82 0
11 *555:10 *735:10 0
12 *555:10 *1007:8 0
13 *555:10 *1007:16 0
14 *555:10 *1030:56 0
15 *183:10 *6004:A 0
16 *183:10 *555:10 0
*RES
1 *5462:Y *555:10 47.6529 
2 *555:10 *6005:A 40 
3 *555:10 *6004:A 48.858 
*END

*D_NET *556 0.00938725
*CONN
*I *5471:B I *D sg13g2_and4_1
*I *5486:A I *D sg13g2_nand3_1
*I *5535:B I *D sg13g2_and4_1
*I *5489:A2 I *D sg13g2_a22oi_1
*I *5464:A I *D sg13g2_nand2_1
*I *5463:Y O *D sg13g2_nand2b_1
*CAP
1 *5471:B 0
2 *5486:A 0
3 *5535:B 7.63729e-05
4 *5489:A2 0.000157807
5 *5464:A 7.61338e-05
6 *5463:Y 0.00105553
7 *556:72 0.000672058
8 *556:53 0.000983037
9 *556:36 0.000562914
10 *556:25 0.00139593
11 *556:14 0.00122903
12 *556:10 0.00114585
13 *5489:A2 *5489:B1 0
14 *5489:A2 *5489:B2 4.78195e-05
15 *5489:A2 *5927:A 0.000241979
16 *5489:A2 *573:10 0
17 *5535:B *5535:C 1.54008e-05
18 *556:10 *5805:RESET_B 0
19 *556:10 *5993:A 0
20 *556:10 *676:14 1.54556e-05
21 *556:10 *693:14 0
22 *556:10 *693:16 0
23 *556:10 *693:35 0
24 *556:10 *1118:25 0.000209845
25 *556:10 *1119:27 0
26 *556:14 *557:12 0.00023464
27 *556:25 *5482:B1 0.000554492
28 *556:25 *557:12 5.31192e-05
29 *556:25 *568:10 0
30 *556:25 *714:82 0
31 *556:25 *1119:10 0
32 *556:25 *1119:16 0
33 *556:36 *5489:B2 0
34 *556:36 *714:82 0
35 *556:53 *5486:B 0
36 *556:53 *5823:CLK 0
37 *556:53 *6007:A 0.000209505
38 *556:53 *1011:18 4.7803e-05
39 *556:72 *5471:A 8.00842e-05
40 *556:72 *5486:B 0
41 *556:72 *650:10 0
42 *556:72 *1011:18 0.000129968
43 *556:72 *1011:33 0
44 *556:72 *1127:10 0
45 *5489:A1 *556:25 0
46 *5535:A *5535:B 0.000112426
47 *5536:B1 *556:10 0
48 *5805:D *556:10 0
49 *219:10 *556:10 0
50 *551:18 *5464:A 0
51 *551:18 *556:10 0
52 *552:38 *556:25 0
53 *552:44 *556:10 0
54 *552:54 *5464:A 0
55 *552:54 *556:10 8.00424e-05
56 *552:54 *556:14 0
*RES
1 *5463:Y *556:10 27.4589 
2 *556:10 *556:14 21.0918 
3 *556:14 *5464:A 40.7519 
4 *556:14 *556:25 10.2382 
5 *556:25 *5489:A2 41.6171 
6 *556:25 *556:36 1.5862 
7 *556:36 *5535:B 40.7519 
8 *556:36 *556:53 23.0591 
9 *556:53 *5486:A 20 
10 *556:53 *556:72 47.622 
11 *556:72 *5471:B 20 
*END

*D_NET *557 0.00352297
*CONN
*I *5482:B1 I *D sg13g2_a21oi_1
*I *5479:B1 I *D sg13g2_a21oi_1
*I *5484:B1 I *D sg13g2_a21oi_1
*I *5464:Y O *D sg13g2_nand2_1
*CAP
1 *5482:B1 0.000354811
2 *5479:B1 0
3 *5484:B1 0
4 *5464:Y 0
5 *557:18 0.000207849
6 *557:12 0.000787806
7 *557:6 0.000934767
8 *5482:B1 *5464:B 0
9 *5482:B1 *5481:A 0
10 *5482:B1 *5993:A 0
11 *5482:B1 *568:10 0
12 *5482:B1 *605:43 0
13 *5482:B1 *714:82 0.000395482
14 *557:12 *5479:A1 0
15 *557:12 *5483:A1 0
16 *557:12 *5483:A2 0
17 *557:12 *5484:A2 0
18 *557:12 *561:8 0
19 *557:12 *1001:111 0
20 *557:12 *1118:31 0
21 *557:18 *5483:A2 0
22 *557:18 *830:10 0
23 *557:18 *1120:47 0
24 *227:8 *557:18 0
25 *556:14 *557:12 0.00023464
26 *556:25 *5482:B1 0.000554492
27 *556:25 *557:12 5.31192e-05
*RES
1 *5464:Y *557:6 40 
2 *557:6 *557:12 26.5714 
3 *557:12 *557:18 42.0806 
4 *557:18 *5484:B1 20 
5 *557:12 *5479:B1 20 
6 *557:6 *5482:B1 44.3116 
*END

*D_NET *558 0.000678968
*CONN
*I *5466:D I *D sg13g2_nor4_1
*I *5465:Y O *D sg13g2_nor2_1
*CAP
1 *5466:D 0.000211401
2 *5465:Y 0.000211401
3 *5466:D *5465:B 0.000112748
4 *5466:D *676:68 4.78195e-05
5 *5466:D *1006:28 8.01983e-05
6 *5807:D *5466:D 1.54008e-05
*RES
1 *5465:Y *5466:D 42.3793 
*END

*D_NET *559 0.00164181
*CONN
*I *5468:D I *D sg13g2_nor4_1
*I *5467:Y O *D sg13g2_a21oi_1
*CAP
1 *5468:D 0
2 *5467:Y 0.000304766
3 *559:8 0.000304766
4 *559:8 *5454:C 0
5 *559:8 *5466:A 0.000478948
6 *559:8 *5468:B 0.000553334
7 *559:8 *676:32 0
*RES
1 *5467:Y *559:8 44.7998 
2 *559:8 *5468:D 40 
*END

*D_NET *560 0.000888084
*CONN
*I *5470:D I *D sg13g2_nor4_1
*I *5469:Y O *D sg13g2_a21oi_1
*CAP
1 *5470:D 0.000323559
2 *5469:Y 0.000323559
3 *5470:D *5470:A 0
4 *5470:D *5485:A 0.000112349
5 *5470:D *1006:28 0
6 *5470:B *5470:D 0.000128618
*RES
1 *5469:Y *5470:D 43.2754 
*END

*D_NET *561 0.00161471
*CONN
*I *5479:A1 I *D sg13g2_a21oi_1
*I *5483:A2 I *D sg13g2_o21ai_1
*I *5472:X O *D sg13g2_or4_1
*CAP
1 *5479:A1 5.7552e-05
2 *5483:A2 0.000288205
3 *5472:X 0.000446141
4 *561:8 0.000791898
5 *5479:A1 *1001:111 0
6 *5483:A2 *5483:A1 1.54556e-05
7 *5483:A2 *5484:A1 0
8 *5483:A2 *5484:A2 0
9 *5483:A2 *1120:47 1.54556e-05
10 *561:8 *566:8 0
11 *561:8 *1008:10 0
12 *561:8 *1118:16 0
13 *557:12 *5479:A1 0
14 *557:12 *5483:A2 0
15 *557:12 *561:8 0
16 *557:18 *5483:A2 0
*RES
1 *5472:X *561:8 43.7598 
2 *561:8 *5483:A2 42.7398 
3 *561:8 *5479:A1 40.5356 
*END

*D_NET *562 0.00101469
*CONN
*I *5474:B I *D sg13g2_nand2_1
*I *5473:Y O *D sg13g2_nor3_1
*CAP
1 *5474:B 0.000101056
2 *5473:Y 0.000302474
3 *562:10 0.00040353
4 *5474:B *5476:B1 0
5 *5474:B *563:8 0.000112058
6 *562:10 *5473:B 1.54556e-05
7 *562:10 *5476:B1 0
8 *562:10 *1119:31 0
9 *562:10 *1120:8 8.01211e-05
10 *562:10 *1120:47 0
*RES
1 *5473:Y *562:10 42.8634 
2 *562:10 *5474:B 40.9682 
*END

*D_NET *563 0.00272862
*CONN
*I *5484:A1 I *D sg13g2_a21oi_1
*I *5476:B1 I *D sg13g2_a221oi_1
*I *5474:Y O *D sg13g2_nand2_1
*CAP
1 *5484:A1 0.000412866
2 *5476:B1 0.000380427
3 *5474:Y 0.000201753
4 *563:8 0.000995047
5 *5476:B1 *5459:A 4.77425e-05
6 *5476:B1 *5459:C 0
7 *5476:B1 *5473:B 0
8 *5476:B1 *5473:C 4.77425e-05
9 *5476:B1 *5476:A2 0
10 *5476:B1 *699:20 0
11 *5476:B1 *1120:8 0
12 *5484:A1 *5483:A1 0
13 *5484:A1 *5484:A2 0.000209763
14 *5484:A1 *649:21 0
15 *5484:A1 *699:20 0
16 *5484:A1 *1120:8 0
17 *5484:A1 *1120:47 0
18 *563:8 *5459:C 0
19 *563:8 *5483:A1 0.000273467
20 *5474:B *5476:B1 0
21 *5474:B *563:8 0.000112058
22 *5476:A1 *5476:B1 4.77534e-05
23 *5483:A2 *5484:A1 0
24 *562:10 *5476:B1 0
*RES
1 *5474:Y *563:8 22.7707 
2 *563:8 *5476:B1 23.914 
3 *563:8 *5484:A1 24.429 
*END

*D_NET *564 0.000225894
*CONN
*I *5476:A2 I *D sg13g2_a221oi_1
*I *5475:Y O *D sg13g2_nor4_1
*CAP
1 *5476:A2 0.000112947
2 *5475:Y 0.000112947
3 *5476:A2 *5459:C 0
4 *5476:B1 *5476:A2 0
*RES
1 *5475:Y *5476:A2 41.1845 
*END

*D_NET *565 0.00135181
*CONN
*I *5477:B I *D sg13g2_nor2_1
*I *5476:Y O *D sg13g2_a221oi_1
*CAP
1 *5477:B 7.14919e-05
2 *5476:Y 0.000604414
3 *565:8 0.000675905
4 *5477:B *720:12 0
5 *565:8 *693:20 0
*RES
1 *5476:Y *565:8 46.5302 
2 *565:8 *5477:B 40.7519 
*END

*D_NET *566 0.000517592
*CONN
*I *5479:A2 I *D sg13g2_a21oi_1
*I *5478:Y O *D sg13g2_nand2_1
*CAP
1 *5479:A2 0
2 *5478:Y 0.000258796
3 *566:8 0.000258796
4 *566:8 *830:10 0
5 *566:8 *1118:16 0
6 *561:8 *566:8 0
*RES
1 *5478:Y *566:8 42.3278 
2 *566:8 *5479:A2 40 
*END

*D_NET *567 0.00113159
*CONN
*I *5482:A1 I *D sg13g2_a21oi_1
*I *5480:Y O *D sg13g2_o21ai_1
*CAP
1 *5482:A1 3.56524e-05
2 *5480:Y 0.000242055
3 *567:8 0.000277707
4 *567:8 *5481:B 0.000234224
5 *226:8 *567:8 0.00034195
*RES
1 *5480:Y *567:8 42.8222 
2 *567:8 *5482:A1 40.3193 
*END

*D_NET *568 0.00112347
*CONN
*I *5482:A2 I *D sg13g2_a21oi_1
*I *5481:X O *D sg13g2_or3_1
*CAP
1 *5482:A2 0.000179575
2 *5481:X 0.000212019
3 *568:10 0.000391593
4 *5482:A2 *605:43 0
5 *568:10 *5481:A 0
6 *568:10 *5993:A 0
7 *568:10 *1119:10 0.000340288
8 *5482:B1 *568:10 0
9 *69:34 *5482:A2 0
10 *556:25 *568:10 0
*RES
1 *5481:X *568:10 42.1218 
2 *568:10 *5482:A2 41.5347 
*END

*D_NET *569 0.000480655
*CONN
*I *5484:A2 I *D sg13g2_a21oi_1
*I *5483:Y O *D sg13g2_o21ai_1
*CAP
1 *5484:A2 0.000135446
2 *5483:Y 0.000135446
3 *5483:A2 *5484:A2 0
4 *5484:A1 *5484:A2 0.000209763
5 *557:12 *5484:A2 0
*RES
1 *5483:Y *5484:A2 41.4008 
*END

*D_NET *570 0.00259164
*CONN
*I *5487:A1 I *D sg13g2_a21oi_1
*I *5489:B1 I *D sg13g2_a22oi_1
*I *5485:Y O *D sg13g2_nand3_1
*CAP
1 *5487:A1 0.000249159
2 *5489:B1 0.000579425
3 *5485:Y 0.00078094
4 *570:24 0.000450674
5 *5487:A1 *5487:A2 1.54556e-05
6 *5487:A1 *714:99 0
7 *5487:A1 *1006:28 0
8 *5489:B1 *5489:B2 0
9 *5489:B1 *698:33 0
10 *5489:A2 *5489:B1 0
11 *552:10 *5489:B1 0.000403564
12 *552:14 *5489:B1 0.00011242
*RES
1 *5485:Y *5489:B1 45.9637 
2 *5485:Y *570:24 41.8334 
3 *570:24 *5487:A1 42.266 
*END

*D_NET *571 0.00226397
*CONN
*I *5487:A2 I *D sg13g2_a21oi_1
*I *5489:B2 I *D sg13g2_a22oi_1
*I *5486:Y O *D sg13g2_nand3_1
*CAP
1 *5487:A2 0.000420685
2 *5489:B2 0.000243727
3 *5486:Y 0.000105564
4 *571:8 0.000769975
5 *5487:A2 *714:99 0.000436823
6 *5487:A2 *1006:28 0
7 *5489:B2 *573:10 1.54556e-05
8 *5489:B2 *698:33 0
9 *571:8 *5486:B 0
10 *571:8 *1011:33 0.000128248
11 *5487:A1 *5487:A2 1.54556e-05
12 *5489:B1 *5489:B2 0
13 *5489:A2 *5489:B2 4.78195e-05
14 *5535:A *5487:A2 8.0216e-05
15 *5535:A *5489:B2 0
16 *228:10 *5487:A2 0
17 *556:36 *5489:B2 0
*RES
1 *5486:Y *571:8 41.339 
2 *571:8 *5489:B2 42.1527 
3 *571:8 *5487:A2 44.429 
*END

*D_NET *572 0.00215207
*CONN
*I *5490:A2 I *D sg13g2_a21o_1
*I *5488:Y O *D sg13g2_nor3_1
*CAP
1 *5490:A2 0.000445264
2 *5488:Y 0.000144826
3 *572:8 0.00059009
4 *5490:A2 *5490:A1 0.000242137
5 *5490:A2 *573:10 0
6 *5490:A2 *615:8 0.000729751
7 *572:8 *698:39 0
8 *572:8 *1009:14 0
*RES
1 *5488:Y *572:8 41.339 
2 *572:8 *5490:A2 44.8719 
*END

*D_NET *573 0.00298386
*CONN
*I *5490:B1 I *D sg13g2_a21o_1
*I *5489:Y O *D sg13g2_a22oi_1
*CAP
1 *5490:B1 0
2 *5489:Y 0.00103128
3 *573:10 0.00103128
4 *573:10 *5490:A1 0.000242313
5 *573:10 *5927:A 0
6 *573:10 *615:8 0
7 *573:10 *698:33 0.000663527
8 *5489:B2 *573:10 1.54556e-05
9 *5489:A2 *573:10 0
10 *5490:A2 *573:10 0
11 *229:10 *573:10 0
*RES
1 *5489:Y *573:10 30.815 
2 *573:10 *5490:B1 20 
*END

*D_NET *574 0.000900985
*CONN
*I *5493:C I *D sg13g2_nor4_1
*I *5491:Y O *D sg13g2_nor4_1
*CAP
1 *5493:C 5.32671e-05
2 *5491:Y 0.000153958
3 *574:10 0.000207225
4 *5493:C *5493:D 8.02269e-05
5 *574:10 *5491:D 0.000112563
6 *574:10 *5493:B 0.000159096
7 *574:10 *680:104 0
8 *574:10 *1001:67 0
9 *574:10 *1006:44 2.20966e-05
10 *5534:B1 *5493:C 0
11 *5534:B1 *574:10 0.000112552
*RES
1 *5491:Y *574:10 41.8437 
2 *574:10 *5493:C 40.5356 
*END

*D_NET *575 0.000412071
*CONN
*I *5493:D I *D sg13g2_nor4_1
*I *5492:Y O *D sg13g2_nor2_1
*CAP
1 *5493:D 0.000165922
2 *5492:Y 0.000165922
3 *5493:D *5493:A 0
4 *5493:D *650:59 0
5 *5493:C *5493:D 8.02269e-05
6 *5534:B1 *5493:D 0
7 *5827:D *5493:D 0
*RES
1 *5492:Y *5493:D 41.6486 
*END

*D_NET *576 0.000593658
*CONN
*I *5496:C I *D sg13g2_nor4_1
*I *5494:Y O *D sg13g2_nor2_1
*CAP
1 *5496:C 0.000200981
2 *5494:Y 0.000200981
3 *5496:C *5494:B 0
4 *5496:C *5496:B 0.000143861
5 *5496:C *5496:D 4.78356e-05
6 *5496:C *5829:RESET_B 0
7 *5496:C *1001:61 0
8 *5829:D *5496:C 0
*RES
1 *5494:Y *5496:C 41.9982 
*END

*D_NET *577 0.000685878
*CONN
*I *5496:D I *D sg13g2_nor4_1
*I *5495:Y O *D sg13g2_nor4_1
*CAP
1 *5496:D 0.000319021
2 *5495:Y 0.000319021
3 *5496:D *5491:D 0
4 *5496:D *5496:B 0
5 *5496:D *5829:RESET_B 0
6 *5496:D *1001:61 0
7 *5496:D *1008:63 0
8 *5496:C *5496:D 4.78356e-05
*RES
1 *5495:Y *5496:D 43.0488 
*END

*D_NET *578 0.000398673
*CONN
*I *5499:C I *D sg13g2_nor4_1
*I *5497:Y O *D sg13g2_nor2_1
*CAP
1 *5499:C 0.000167737
2 *5497:Y 0.000167737
3 *5499:C *5498:B 0
4 *5499:C *5499:B 4.77425e-05
5 *5499:C *5499:D 1.54556e-05
*RES
1 *5497:Y *5499:C 42.0497 
*END

*D_NET *579 0.000599736
*CONN
*I *5499:D I *D sg13g2_nor4_1
*I *5498:Y O *D sg13g2_nor4_1
*CAP
1 *5499:D 0.00029214
2 *5498:Y 0.00029214
3 *5499:D *5498:B 0
4 *5499:D *5499:B 0
5 *5499:D *5501:A 0
6 *5499:C *5499:D 1.54556e-05
*RES
1 *5498:Y *5499:D 42.6265 
*END

*D_NET *580 0.00044835
*CONN
*I *5502:C I *D sg13g2_nor4_1
*I *5500:Y O *D sg13g2_nor2_1
*CAP
1 *5502:C 0
2 *5500:Y 0.000133535
3 *580:8 0.000133535
4 *580:8 *693:73 0
5 *580:8 *1001:16 0.00018128
*RES
1 *5500:Y *580:8 41.339 
2 *580:8 *5502:C 40 
*END

*D_NET *581 0.00132824
*CONN
*I *5502:D I *D sg13g2_nor4_1
*I *5501:Y O *D sg13g2_nor4_1
*CAP
1 *5502:D 0.000100366
2 *5501:Y 0.000188091
3 *581:8 0.000288457
4 *5502:D *5502:A 0
5 *5502:D *5502:B 0
6 *5502:D *714:26 0.00014496
7 *581:8 *648:63 0
8 *581:8 *693:73 0.000606364
9 *581:8 *1001:28 0
*RES
1 *5501:Y *581:8 42.8222 
2 *581:8 *5502:D 40.9682 
*END

*D_NET *582 0.000530407
*CONN
*I *5505:C I *D sg13g2_nor4_1
*I *5503:Y O *D sg13g2_nor2_1
*CAP
1 *5505:C 0.000241327
2 *5503:Y 0.000241327
3 *5505:C *5503:A 0
4 *5505:C *5505:B 4.77534e-05
5 *5505:C *5507:B 0
6 *5505:C *5817:CLK 0
7 *5505:C *693:35 0
*RES
1 *5503:Y *5505:C 42.4617 
*END

*D_NET *583 0.00121795
*CONN
*I *5505:D I *D sg13g2_nor4_1
*I *5504:Y O *D sg13g2_nor4_1
*CAP
1 *5505:D 0.000266814
2 *5504:Y 9.89312e-05
3 *583:10 0.000365746
4 *5505:D *5505:B 0.000177109
5 *5505:D *5507:A 4.77425e-05
6 *5505:D *5507:B 8.00521e-05
7 *5505:D *693:43 0
8 *583:10 *5507:A 0.000181559
9 *583:10 *714:26 0
10 *583:10 *1006:60 0
*RES
1 *5504:Y *583:10 41.1948 
2 *583:10 *5505:D 42.7192 
*END

*D_NET *584 0.00100265
*CONN
*I *5508:C I *D sg13g2_nor4_1
*I *5506:Y O *D sg13g2_nor2_1
*CAP
1 *5508:C 0
2 *5506:Y 0.000274251
3 *584:10 0.000274251
4 *584:10 *5837:RESET_B 0
5 *584:10 *5837:CLK 0.000341534
6 *584:10 *6084:A 0
7 *584:10 *699:30 0.000112618
*RES
1 *5506:Y *584:10 43.2033 
2 *584:10 *5508:C 40 
*END

*D_NET *585 0.00138998
*CONN
*I *5508:D I *D sg13g2_nor4_1
*I *5507:Y O *D sg13g2_nor4_1
*CAP
1 *5508:D 0.000293824
2 *5507:Y 0.000401167
3 *585:8 0.000694991
4 *5508:D *648:32 0
5 *5508:D *699:30 0
6 *5508:D *1006:77 0
7 *585:8 *614:21 0
8 *5837:D *5508:D 0
9 *234:8 *585:8 0
*RES
1 *5507:Y *585:8 44.3054 
2 *585:8 *5508:D 43.1312 
*END

*D_NET *586 0.0163596
*CONN
*I *5511:B I *D sg13g2_nor2_1
*I *5514:B I *D sg13g2_nor2_1
*I *5517:B I *D sg13g2_nor2_1
*I *5520:B I *D sg13g2_nor2_1
*I *5523:B I *D sg13g2_nor2_1
*I *5526:B I *D sg13g2_nor2_1
*I *5532:B I *D sg13g2_nor2_1
*I *5529:B I *D sg13g2_nor2_1
*I *5509:Y O *D sg13g2_nor3_1
*CAP
1 *5511:B 8.84987e-05
2 *5514:B 0.000256208
3 *5517:B 0.000135538
4 *5520:B 3.05455e-05
5 *5523:B 0
6 *5526:B 2.99859e-05
7 *5532:B 0.000431626
8 *5529:B 0.000234145
9 *5509:Y 0.000430976
10 *586:111 0.00123736
11 *586:94 0.00175157
12 *586:79 0.00157314
13 *586:64 0.00113307
14 *586:60 0.000436797
15 *586:22 0.00141358
16 *586:14 0.000860017
17 *586:10 0.000390244
18 *5514:B *5514:A 7.99664e-05
19 *5514:B *5515:A 0.000501207
20 *5514:B *701:65 0.000317852
21 *5517:B *5510:A 0
22 *5517:B *1035:28 0
23 *5520:B *679:57 6.4468e-05
24 *5529:B *5530:C 4.74248e-05
25 *5529:B *5851:CLK 0.000111868
26 *5529:B *1039:21 0.000397323
27 *5532:B *602:12 0.000110952
28 *5532:B *605:78 0
29 *5532:B *1039:21 0.000105719
30 *586:10 *5509:A 1.54008e-05
31 *586:10 *678:18 0.000111568
32 *586:10 *679:33 0
33 *586:14 *5527:B 0
34 *586:14 *694:18 0
35 *586:22 *5530:C 0
36 *586:22 *5531:D 0
37 *586:22 *5533:B 7.87562e-05
38 *586:22 *605:78 0
39 *586:22 *679:33 0.000529944
40 *586:60 *5525:C 0.000288852
41 *586:64 *5525:B 0.000208028
42 *586:64 *678:79 0.000143888
43 *586:64 *679:22 0.000529707
44 *586:79 *5525:B 0
45 *586:79 *605:120 0
46 *586:79 *633:15 0.000217122
47 *586:79 *678:87 1.51975e-05
48 *586:79 *679:22 6.4398e-05
49 *586:79 *679:57 0.000272313
50 *586:79 *1037:14 0
51 *586:94 *5845:RESET_B 0.000272522
52 *586:94 *1011:54 0
53 *586:94 *1035:28 0
54 *586:111 *5512:B 0
55 *586:111 *5843:RESET_B 0
56 *586:111 *697:8 0
57 *586:111 *701:63 0.000158578
58 *586:111 *701:65 0.000182216
59 *586:111 *1035:16 0
60 *586:111 *1035:28 0
61 *5845:D *5520:B 1.54008e-05
62 *79:18 *5514:B 0.000819754
63 *79:18 *586:111 0.00026591
*RES
1 *5509:Y *586:10 42.8325 
2 *586:10 *586:14 20.7519 
3 *586:14 *586:22 27.9413 
4 *586:22 *5529:B 43.0797 
5 *586:22 *5532:B 44.0067 
6 *586:14 *5526:B 20.3502 
7 *5509:Y *586:60 41.339 
8 *586:60 *586:64 23.5638 
9 *586:64 *5523:B 20 
10 *586:64 *586:79 7.3428 
11 *586:79 *5520:B 20.5356 
12 *586:79 *586:94 8.0134 
13 *586:94 *5517:B 21.3184 
14 *586:94 *586:111 29.7026 
15 *586:111 *5514:B 44.6968 
16 *586:111 *5511:B 40.8858 
*END

*D_NET *587 0.00131769
*CONN
*I *5512:B I *D sg13g2_nor3_1
*I *5510:Y O *D sg13g2_nor4_1
*CAP
1 *5512:B 0.000611184
2 *5510:Y 0.000611184
3 *5512:B *5512:C 1.54008e-05
4 *5512:B *5516:B 0
5 *5512:B *5518:C 0
6 *5512:B *591:10 7.99179e-05
7 *5512:B *697:8 0
8 *5512:B *698:18 0
9 *5512:B *1011:65 0
10 *5512:B *1011:78 0
11 *5512:B *1035:16 0
12 *586:111 *5512:B 0
*RES
1 *5510:Y *5512:B 45.8916 
*END

*D_NET *588 0.000245825
*CONN
*I *5512:C I *D sg13g2_nor3_1
*I *5511:Y O *D sg13g2_nor2_1
*CAP
1 *5512:C 0.000107512
2 *5511:Y 0.000107512
3 *5512:B *5512:C 1.54008e-05
4 *5839:D *5512:C 1.54008e-05
*RES
1 *5511:Y *5512:C 41.133 
*END

*D_NET *589 0.000555913
*CONN
*I *5515:B I *D sg13g2_nor3_1
*I *5513:Y O *D sg13g2_nor4_1
*CAP
1 *5515:B 0.000277957
2 *5513:Y 0.000277957
3 *5515:B *5513:A 0
4 *5515:B *5513:B 0
*RES
1 *5513:Y *5515:B 43.2136 
*END

*D_NET *590 0.000584954
*CONN
*I *5515:C I *D sg13g2_nor3_1
*I *5514:Y O *D sg13g2_nor2_1
*CAP
1 *5515:C 0
2 *5514:Y 0.000231124
3 *590:12 0.000231124
4 *590:12 *5515:A 0
5 *79:12 *590:12 4.77425e-05
6 *79:18 *590:12 7.49633e-05
*RES
1 *5514:Y *590:12 42.472 
2 *590:12 *5515:C 40 
*END

*D_NET *591 0.000692197
*CONN
*I *5518:B I *D sg13g2_nor3_1
*I *5516:Y O *D sg13g2_nor4_1
*CAP
1 *5518:B 0
2 *5516:Y 0.000220577
3 *591:10 0.000220577
4 *591:10 *1011:65 7.9841e-05
5 *591:10 *1011:78 1.54008e-05
6 *5512:B *591:10 7.99179e-05
7 *238:8 *591:10 7.58826e-05
*RES
1 *5516:Y *591:10 41.8746 
2 *591:10 *5518:B 40 
*END

*D_NET *592 0.000394575
*CONN
*I *5518:C I *D sg13g2_nor3_1
*I *5517:Y O *D sg13g2_nor2_1
*CAP
1 *5518:C 0.000197287
2 *5517:Y 0.000197287
3 *5518:C *698:8 0
4 *5518:C *1035:16 0
5 *5512:B *5518:C 0
*RES
1 *5517:Y *5518:C 41.751 
*END

*D_NET *593 0.000869259
*CONN
*I *5521:B I *D sg13g2_nor3_1
*I *5519:Y O *D sg13g2_nor4_1
*CAP
1 *5521:B 0.000218168
2 *5519:Y 0.000218168
3 *5521:B *679:57 0.000272915
4 *5521:B *682:10 1.54008e-05
5 *5521:B *1011:54 0.000144608
*RES
1 *5519:Y *5521:B 42.266 
*END

*D_NET *594 0.000696327
*CONN
*I *5521:C I *D sg13g2_nor3_1
*I *5520:Y O *D sg13g2_nor2_1
*CAP
1 *5521:C 0
2 *5520:Y 0.000172461
3 *594:12 0.000172461
4 *594:12 *679:57 0.000175664
5 *5845:D *594:12 0.000175742
*RES
1 *5520:Y *594:12 42.0703 
2 *594:12 *5521:C 40 
*END

*D_NET *595 0.00201568
*CONN
*I *5524:B I *D sg13g2_nor3_1
*I *5522:Y O *D sg13g2_nor4_1
*CAP
1 *5524:B 0.000639789
2 *5522:Y 0.000639789
3 *5524:B *5524:C 1.54008e-05
4 *5524:B *5847:RESET_B 0
5 *5524:B *5963:A 0.000720699
6 *5847:D *5524:B 0
*RES
1 *5522:Y *5524:B 46.7387 
*END

*D_NET *596 0.000704812
*CONN
*I *5524:C I *D sg13g2_nor3_1
*I *5523:Y O *D sg13g2_nor2_1
*CAP
1 *5524:C 2.97706e-05
2 *5523:Y 0.000172596
3 *596:8 0.000202367
4 *596:8 *5524:A 0.000284678
5 *596:8 *678:79 0
6 *5524:B *5524:C 1.54008e-05
*RES
1 *5523:Y *596:8 42.0806 
2 *596:8 *5524:C 40.3193 
*END

*D_NET *597 0.000467735
*CONN
*I *5527:B I *D sg13g2_nor3_1
*I *5525:Y O *D sg13g2_nor4_1
*CAP
1 *5527:B 0.000226167
2 *5525:Y 0.000226167
3 *5527:B *5527:C 1.54008e-05
4 *5527:B *605:120 0
5 *5527:B *679:33 0
6 *5527:B *694:18 0
7 *5849:D *5527:B 0
8 *586:14 *5527:B 0
*RES
1 *5525:Y *5527:B 42.2666 
*END

*D_NET *598 0.000247722
*CONN
*I *5527:C I *D sg13g2_nor3_1
*I *5526:Y O *D sg13g2_nor2_1
*CAP
1 *5527:C 0.000116161
2 *5526:Y 0.000116161
3 *5527:B *5527:C 1.54008e-05
*RES
1 *5526:Y *5527:C 41.133 
*END

*D_NET *599 0.00069546
*CONN
*I *5530:B I *D sg13g2_nor3_1
*I *5528:Y O *D sg13g2_nor4_1
*CAP
1 *5530:B 0.000340047
2 *5528:Y 0.000340047
3 *5530:B *5528:D 1.53662e-05
4 *5530:B *678:18 0
5 *5530:B *681:22 0
6 *5530:B *694:41 0
7 *5530:B *694:45 0
*RES
1 *5528:Y *5530:B 43.4608 
*END

*D_NET *600 0.000888748
*CONN
*I *5530:C I *D sg13g2_nor3_1
*I *5529:Y O *D sg13g2_nor2_1
*CAP
1 *5530:C 0.000412961
2 *5529:Y 0.000412961
3 *5530:C *694:45 0
4 *5530:C *1039:21 1.54008e-05
5 *5529:B *5530:C 4.74248e-05
6 *586:22 *5530:C 0
*RES
1 *5529:Y *5530:C 44.1612 
*END

*D_NET *601 0.00198694
*CONN
*I *5533:B I *D sg13g2_nor3_1
*I *5531:Y O *D sg13g2_nor4_1
*CAP
1 *5533:B 0.000306458
2 *5531:Y 0.000239601
3 *601:12 0.000546059
4 *5533:B *5729:CLK 0.000336579
5 *5533:B *6054:A 7.99179e-05
6 *5533:B *605:82 0
7 *5533:B *1039:6 9.54285e-05
8 *5533:B *1039:21 0
9 *601:12 *1039:34 0.000304144
10 *5853:D *5533:B 0
11 *586:22 *5533:B 7.87562e-05
*RES
1 *5531:Y *601:12 42.5029 
2 *601:12 *5533:B 43.3475 
*END

*D_NET *602 0.0015813
*CONN
*I *5533:C I *D sg13g2_nor3_1
*I *5532:Y O *D sg13g2_nor2_1
*CAP
1 *5533:C 0
2 *5532:Y 0.000663467
3 *602:12 0.000663467
4 *602:12 *5532:A 0.000143413
5 *602:12 *5853:RESET_B 0
6 *602:12 *605:78 0
7 *602:12 *605:82 0
8 *602:12 *606:6 0
9 *5532:B *602:12 0.000110952
*RES
1 *5532:Y *602:12 46.2418 
2 *602:12 *5533:C 40 
*END

*D_NET *603 0.00050328
*CONN
*I *5535:C I *D sg13g2_and4_1
*I *5534:Y O *D sg13g2_o21ai_1
*CAP
1 *5535:C 0.000236239
2 *5534:Y 0.000236239
3 *5535:C *5535:D 1.54008e-05
4 *5535:C *6007:A 0
5 *5535:C *1006:28 0
6 *5534:B1 *5535:C 0
7 *5535:B *5535:C 1.54008e-05
*RES
1 *5534:Y *5535:C 42.4926 
*END

*D_NET *604 0.00110871
*CONN
*I *5537:B I *D sg13g2_nor2_1
*I *5536:Y O *D sg13g2_o21ai_1
*CAP
1 *5537:B 4.95631e-05
2 *5536:Y 0.000419367
3 *604:10 0.00046893
4 *5537:B *5476:C1 0
5 *5537:B *699:20 8.02379e-05
6 *604:10 *5536:A2 0
7 *604:10 *649:63 0
8 *604:10 *698:24 0
9 *604:10 *1041:18 0
10 *5536:B1 *604:10 1.54008e-05
11 *245:8 *604:10 7.52158e-05
*RES
1 *5536:Y *604:10 44.0994 
2 *604:10 *5537:B 40.5356 
*END

*D_NET *605 0.0579725
*CONN
*I *5885:A I *D sg13g2_buf_8
*I *5886:A I *D sg13g2_buf_8
*I *5888:A I *D sg13g2_buf_8
*I *5887:A I *D sg13g2_buf_8
*I *5897:A I *D sg13g2_buf_8
*I *5884:A I *D sg13g2_buf_8
*I *5883:A I *D sg13g2_buf_8
*I *5896:A I *D sg13g2_buf_8
*I *5891:A I *D sg13g2_buf_8
*I *5893:A I *D sg13g2_buf_8
*I *5894:A I *D sg13g2_buf_8
*I *5895:A I *D sg13g2_buf_8
*I *5892:A I *D sg13g2_buf_8
*I *5889:A I *D sg13g2_buf_8
*I *5882:A I *D sg13g2_buf_8
*I *5890:A I *D sg13g2_buf_8
*I *5881:X O *D sg13g2_buf_8
*CAP
1 *5885:A 4.22862e-05
2 *5886:A 5.17238e-05
3 *5888:A 0.000111262
4 *5887:A 0
5 *5897:A 0
6 *5884:A 0
7 *5883:A 0
8 *5896:A 0
9 *5891:A 8.00875e-05
10 *5893:A 0.000154554
11 *5894:A 0
12 *5895:A 0
13 *5892:A 0
14 *5889:A 0.000114109
15 *5882:A 0
16 *5890:A 0.000134674
17 *5881:X 0.000173888
18 *605:337 0.000861317
19 *605:332 0.000809594
20 *605:330 0.000104095
21 *605:326 0.00084987
22 *605:312 0.000353485
23 *605:307 0.000370204
24 *605:300 0.00023265
25 *605:296 0.000907086
26 *605:292 0.0039152
27 *605:265 3.21322e-05
28 *605:253 0.000517319
29 *605:251 0.000549451
30 *605:249 0.00152507
31 *605:235 0.000245279
32 *605:233 0.00238801
33 *605:231 0.004478
34 *605:229 0.00386033
35 *605:227 0.00361258
36 *605:214 0.00137647
37 *605:198 0.00011347
38 *605:186 0.0008567
39 *605:165 0.000414358
40 *605:160 0.000414358
41 *605:158 8.81724e-05
42 *605:154 0.00165121
43 *605:137 0.00168248
44 *605:130 0.000173082
45 *605:124 0.00330189
46 *605:120 0.00460377
47 *605:96 0.000261642
48 *605:89 0.000233968
49 *605:82 0.000217747
50 *605:78 0.000724061
51 *605:66 0.00453425
52 *605:60 0.00231118
53 *605:43 0.00193895
54 *605:35 0.00396278
55 *605:6 0.00263774
56 *5886:A *610:8 0
57 *5888:A *611:6 0
58 *5888:A *667:44 0
59 *5890:A *680:56 0
60 *5891:A *5498:C 0
61 *5891:A *1001:61 0
62 *5891:A *1006:50 0
63 *5893:A *6041:A 0
64 *5893:A *712:42 0
65 *605:35 *5481:A 0
66 *605:35 *5809:RESET_B 0
67 *605:35 *5819:RESET_B 0
68 *605:35 *5993:A 0
69 *605:35 *651:14 0
70 *605:35 *651:27 0
71 *605:35 *719:43 0
72 *605:35 *1007:16 0
73 *605:43 *5472:A 0
74 *605:43 *680:56 0
75 *605:43 *714:26 0
76 *605:43 *714:69 0
77 *605:43 *1008:25 0
78 *605:43 *1008:27 0
79 *605:60 *680:24 0
80 *605:60 *680:26 0
81 *605:66 *5496:B 0
82 *605:66 *5498:B 0
83 *605:66 *5498:C 0
84 *605:66 *678:22 0
85 *605:66 *693:88 0
86 *605:66 *1006:50 0
87 *605:66 *1008:63 0
88 *605:66 *1024:18 0
89 *605:66 *1130:8 0
90 *605:78 *5531:D 0
91 *605:78 *5853:RESET_B 0
92 *605:78 *6054:A 0
93 *605:82 *606:6 0
94 *605:120 *5525:B 0
95 *605:120 *5525:C 0
96 *605:120 *5525:D 0
97 *605:120 *5531:D 0
98 *605:120 *5849:RESET_B 0
99 *605:120 *5909:A 0
100 *605:120 *633:15 0
101 *605:120 *678:41 0
102 *605:120 *1037:8 0
103 *605:124 *5845:CLK 0
104 *605:124 *616:12 0
105 *605:124 *652:8 0
106 *605:124 *652:30 0
107 *605:124 *684:10 0
108 *605:124 *764:10 0
109 *605:124 *1036:10 0
110 *605:130 *5709:CLK 0
111 *605:137 *5709:CLK 0
112 *605:137 *616:8 0
113 *605:154 *5343:B 0
114 *605:154 *5344:A1 0
115 *605:154 *5344:A2 0
116 *605:154 *5368:A1 0
117 *605:154 *5707:RESET_B 0
118 *605:154 *5707:CLK 0
119 *605:154 *5709:CLK 0
120 *605:154 *5725:RESET_B 0
121 *605:158 *5368:A1 0
122 *605:165 *984:30 0
123 *605:165 *1030:41 0
124 *605:186 *5929:A 0
125 *605:186 *6041:A 0
126 *605:186 *616:12 0
127 *605:186 *712:36 0
128 *605:186 *712:42 0
129 *605:186 *764:10 0
130 *605:198 *5498:C 0
131 *605:198 *1006:50 0
132 *605:214 *700:44 0
133 *605:227 *5033:B 0
134 *605:227 *5035:A1 0
135 *605:227 *700:34 0
136 *605:227 *700:42 0
137 *605:227 *700:44 0
138 *605:227 *715:39 0
139 *605:227 *715:49 0
140 *605:227 *1048:23 0
141 *605:227 *1048:29 0
142 *605:231 *5218:D 0
143 *605:231 *5639:CLK 0
144 *605:231 *632:54 0
145 *605:231 *638:29 0
146 *605:231 *715:21 0
147 *605:231 *1012:44 0
148 *605:231 *1095:10 0
149 *605:231 *1095:18 0
150 *605:231 *1095:55 0
151 *605:233 *5274:B 0
152 *605:249 *657:41 0
153 *605:249 *705:37 0
154 *605:253 *1091:62 0
155 *605:265 *705:113 0
156 *605:265 *1091:62 0
157 *605:292 *5448:A_N 0
158 *605:292 *5873:RESET_B 0
159 *605:292 *700:12 0
160 *605:292 *700:24 0
161 *605:292 *715:78 0
162 *605:292 *718:34 0
163 *605:292 *1045:16 0
164 *605:292 *1046:6 0
165 *605:296 *5156:A 0
166 *605:296 *5279:B 0
167 *605:296 *5859:RESET_B 0
168 *605:296 *5859:D 0
169 *605:296 *642:57 0
170 *605:296 *645:31 0
171 *605:296 *667:44 0
172 *605:296 *997:28 0
173 *605:300 *667:44 0
174 *605:300 *997:28 0
175 *605:307 *611:6 0
176 *605:307 *667:44 0
177 *605:307 *997:28 0
178 *605:312 *611:6 0
179 *605:312 *667:44 0
180 *605:326 *1045:10 0
181 *605:326 *1045:14 0
182 *605:326 *1045:16 0
183 *605:326 *1049:37 0
184 *605:330 *609:8 0
185 *5035:A2 *605:227 0
186 *5037:A2 *605:292 0
187 *5066:A2 *605:292 0
188 *5070:A2 *605:227 0
189 *5220:A1 *605:231 0
190 *5369:A *605:154 0
191 *5369:A *605:158 0
192 *5369:C *605:154 0
193 *5372:C *605:130 0
194 *5482:A2 *605:43 0
195 *5482:B1 *605:43 0
196 *5527:B *605:120 0
197 *5532:B *605:78 0
198 *5533:B *605:82 0
199 *5725:D *605:137 0
200 *5725:D *605:154 0
201 *5739:D *5885:A 0
202 *5819:D *605:35 0
203 *5849:D *605:120 0
204 *5853:D *605:78 0
205 *5853:D *605:82 0
206 *5873:D *605:292 0
207 *5881:A *605:6 0
208 *6043:A *605:154 0
209 *69:34 *605:6 0
210 *69:34 *605:35 0
211 *69:34 *605:43 0
212 *221:10 *605:35 0
213 *242:8 *605:66 0
214 *260:8 *605:231 0
215 *260:8 *605:233 0
216 *260:8 *605:235 0
217 *266:10 *605:292 0
218 *266:14 *605:227 0
219 *266:14 *605:292 0
220 *286:61 *605:231 0
221 *295:10 *605:231 0
222 *348:32 *605:253 0
223 *385:26 *605:231 0
224 *385:26 *605:233 0
225 *385:37 *605:231 0
226 *410:20 *605:233 0
227 *410:20 *605:235 0
228 *486:10 *605:154 0
229 *502:8 *605:165 0
230 *551:18 *605:43 0
231 *586:22 *605:78 0
232 *586:79 *605:120 0
233 *602:12 *605:78 0
234 *602:12 *605:82 0
*RES
1 *5881:X *605:6 20.9682 
2 *605:6 *605:35 44.685 
3 *605:35 *605:43 33.1325 
4 *605:43 *5890:A 21.1845 
5 *605:43 *605:60 44.5526 
6 *605:60 *605:66 38.6236 
7 *605:66 *605:78 25.301 
8 *605:78 *605:82 1.1845 
9 *605:82 *5882:A 20 
10 *605:82 *605:89 1.04288 
11 *605:89 *605:96 1.64542 
12 *605:96 *5889:A 21.1845 
13 *605:66 *605:120 41.3519 
14 *605:120 *605:124 42.351 
15 *605:124 *605:130 20.5356 
16 *605:130 *5892:A 20 
17 *605:130 *605:137 1.1536 
18 *605:137 *605:154 15.862 
19 *605:154 *605:158 0.9682 
20 *605:158 *605:160 20 
21 *605:160 *605:165 4.3054 
22 *605:165 *5895:A 40 
23 *605:158 *5894:A 20 
24 *605:124 *605:186 26.3551 
25 *605:186 *5893:A 21.1845 
26 *605:60 *605:198 0.3193 
27 *605:198 *5891:A 20.9682 
28 *5881:X *605:214 20.9682 
29 *605:214 *605:227 12.2267 
30 *605:227 *605:229 20 
31 *605:229 *605:231 37.4302 
32 *605:231 *605:233 5.047 
33 *605:233 *605:235 2.0806 
34 *605:235 *5896:A 40 
35 *605:233 *605:249 35.6766 
36 *605:249 *605:251 20 
37 *605:251 *605:253 5.7886 
38 *605:253 *5883:A 40 
39 *605:251 *605:265 0.3502 
40 *605:265 *5884:A 40 
41 *605:231 *5897:A 40 
42 *605:227 *605:292 41.7948 
43 *605:292 *605:296 27.8898 
44 *605:296 *605:300 0.9682 
45 *605:300 *5887:A 20 
46 *605:300 *605:307 1.1845 
47 *605:307 *605:312 2.0497 
48 *605:312 *5888:A 20.9682 
49 *605:292 *605:326 28.755 
50 *605:326 *605:330 0.5356 
51 *605:330 *605:332 20 
52 *605:332 *605:337 8.5078 
53 *605:337 *5886:A 40.5356 
54 *605:330 *5885:A 20.5356 
*END

*D_NET *606 0.00429506
*CONN
*I *5909:A I *D sg13g2_buf_8
*I *5898:A I *D sg13g2_buf_8
*I *5882:X O *D sg13g2_buf_8
*CAP
1 *5909:A 0.00101721
2 *5898:A 0
3 *5882:X 0.000410598
4 *606:12 0.000463312
5 *606:6 0.00189112
6 *5909:A *5849:RESET_B 0.000305048
7 *5909:A *678:41 0
8 *5909:A *1019:18 0
9 *606:6 *5532:A 0
10 *606:6 *893:12 0.000207762
11 *606:6 *1019:18 0
12 *606:12 *5532:A 0
13 *606:12 *622:10 0
14 *606:12 *679:35 0
15 *606:12 *917:8 0
16 *458:10 *606:12 0
17 *602:12 *606:6 0
18 *605:82 *606:6 0
19 *605:120 *5909:A 0
*RES
1 *5882:X *606:6 23.9964 
2 *606:6 *606:12 45.5414 
3 *606:12 *5898:A 20 
4 *606:6 *5909:A 27.2226 
*END

*D_NET *607 0.00367104
*CONN
*I *5911:A I *D sg13g2_buf_8
*I *5910:A I *D sg13g2_buf_8
*I *5883:X O *D sg13g2_buf_8
*CAP
1 *5911:A 0
2 *5910:A 0.000587725
3 *5883:X 0.00163341
4 *607:20 0.00104568
5 *5910:A *5210:C1 0
6 *5910:A *1091:8 0
7 *5910:A *1091:16 0
8 *607:20 *5627:CLK 0
9 *607:20 *1090:8 0
10 *5201:B *607:20 0
11 *5623:D *607:20 0
12 *348:38 *607:20 0
13 *374:16 *607:20 0.000129706
14 *374:20 *607:20 0.000274518
15 *382:10 *5910:A 0
*RES
1 *5883:X *5910:A 45.5105 
2 *5883:X *607:20 31.4845 
3 *607:20 *5911:A 20 
*END

*D_NET *608 0.00481248
*CONN
*I *5912:A I *D sg13g2_buf_8
*I *5913:A I *D sg13g2_buf_8
*I *5884:X O *D sg13g2_buf_8
*CAP
1 *5912:A 0.000120155
2 *5913:A 0.000415445
3 *5884:X 0.000998444
4 *608:10 0.000682613
5 *608:6 0.00114546
6 *5912:A *1004:44 0
7 *5913:A *5100:B1 0
8 *5913:A *5185:B 4.78521e-05
9 *5913:A *1116:18 0.000468492
10 *608:6 *5040:D 0
11 *608:6 *5100:B1 0
12 *608:6 *5206:D 0
13 *608:6 *1088:36 0
14 *608:6 *1090:104 0
15 *608:10 *1004:44 0
16 *5185:C *5913:A 0
17 *270:8 *608:6 0.000306959
18 *370:10 *5912:A 0.000265805
19 *370:10 *608:10 7.34778e-05
20 *370:12 *608:10 0.000287776
*RES
1 *5884:X *608:6 30.0528 
2 *608:6 *608:10 21.5862 
3 *608:10 *5913:A 44.0994 
4 *608:10 *5912:A 41.339 
*END

*D_NET *609 0.00487221
*CONN
*I *5914:A I *D sg13g2_buf_8
*I *5915:A I *D sg13g2_buf_8
*I *5885:X O *D sg13g2_buf_8
*CAP
1 *5914:A 5.42695e-05
2 *5915:A 0.000804673
3 *5885:X 0.000915691
4 *609:10 0.00114996
5 *609:8 0.00120671
6 *5914:A *5281:A1 6.48152e-05
7 *5914:A *1043:32 1.54008e-05
8 *5915:A *5065:B1 0
9 *5915:A *5065:A2 0
10 *5915:A *718:34 0
11 *5915:A *1043:16 0
12 *5915:A *1049:16 0.000532023
13 *609:8 *5665:RESET_B 0
14 *609:8 *5665:CLK 0
15 *609:8 *1043:8 0
16 *609:10 *638:59 0.000128663
17 *609:10 *1020:38 0
18 *609:10 *1043:12 0
19 *5283:B2 *5914:A 0
20 *605:330 *609:8 0
*RES
1 *5885:X *609:8 48.755 
2 *609:8 *609:10 2.8222 
3 *609:10 *5915:A 47.8692 
4 *609:10 *5914:A 40.5356 
*END

*D_NET *610 0.00409932
*CONN
*I *5917:A I *D sg13g2_buf_8
*I *5916:A I *D sg13g2_buf_8
*I *5886:X O *D sg13g2_buf_8
*CAP
1 *5917:A 0.000309097
2 *5916:A 0.000341643
3 *5886:X 5.12664e-05
4 *610:12 0.00173809
5 *610:8 0.00113861
6 *5916:A *5719:RESET_B 0
7 *5916:A *718:51 0
8 *5917:A *5771:RESET_B 0
9 *5917:A *641:8 0
10 *610:8 *5703:D 0
11 *610:12 *641:12 0
12 *610:12 *718:57 0.000181192
13 *5419:A *5917:A 0
14 *5719:D *5916:A 0.00033942
15 *5771:D *5917:A 0
16 *5886:A *610:8 0
*RES
1 *5886:X *610:8 40.5356 
2 *610:8 *610:12 30.4854 
3 *610:12 *5916:A 23.5638 
4 *610:12 *5917:A 22.6986 
*END

*D_NET *611 0.00537627
*CONN
*I *5918:A I *D sg13g2_buf_8
*I *5919:A I *D sg13g2_buf_8
*I *5887:X O *D sg13g2_buf_8
*CAP
1 *5918:A 0
2 *5919:A 0.000698986
3 *5887:X 0.00050437
4 *611:27 0.000579135
5 *611:12 0.00117204
6 *611:6 0.00155655
7 *5919:A *5088:A2 0
8 *5919:A *5450:C 0
9 *5919:A *643:6 0
10 *5919:A *665:40 0
11 *5919:A *665:51 0
12 *5919:A *718:20 0
13 *611:6 *667:44 3.84943e-05
14 *611:6 *997:28 0
15 *611:12 *612:19 0
16 *611:12 *665:30 0
17 *611:12 *665:40 0
18 *611:27 *665:30 0.000714004
19 *611:27 *667:44 0.000112689
20 *611:27 *716:73 0
21 *611:27 *889:8 0
22 *611:27 *909:12 0
23 *611:27 *997:28 0
24 *5888:A *611:6 0
25 *5983:A *611:27 0
26 *605:307 *611:6 0
27 *605:312 *611:6 0
*RES
1 *5887:X *611:6 24.8616 
2 *611:6 *611:12 44.5526 
3 *611:12 *5919:A 26.3757 
4 *611:6 *611:27 48.0237 
5 *611:27 *5918:A 20 
*END

*D_NET *612 0.0052869
*CONN
*I *5922:A I *D sg13g2_buf_8
*I *5921:A I *D sg13g2_buf_8
*I *5888:X O *D sg13g2_buf_8
*CAP
1 *5922:A 0.00042476
2 *5921:A 0.00091803
3 *5888:X 0
4 *612:19 0.00111049
5 *612:4 0.00160377
6 *5921:A *5090:A 0
7 *5921:A *5871:CLK 0.000907402
8 *5921:A *5980:A 0
9 *5921:A *645:12 0
10 *5921:A *645:21 0
11 *5921:A *645:31 0.000274649
12 *5921:A *718:20 0
13 *5921:A *718:22 0
14 *5921:A *997:28 0
15 *5922:A *646:48 0
16 *5922:A *666:28 0
17 *5922:A *1112:8 4.7803e-05
18 *612:19 *5087:A 0
19 *612:19 *665:40 0
20 *261:31 *5922:A 0
21 *611:12 *612:19 0
*RES
1 *5888:X *612:4 20 
2 *612:4 *5921:A 29.9704 
3 *612:4 *612:19 48.0134 
4 *612:19 *5922:A 23.9964 
*END

*D_NET *613 0.00578956
*CONN
*I *5923:A I *D sg13g2_buf_8
*I *5920:A I *D sg13g2_buf_8
*I *5889:X O *D sg13g2_buf_8
*CAP
1 *5923:A 0.000203278
2 *5920:A 0.000191839
3 *5889:X 0.000898789
4 *613:21 0.000871228
5 *613:8 0.00175858
6 *5920:A *644:39 0
7 *5920:A *1068:19 0
8 *5923:A *1083:32 0
9 *613:8 *5533:A 1.54008e-05
10 *613:8 *685:26 0
11 *613:8 *694:87 0
12 *613:21 *5444:A0 0
13 *613:21 *644:63 0.00185045
14 *5378:C *613:8 0
*RES
1 *5889:X *613:8 29.1627 
2 *613:8 *5920:A 22.0497 
3 *613:8 *613:21 48.755 
4 *613:21 *5923:A 22.0497 
*END

*D_NET *614 0.00630914
*CONN
*I *5925:A I *D sg13g2_buf_8
*I *5924:A I *D sg13g2_buf_8
*I *5890:X O *D sg13g2_buf_8
*CAP
1 *5925:A 0.000606837
2 *5924:A 0.00075928
3 *5890:X 0
4 *614:21 0.000930088
5 *614:4 0.00108253
6 *5924:A *714:26 0.000872701
7 *5924:A *1001:28 0
8 *5924:A *1132:8 0.000209593
9 *5924:A *1132:27 0.000492063
10 *5925:A *5817:CLK 0
11 *5925:A *648:32 0.000339393
12 *5925:A *693:43 0
13 *614:21 *5507:A 0.000338868
14 *614:21 *5507:C 0.000340479
15 *614:21 *5507:D 0
16 *614:21 *680:71 0.000209452
17 *614:21 *1024:39 0.000127853
18 *69:22 *5924:A 0
19 *234:8 *614:21 0
20 *585:8 *614:21 0
*RES
1 *5890:X *614:4 20 
2 *614:4 *5924:A 28.5902 
3 *614:4 *614:21 44.3054 
4 *614:21 *5925:A 26.1594 
*END

*D_NET *615 0.00726242
*CONN
*I *5926:A I *D sg13g2_buf_8
*I *5927:A I *D sg13g2_buf_8
*I *5891:X O *D sg13g2_buf_8
*CAP
1 *5926:A 0.000279644
2 *5927:A 0.000559783
3 *5891:X 0.000796968
4 *615:10 0.00090591
5 *615:8 0.000863451
6 *5926:A *5486:B 0.000266492
7 *5926:A *714:82 0.000393736
8 *5926:A *1009:34 0
9 *5926:A *1011:33 0
10 *5927:A *5823:RESET_B 0.000274583
11 *5927:A *1006:28 0.00092208
12 *615:8 *5488:C 0.000792987
13 *615:8 *1006:28 0
14 *615:10 *714:82 0.000235055
15 *615:10 *1009:14 0
16 *5489:A2 *5927:A 0.000241979
17 *5490:A2 *615:8 0.000729751
18 *552:10 *5927:A 0
19 *552:14 *5927:A 0
20 *573:10 *5927:A 0
21 *573:10 *615:8 0
*RES
1 *5891:X *615:8 49.1876 
2 *615:8 *615:10 1.0918 
3 *615:10 *5927:A 46.5096 
4 *615:10 *5926:A 44.0582 
*END

*D_NET *616 0.00595537
*CONN
*I *5929:A I *D sg13g2_buf_8
*I *5928:A I *D sg13g2_buf_8
*I *5892:X O *D sg13g2_buf_8
*CAP
1 *5929:A 0.000628064
2 *5928:A 0
3 *5892:X 5.61573e-05
4 *616:12 0.00100535
5 *616:8 0.00168957
6 *5929:A *5709:CLK 0
7 *5929:A *5933:A 0
8 *5929:A *653:12 0
9 *5929:A *712:36 0.000608768
10 *5929:A *1029:66 0
11 *616:8 *5709:CLK 8.01118e-05
12 *616:12 *652:30 0
13 *616:12 *712:36 0.00188735
14 *605:124 *616:12 0
15 *605:137 *616:8 0
16 *605:186 *5929:A 0
17 *605:186 *616:12 0
*RES
1 *5892:X *616:8 40.5356 
2 *616:8 *616:12 30.7326 
3 *616:12 *5928:A 20 
4 *616:8 *5929:A 46.8186 
*END

*D_NET *617 0.00355773
*CONN
*I *5900:A I *D sg13g2_buf_8
*I *5899:A I *D sg13g2_buf_8
*I *5893:X O *D sg13g2_buf_8
*CAP
1 *5900:A 0.000145243
2 *5899:A 0.000308138
3 *5893:X 0.000998622
4 *617:8 0.00045338
5 *617:6 0.000998622
6 *5899:A *5795:RESET_B 0
7 *5899:A *711:90 0
8 *5899:A *713:39 1.54008e-05
9 *5899:A *964:25 0
10 *5900:A *711:90 0
11 *5900:A *964:25 0
12 *617:6 *5409:B 0
13 *617:6 *5425:B 0.000218998
14 *617:6 *5761:RESET_B 0
15 *617:6 *5777:RESET_B 0
16 *617:6 *712:42 0
17 *617:6 *964:12 0
18 *617:6 *964:25 0
19 *5409:A *617:6 0
20 *5425:A *617:6 0
21 *5761:D *617:6 0.000242187
22 *5777:D *617:6 0.000177142
*RES
1 *5893:X *617:6 30.6679 
2 *617:6 *617:8 20 
3 *617:8 *5899:A 43.3578 
4 *617:8 *5900:A 41.8334 
*END

*D_NET *618 0.00561669
*CONN
*I *5902:A I *D sg13g2_buf_8
*I *5901:A I *D sg13g2_buf_8
*I *5894:X O *D sg13g2_buf_8
*CAP
1 *5902:A 0.000620085
2 *5901:A 0.000378715
3 *5894:X 0.000529022
4 *618:10 0.00152782
5 *5901:A *5741:CLK 0
6 *5901:A *5992:A 0
7 *5901:A *1023:49 0.000288172
8 *5901:A *1023:60 0.00101217
9 *5902:A *5317:A1 0
10 *5902:A *5689:CLK 0
11 *5902:A *673:66 0
12 *5902:A *701:124 0
13 *618:10 *5340:B 5.30319e-05
14 *618:10 *5369:B 0
15 *618:10 *5723:RESET_B 0
16 *618:10 *5723:D 0
17 *618:10 *5741:CLK 0
18 *618:10 *1023:60 0.000609183
19 *618:10 *1023:64 0.000598483
20 *5342:A *5902:A 0
*RES
1 *5894:X *618:10 47.0658 
2 *618:10 *5901:A 46.0358 
3 *618:10 *5902:A 46.1594 
*END

*D_NET *619 0.0038795
*CONN
*I *5903:A I *D sg13g2_buf_8
*I *5904:A I *D sg13g2_buf_8
*I *5895:X O *D sg13g2_buf_8
*CAP
1 *5903:A 6.68694e-05
2 *5904:A 0
3 *5895:X 0.00161724
4 *619:16 0.00155037
5 *619:16 *5404:S 0
6 *619:16 *5405:B 0
7 *619:16 *5438:A1 0
8 *619:16 *5439:B 0
9 *619:16 *663:103 0
10 *619:16 *717:61 0
11 *619:16 *913:10 1.54008e-05
12 *619:16 *970:23 4.78521e-05
13 *5405:A *619:16 0
14 *5421:A *619:16 0.000307216
15 *5439:A *619:16 0.000274545
*RES
1 *5895:X *619:16 36.2843 
2 *619:16 *5904:A 20 
3 *5895:X *5903:A 40.8446 
*END

*D_NET *620 0.00655029
*CONN
*I *5905:A I *D sg13g2_buf_8
*I *5906:A I *D sg13g2_buf_8
*I *5896:X O *D sg13g2_buf_8
*CAP
1 *5905:A 0
2 *5906:A 0
3 *5896:X 8.56297e-05
4 *620:25 0.00124956
5 *620:14 0.000834206
6 *620:8 0.00216939
7 *620:8 *1104:35 0
8 *620:14 *1012:57 0
9 *620:14 *1031:12 0.000181192
10 *620:14 *1105:37 0
11 *620:25 *5657:CLK 0
12 *620:25 *856:10 0.00033953
13 *620:25 *1005:63 0
14 *620:25 *1012:57 0
15 *620:25 *1102:59 0
16 *620:25 *1106:29 0.000760679
17 *5151:A2 *620:14 0
18 *116:16 *620:14 0.000235556
19 *260:8 *620:14 0
20 *260:8 *620:25 0
21 *421:10 *620:8 4.69735e-05
22 *421:10 *620:14 0.000287672
23 *421:10 *620:25 7.51285e-05
24 *422:10 *620:14 0.000284771
*RES
1 *5896:X *620:8 40.7519 
2 *620:8 *620:14 30.1867 
3 *620:14 *5906:A 20 
4 *620:8 *620:25 33.5239 
5 *620:25 *5905:A 20 
*END

*D_NET *621 0.00566806
*CONN
*I *5908:A I *D sg13g2_buf_8
*I *5907:A I *D sg13g2_buf_8
*I *5897:X O *D sg13g2_buf_8
*CAP
1 *5908:A 0
2 *5907:A 0
3 *5897:X 0.000934207
4 *621:24 0.000603788
5 *621:14 0.000879843
6 *621:10 0.00121026
7 *621:10 *1012:57 0
8 *621:24 *1005:49 0
9 *5233:B *621:14 0
10 *5233:C *621:14 0
11 *255:40 *621:24 0.000500605
12 *260:8 *621:10 0
13 *268:24 *621:14 0.000436155
14 *268:24 *621:24 0.000112241
15 *283:12 *621:10 0.000128576
16 *405:18 *621:24 0
17 *406:10 *621:14 0
18 *406:10 *621:24 0.000394248
19 *406:18 *621:24 0.000468139
20 *410:8 *621:14 0
21 *412:60 *621:10 0
*RES
1 *5897:X *621:10 49.4451 
2 *621:10 *621:14 22.9149 
3 *621:14 *621:24 46.6744 
4 *621:24 *5907:A 20 
5 *621:14 *5908:A 20 
*END

*D_NET *622 0.0115654
*CONN
*I *5747:CLK I *D sg13g2_dfrbpq_1
*I *5695:CLK I *D sg13g2_dfrbpq_1
*I *5679:CLK I *D sg13g2_dfrbpq_1
*I *5853:CLK I *D sg13g2_dfrbpq_1
*I *5729:CLK I *D sg13g2_dfrbpq_1
*I *5851:CLK I *D sg13g2_dfrbpq_1
*I *5898:X O *D sg13g2_buf_8
*CAP
1 *5747:CLK 0.000183083
2 *5695:CLK 0.000644836
3 *5679:CLK 0
4 *5853:CLK 0
5 *5729:CLK 0.000874192
6 *5851:CLK 0.000456366
7 *5898:X 0.000964847
8 *622:65 0.001306
9 *622:56 0.000715901
10 *622:12 0.00183046
11 *622:10 0.00122693
12 *5695:CLK *5326:A2 0
13 *5695:CLK *5747:RESET_B 0
14 *5695:CLK *711:10 0
15 *5695:CLK *711:18 0
16 *5729:CLK *5533:A 0.000208132
17 *5729:CLK *6014:A 0
18 *5747:CLK *679:35 0.000586758
19 *5747:CLK *1027:121 0
20 *5851:CLK *694:45 0
21 *5851:CLK *1019:18 0
22 *622:10 *5532:A 0
23 *622:10 *5679:RESET_B 0
24 *622:10 *685:22 0
25 *622:10 *917:8 0
26 *622:10 *1017:62 0
27 *622:10 *1017:75 0
28 *622:10 *1017:79 0
29 *622:10 *1019:18 0
30 *622:10 *1040:8 0.000448428
31 *622:12 *5532:A 0
32 *622:12 *893:12 0
33 *622:12 *1019:18 0
34 *622:56 *5679:RESET_B 0
35 *622:56 *679:35 0.000234727
36 *622:56 *685:22 0
37 *622:65 *679:35 0.00143634
38 *622:65 *1027:121 0
39 *622:65 *1081:8 0
40 *622:65 *1081:21 0
41 *5529:B *5851:CLK 0.000111868
42 *5533:B *5729:CLK 0.000336579
43 *5747:D *5695:CLK 0
44 *606:12 *622:10 0
*RES
1 *5898:X *622:10 47.6838 
2 *622:10 *622:12 4.3054 
3 *622:12 *5851:CLK 44.4084 
4 *622:12 *5729:CLK 49.682 
5 *622:10 *5853:CLK 40 
6 *5898:X *622:56 42.7089 
7 *622:56 *5679:CLK 40 
8 *622:56 *622:65 6.7774 
9 *622:65 *5695:CLK 46.1594 
10 *622:65 *5747:CLK 42.8222 
*END

*D_NET *623 0.00720934
*CONN
*I *5727:CLK I *D sg13g2_dfrbpq_1
*I *5711:CLK I *D sg13g2_dfrbpq_1
*I *5731:CLK I *D sg13g2_dfrbpq_1
*I *5783:CLK I *D sg13g2_dfrbpq_1
*I *5763:CLK I *D sg13g2_dfrbpq_1
*I *5899:X O *D sg13g2_buf_8
*CAP
1 *5727:CLK 0
2 *5711:CLK 0
3 *5731:CLK 0
4 *5783:CLK 0.0007451
5 *5763:CLK 0.000270701
6 *5899:X 2.15935e-05
7 *623:44 0.000203973
8 *623:31 0.00152474
9 *623:27 0.00136569
10 *623:23 0.00118244
11 *623:8 0.000684715
12 *5763:CLK *711:90 0.000395396
13 *5763:CLK *713:39 0.000395896
14 *5763:CLK *1019:71 0
15 *5783:CLK *5380:A2 0
16 *5783:CLK *5731:RESET_B 0
17 *5783:CLK *5783:RESET_B 0
18 *623:8 *711:90 0.000128663
19 *623:8 *713:39 0.000106566
20 *623:23 *713:39 0
21 *623:27 *5373:A 0
22 *623:27 *5711:RESET_B 0
23 *623:27 *5727:RESET_B 0
24 *623:27 *6077:A 0
25 *623:27 *1018:20 0
26 *623:27 *1027:82 0
27 *623:27 *1027:92 0
28 *623:27 *1067:23 0
29 *623:31 *5381:B 0
30 *623:31 *5711:RESET_B 0
31 *623:31 *923:10 0
32 *623:44 *923:10 0.00018387
33 *5381:A *5783:CLK 0
34 *5381:C *5783:CLK 0
35 *6040:A *623:31 0
36 *505:10 *623:27 0
*RES
1 *5899:X *623:8 40.5974 
2 *623:8 *5763:CLK 43.8831 
3 *623:8 *623:23 24.2127 
4 *623:23 *623:27 8.7344 
5 *623:27 *623:31 6.5714 
6 *623:31 *5783:CLK 27.8898 
7 *623:31 *623:44 42.8222 
8 *623:44 *5731:CLK 20 
9 *623:27 *5711:CLK 20 
10 *623:23 *5727:CLK 20 
*END

*D_NET *624 0.00487604
*CONN
*I *5777:CLK I *D sg13g2_dfrbpq_1
*I *5761:CLK I *D sg13g2_dfrbpq_1
*I *5795:CLK I *D sg13g2_dfrbpq_1
*I *5779:CLK I *D sg13g2_dfrbpq_1
*I *5799:CLK I *D sg13g2_dfrbpq_1
*I *5900:X O *D sg13g2_buf_8
*CAP
1 *5777:CLK 0.000517296
2 *5761:CLK 0
3 *5795:CLK 0
4 *5779:CLK 0
5 *5799:CLK 0.000715435
6 *5900:X 0.000477626
7 *624:32 0.000846663
8 *624:8 0.0014431
9 *624:6 0.000875922
10 *5777:CLK *5777:RESET_B 0
11 *5799:CLK *5427:B 0
12 *5799:CLK *5799:RESET_B 0
13 *5799:CLK *1027:92 0
14 *624:6 *5795:RESET_B 0
15 *624:6 *711:90 0
16 *624:8 *5427:B 0
17 *624:8 *711:90 0
18 *624:32 *5761:RESET_B 0
19 boot_wdata[13] *624:32 0
*RES
1 *5900:X *624:6 21.6171 
2 *624:6 *624:8 7.8898 
3 *624:8 *5799:CLK 27.8898 
4 *624:8 *5779:CLK 20 
5 *624:6 *5795:CLK 20 
6 *5900:X *624:32 23.5638 
7 *624:32 *5761:CLK 20 
8 *624:32 *5777:CLK 25.7268 
*END

*D_NET *625 0.0108998
*CONN
*I *5685:CLK I *D sg13g2_dfrbpq_1
*I *5669:CLK I *D sg13g2_dfrbpq_1
*I *5843:CLK I *D sg13g2_dfrbpq_1
*I *5839:CLK I *D sg13g2_dfrbpq_1
*I *5841:CLK I *D sg13g2_dfrbpq_1
*I *5673:CLK I *D sg13g2_dfrbpq_1
*I *5901:X O *D sg13g2_buf_8
*CAP
1 *5685:CLK 0.00117539
2 *5669:CLK 0.000491687
3 *5843:CLK 0.000913464
4 *5839:CLK 0
5 *5841:CLK 0.000560764
6 *5673:CLK 0.000322602
7 *5901:X 4.72978e-05
8 *625:27 0.000612068
9 *625:25 0.00129523
10 *625:21 0.00144306
11 *625:8 0.00101555
12 *625:6 0.00129473
13 *5669:CLK *5287:A1 0
14 *5669:CLK *5287:B1 0
15 *5669:CLK *687:94 0
16 *5669:CLK *701:57 0
17 *5669:CLK *1023:26 0
18 *5669:CLK *1023:34 0
19 *5673:CLK *5293:A2 0
20 *5673:CLK *5293:B1 0.000241631
21 *5685:CLK *5293:A2 0
22 *5685:CLK *5311:A1 0
23 *5685:CLK *5737:RESET_B 0.000339525
24 *5685:CLK *673:10 0.000176537
25 *5685:CLK *701:41 0
26 *5685:CLK *946:10 0
27 *5685:CLK *1023:114 0
28 *5841:CLK *1033:8 0.000342735
29 *5843:CLK *5843:RESET_B 0
30 *5843:CLK *701:57 5.00476e-05
31 *5843:CLK *701:63 0
32 *5843:CLK *1033:8 0.000395396
33 *625:8 *5293:A2 0
34 *625:21 *5992:A 0
35 *625:21 *719:58 0
36 *625:21 *1023:34 0
37 *625:21 *1023:49 0
38 *625:25 *5286:A 0
39 *625:25 *701:57 0
40 *625:27 *1033:8 0.000182109
41 *6016:A *5843:CLK 0
*RES
1 *5901:X *625:6 20.5974 
2 *625:6 *625:8 0.7519 
3 *625:8 *5673:CLK 23.3475 
4 *625:8 *625:21 46.0358 
5 *625:21 *625:25 23.3475 
6 *625:25 *625:27 0.8446 
7 *625:27 *5841:CLK 46.7774 
8 *625:27 *5839:CLK 40 
9 *625:25 *5843:CLK 49.7232 
10 *625:21 *5669:CLK 23.5171 
11 *625:6 *5685:CLK 31.8518 
*END

*D_NET *626 0.0113905
*CONN
*I *5701:CLK I *D sg13g2_dfrbpq_1
*I *5755:CLK I *D sg13g2_dfrbpq_1
*I *5671:CLK I *D sg13g2_dfrbpq_1
*I *5753:CLK I *D sg13g2_dfrbpq_1
*I *5934:A I *D sg13g2_inv_1
*I *5737:CLK I *D sg13g2_dfrbpq_1
*I *5902:X O *D sg13g2_buf_8
*CAP
1 *5701:CLK 0.000278199
2 *5755:CLK 0
3 *5671:CLK 0.000244358
4 *5753:CLK 0
5 *5934:A 0
6 *5737:CLK 0
7 *5902:X 0.000581605
8 *626:56 0.00154444
9 *626:48 0.00174905
10 *626:44 0.00131527
11 *626:33 0.00110283
12 *626:14 0.000544195
13 *626:6 0.000611064
14 *5701:CLK *5335:B1 0.000208747
15 *5701:CLK *5360:B 0
16 *5701:CLK *5364:B 0
17 *5701:CLK *689:60 0
18 *5701:CLK *994:21 0.000372556
19 *626:14 *5689:RESET_B 1.54008e-05
20 *626:14 *673:66 0
21 *626:14 *690:35 0.000339492
22 *626:14 *701:124 0
23 *626:14 *920:10 0
24 *626:14 *920:32 0
25 *626:33 *673:66 0
26 *626:44 *5335:A2 0
27 *626:44 *5701:RESET_B 8.01116e-05
28 *626:44 *673:66 0
29 *626:48 *5402:A0 0.000662216
30 *626:48 *702:73 0
31 *626:48 *994:21 0.000661886
32 *626:56 *668:25 0
33 *626:56 *673:62 0.000503291
34 *626:56 *1020:113 0
35 *480:8 *5701:CLK 0.000287672
36 *480:8 *626:48 0.000288087
*RES
1 *5902:X *626:6 20.8446 
2 *626:6 *626:14 46.5714 
3 *626:14 *5737:CLK 20 
4 *626:6 *5934:A 20 
5 *5902:X *626:33 25.6444 
6 *626:33 *5753:CLK 20 
7 *626:33 *626:44 26.5096 
8 *626:44 *626:48 26.0358 
9 *626:48 *626:56 35.8826 
10 *626:56 *5671:CLK 42.6986 
11 *626:48 *5755:CLK 20 
12 *626:44 *5701:CLK 43.6668 
*END

*D_NET *627 0.0054481
*CONN
*I *5775:CLK I *D sg13g2_dfrbpq_1
*I *5757:CLK I *D sg13g2_dfrbpq_1
*I *5791:CLK I *D sg13g2_dfrbpq_1
*I *5723:CLK I *D sg13g2_dfrbpq_1
*I *5741:CLK I *D sg13g2_dfrbpq_1
*I *5903:X O *D sg13g2_buf_8
*CAP
1 *5775:CLK 0.000390947
2 *5757:CLK 0.000509373
3 *5791:CLK 0
4 *5723:CLK 0
5 *5741:CLK 0.000818709
6 *5903:X 0.000554002
7 *627:32 0.000670552
8 *627:10 0.0014918
9 *627:8 0.000997322
10 *5741:CLK *5317:A1 0
11 *5741:CLK *5340:B 0
12 *5741:CLK *5368:A2 0
13 *5741:CLK *757:8 0
14 *5741:CLK *984:30 0
15 *5757:CLK *5757:RESET_B 0
16 *5757:CLK *5791:RESET_B 0
17 *5757:CLK *6106:A 0
18 *5757:CLK *6126:A 0
19 *5775:CLK *5775:RESET_B 0
20 *627:8 *5791:RESET_B 1.54008e-05
21 *627:10 *925:8 0
22 *627:10 *984:30 0
23 *627:10 *1073:8 0
24 *627:32 *984:30 0
25 *5901:A *5741:CLK 0
26 *539:10 *627:8 0
27 *618:10 *5741:CLK 0
*RES
1 *5903:X *627:8 41.6171 
2 *627:8 *627:10 7.0246 
3 *627:10 *5741:CLK 49.5378 
4 *627:10 *5723:CLK 40 
5 *627:8 *627:32 22.0806 
6 *627:32 *5791:CLK 20 
7 *627:32 *5757:CLK 25.7268 
8 *5903:X *5775:CLK 44.3466 
*END

*D_NET *628 0.00956688
*CONN
*I *5721:CLK I *D sg13g2_dfrbpq_1
*I *5789:CLK I *D sg13g2_dfrbpq_1
*I *5773:CLK I *D sg13g2_dfrbpq_1
*I *5705:CLK I *D sg13g2_dfrbpq_1
*I *5689:CLK I *D sg13g2_dfrbpq_1
*I *5904:X O *D sg13g2_buf_8
*CAP
1 *5721:CLK 0
2 *5789:CLK 0.000451754
3 *5773:CLK 9.42018e-05
4 *5705:CLK 0
5 *5689:CLK 0.000677278
6 *5904:X 0
7 *628:58 0.000384325
8 *628:36 0.00110322
9 *628:12 0.00125693
10 *628:6 0.00120572
11 *628:4 0.000453129
12 *5689:CLK *673:66 0
13 *5689:CLK *689:26 0
14 *5689:CLK *920:32 0.00145861
15 *5689:CLK *952:8 0
16 *5773:CLK *5773:RESET_B 0
17 *5789:CLK *5789:RESET_B 0
18 *5789:CLK *993:32 0
19 *628:6 *663:103 0.000112267
20 *628:12 *5404:S 0.000274545
21 *628:12 *6076:A 0.000339683
22 *628:12 *663:103 0.000453237
23 *628:12 *920:32 0.000640446
24 *628:12 *952:8 0
25 *628:12 *1063:8 0.00024211
26 *628:12 *1063:21 4.78359e-05
27 *628:36 *913:10 0
28 *628:36 *993:32 0
29 *628:58 *663:103 0.000371587
30 *628:58 *993:32 0
31 *5902:A *5689:CLK 0
*RES
1 *5904:X *628:4 20 
2 *628:4 *628:6 0.7519 
3 *628:6 *628:12 27.931 
4 *628:12 *5689:CLK 49.0434 
5 *628:12 *5705:CLK 40 
6 *628:6 *628:36 46.5302 
7 *628:36 *5773:CLK 20.9682 
8 *628:36 *5789:CLK 24.8616 
9 *628:4 *628:58 44.5629 
10 *628:58 *5721:CLK 20 
*END

*D_NET *629 0.0144923
*CONN
*I *5647:CLK I *D sg13g2_dfrbpq_1
*I *5651:CLK I *D sg13g2_dfrbpq_1
*I *5591:CLK I *D sg13g2_dfrbpq_1
*I *5657:CLK I *D sg13g2_dfrbpq_1
*I *5653:CLK I *D sg13g2_dfrbpq_1
*I *5593:CLK I *D sg13g2_dfrbpq_1
*I *5905:X O *D sg13g2_buf_8
*CAP
1 *5647:CLK 0
2 *5651:CLK 0
3 *5591:CLK 0.000608987
4 *5657:CLK 0.000745776
5 *5653:CLK 0
6 *5593:CLK 0.000881469
7 *5905:X 0.000387132
8 *629:80 0.000911071
9 *629:67 0.00102212
10 *629:52 0.00110717
11 *629:10 0.00141979
12 *629:4 0.00128409
13 *5591:CLK *5591:RESET_B 0
14 *5591:CLK *5651:RESET_B 1.54556e-05
15 *5591:CLK *1103:18 0
16 *5593:CLK *5143:A2 0
17 *5593:CLK *704:23 0
18 *5657:CLK *1005:63 0
19 *5657:CLK *1106:29 0
20 *629:10 *704:23 0
21 *629:10 *1005:63 0.000112426
22 *629:10 *1005:78 0.000394981
23 *629:10 *1102:59 0.000341119
24 *629:10 *1102:69 0.000608768
25 *629:52 *5247:A 0.000361949
26 *629:52 *5651:RESET_B 0.000144261
27 *629:67 *1103:12 0
28 *629:67 *1103:18 0
29 *629:80 *709:78 0.000395482
30 *629:80 *1015:56 0
31 *629:80 *1101:10 0.000181192
32 *629:80 *1102:10 0.00103427
33 *629:80 *1103:12 0
34 *629:80 *1103:68 0
35 *5144:B1 *5593:CLK 0
36 *5234:A *629:80 0.000339294
37 *5236:A *629:80 0.000339294
38 *5249:B1 *629:52 0
39 *5249:A1 *629:52 0
40 *5653:D *5593:CLK 0.000502376
41 *141:8 *629:80 0.000607196
42 *143:14 *5593:CLK 0
43 *252:12 *5593:CLK 0
44 *253:14 *5593:CLK 0
45 *413:14 *629:10 0
46 *418:10 *629:10 0.000746592
47 *620:25 *5657:CLK 0
*RES
1 *5905:X *629:4 20 
2 *629:4 *629:10 27.7765 
3 *629:10 *5593:CLK 48.4666 
4 *629:10 *5653:CLK 40 
5 *629:4 *5657:CLK 27.5911 
6 *5905:X *629:52 44.4496 
7 *629:52 *5591:CLK 46.9216 
8 *629:52 *629:67 1.339 
9 *629:67 *5651:CLK 40 
10 *629:67 *629:80 33.2458 
11 *629:80 *5647:CLK 20 
*END

*D_NET *630 0.00645056
*CONN
*I *5655:CLK I *D sg13g2_dfrbpq_1
*I *5599:CLK I *D sg13g2_dfrbpq_1
*I *5935:A I *D sg13g2_inv_1
*I *5597:CLK I *D sg13g2_dfrbpq_1
*I *5595:CLK I *D sg13g2_dfrbpq_1
*I *5577:CLK I *D sg13g2_dfrbpq_1
*I *5906:X O *D sg13g2_buf_8
*CAP
1 *5655:CLK 9.90848e-05
2 *5599:CLK 2.77155e-05
3 *5935:A 0
4 *5597:CLK 0
5 *5595:CLK 0.000624063
6 *5577:CLK 0.000714923
7 *5906:X 0.000570807
8 *630:77 0.000299578
9 *630:57 0.000328028
10 *630:27 0.000710415
11 *630:16 0.00128798
12 *630:6 0.000556703
13 *5577:CLK *5128:A1 0
14 *5577:CLK *5597:RESET_B 0
15 *5595:CLK *5146:A1 0
16 *5595:CLK *5597:RESET_B 0
17 *5595:CLK *809:12 0
18 *5599:CLK *743:10 0
19 *5655:CLK *1031:72 0
20 *630:16 *709:47 0.000143444
21 *630:16 *1031:72 0
22 *630:16 *1106:14 0
23 *630:27 *5597:RESET_B 0
24 *630:57 *743:10 0.000127744
25 *630:57 *1031:66 0.000224808
26 *630:57 *1031:72 0.000239999
27 *630:77 *1031:72 7.93154e-05
28 *5128:A2 *5577:CLK 0
29 *5151:B1 *5599:CLK 4.77425e-05
30 *5151:B1 *630:57 0.000240396
31 *144:8 *630:77 0
32 *260:8 *630:57 0.000127823
*RES
1 *5906:X *630:6 20.8446 
2 *630:6 *630:16 45.6238 
3 *630:16 *5577:CLK 27.622 
4 *630:16 *630:27 0.9682 
5 *630:27 *5595:CLK 26.7568 
6 *630:27 *5597:CLK 20 
7 *630:6 *5935:A 20 
8 *5906:X *630:57 43.7286 
9 *630:57 *5599:CLK 40.3193 
10 *5906:X *630:77 42.1218 
11 *630:77 *5655:CLK 40.9682 
*END

*D_NET *631 0.0143274
*CONN
*I *5579:CLK I *D sg13g2_dfrbpq_1
*I *5641:CLK I *D sg13g2_dfrbpq_1
*I *5581:CLK I *D sg13g2_dfrbpq_1
*I *5645:CLK I *D sg13g2_dfrbpq_1
*I *5585:CLK I *D sg13g2_dfrbpq_1
*I *5649:CLK I *D sg13g2_dfrbpq_1
*I *5907:X O *D sg13g2_buf_8
*CAP
1 *5579:CLK 0
2 *5641:CLK 0
3 *5581:CLK 0.000570238
4 *5645:CLK 0
5 *5585:CLK 0.000627283
6 *5649:CLK 0.000216659
7 *5907:X 0.00131481
8 *631:79 0.000835627
9 *631:66 0.00153682
10 *631:53 0.00149008
11 *631:42 0.000580978
12 *631:29 0.0010861
13 *631:18 0.00031314
14 *631:16 0.00131481
15 *5581:CLK *5131:B1 0
16 *5581:CLK *1026:30 0
17 *5585:CLK *5135:B1 0.000589472
18 *5649:CLK *1025:16 0
19 *631:16 *1015:50 0.000145283
20 *631:16 *1015:56 0
21 *631:16 *1101:39 0
22 *631:16 *1102:10 0.000533908
23 *631:29 *1025:16 0
24 *631:42 *5020:A 0.000181695
25 *631:42 *1025:16 0
26 *631:42 *1100:8 0.000374128
27 *631:53 *1025:16 0
28 *631:53 *1100:8 0.000662803
29 *631:66 *5022:A 0.000288201
30 *631:66 *5641:RESET_B 0.000274479
31 *631:66 *1098:8 0.000289769
32 *631:79 *5579:RESET_B 0
33 *631:79 *6021:A 0
34 *631:79 *6022:A 0
35 *631:79 *700:86 0
36 *631:79 *1025:10 0.000241631
37 *631:79 *1026:8 0
38 *631:79 *1098:8 0.000643568
39 *5132:A2 *5581:CLK 0
40 *5132:A2 *631:66 0
41 *5136:B1 *5585:CLK 0
42 *5238:A1 *631:16 0
43 *5238:A2 *631:16 0
44 *5583:D *5581:CLK 0
45 *137:10 *631:66 0.000128091
46 *255:14 *5585:CLK 0
47 *255:14 *631:16 2.46687e-05
48 *255:36 *631:16 4.77153e-05
49 *255:40 *631:16 0
50 *258:23 *631:66 0
51 *335:12 *631:79 1.54008e-05
52 *409:14 *631:16 0
*RES
1 *5907:X *631:16 33.1016 
2 *631:16 *631:18 20 
3 *631:18 *5649:CLK 42.8222 
4 *631:18 *631:29 1.0918 
5 *631:29 *5585:CLK 46.077 
6 *631:29 *631:42 5.047 
7 *631:42 *5645:CLK 40 
8 *631:42 *631:53 23.5638 
9 *631:53 *5581:CLK 25.7268 
10 *631:53 *631:66 28.7344 
11 *631:66 *5641:CLK 40 
12 *631:66 *631:79 30.2794 
13 *631:79 *5579:CLK 20 
*END

*D_NET *632 0.0130141
*CONN
*I *5639:CLK I *D sg13g2_dfrbpq_1
*I *5643:CLK I *D sg13g2_dfrbpq_1
*I *5583:CLK I *D sg13g2_dfrbpq_1
*I *5637:CLK I *D sg13g2_dfrbpq_1
*I *5936:A I *D sg13g2_inv_1
*I *5663:CLK I *D sg13g2_dfrbpq_1
*I *5908:X O *D sg13g2_buf_8
*CAP
1 *5639:CLK 0.000219204
2 *5643:CLK 0
3 *5583:CLK 0
4 *5637:CLK 0.000427613
5 *5936:A 0
6 *5663:CLK 0.000903126
7 *5908:X 0.000986962
8 *632:66 0.00149788
9 *632:58 0.00209282
10 *632:54 0.00120783
11 *632:43 0.00163993
12 *632:10 0.00107146
13 *5637:CLK *5218:D 7.99179e-05
14 *5637:CLK *5221:B 0
15 *5637:CLK *708:68 0
16 *5639:CLK *1096:10 0
17 *5663:CLK *5237:A 0
18 *632:10 *1005:49 0
19 *632:43 *1012:55 0.000866051
20 *632:43 *1094:44 0
21 *632:43 *1095:18 0
22 *632:54 *1095:10 0
23 *632:54 *1096:10 0
24 *632:54 *1096:12 0
25 *632:58 *5221:B 0
26 *632:58 *5221:C 0
27 *632:58 *5639:RESET_B 0
28 *632:66 *5579:RESET_B 0
29 *632:66 *6022:A 0
30 *632:66 *1025:16 0.000556648
31 *632:66 *1026:12 0
32 *632:66 *1026:14 0
33 *632:66 *1026:16 0
34 *5218:C *5637:CLK 0
35 *5220:A1 *632:43 0
36 *5224:B1 *5637:CLK 0
37 *5224:A2 *632:58 0
38 *5233:B *5663:CLK 0
39 *5579:D *632:66 0
40 *255:40 *5663:CLK 0
41 *259:10 *632:58 0
42 *259:10 *632:66 0
43 *259:24 *632:54 0
44 *260:8 *632:43 0
45 *268:24 *632:10 0
46 *268:24 *632:43 0
47 *288:27 *5663:CLK 0.00023464
48 *288:27 *632:10 0.000393406
49 *335:12 *632:66 0
50 *358:36 *632:43 0.000306794
51 *389:35 *5663:CLK 0
52 *398:12 *5663:CLK 0.000226687
53 *398:16 *5663:CLK 1.54008e-05
54 *405:18 *5663:CLK 0.000234726
55 *405:18 *632:10 5.30319e-05
56 *410:8 *5663:CLK 0
57 *605:231 *5639:CLK 0
58 *605:231 *632:54 0
*RES
1 *5908:X *632:10 42.369 
2 *632:10 *5663:CLK 49.4348 
3 *632:10 *5936:A 40 
4 *5908:X *632:43 49.5378 
5 *632:43 *5637:CLK 43.9964 
6 *632:43 *632:54 4.0582 
7 *632:54 *632:58 26.1594 
8 *632:58 *632:66 36.4388 
9 *632:66 *5583:CLK 40 
10 *632:58 *5643:CLK 20 
11 *632:54 *5639:CLK 42.8222 
*END

*D_NET *633 0.0080764
*CONN
*I *5849:CLK I *D sg13g2_dfrbpq_1
*I *5847:CLK I *D sg13g2_dfrbpq_1
*I *5677:CLK I *D sg13g2_dfrbpq_1
*I *5813:CLK I *D sg13g2_dfrbpq_1
*I *5855:CLK I *D sg13g2_dfrbpq_1
*I *5930:A I *D sg13g2_inv_1
*I *5909:X O *D sg13g2_buf_8
*CAP
1 *5849:CLK 0.000294844
2 *5847:CLK 0
3 *5677:CLK 0.000786632
4 *5813:CLK 0
5 *5855:CLK 0.00010654
6 *5930:A 3.19905e-05
7 *5909:X 0.000293853
8 *633:64 0.000539184
9 *633:36 0.000900266
10 *633:19 0.00143565
11 *633:17 0.00121548
12 *633:15 0.000382022
13 *633:6 0.000463525
14 *5677:CLK *5298:A 0
15 *5677:CLK *5299:A1 0
16 *5677:CLK *5524:A 0
17 *5677:CLK *696:56 0
18 *5677:CLK *934:25 0
19 *5677:CLK *1037:14 0
20 *5849:CLK *1019:18 0.0005012
21 *5855:CLK *1009:34 0.000396398
22 *633:15 *5525:B 0.000143935
23 *633:15 *1037:14 4.77425e-05
24 *633:19 *5524:A 0
25 *633:19 *1009:34 0.000320024
26 *633:36 *5813:RESET_B 0
27 *633:36 *5961:A 0
28 *633:36 *650:35 0
29 *633:64 *5524:A 0
30 *633:64 *697:29 0
31 *456:8 *5677:CLK 0
32 *586:79 *633:15 0.000217122
33 *605:120 *633:15 0
*RES
1 *5909:X *633:6 20.5974 
2 *633:6 *5930:A 20.3502 
3 *633:6 *633:15 3.9964 
4 *633:15 *633:17 20 
5 *633:17 *633:19 5.047 
6 *633:19 *5855:CLK 41.8334 
7 *633:19 *633:36 30.0451 
8 *633:36 *5813:CLK 20 
9 *633:17 *5677:CLK 49.0022 
10 *633:15 *5847:CLK 20 
11 *5909:X *633:64 42.8222 
12 *633:64 *5849:CLK 43.3475 
*END

*D_NET *634 0.00706316
*CONN
*I *5659:CLK I *D sg13g2_dfrbpq_1
*I *5629:CLK I *D sg13g2_dfrbpq_1
*I *5625:CLK I *D sg13g2_dfrbpq_1
*I *5631:CLK I *D sg13g2_dfrbpq_1
*I *5571:CLK I *D sg13g2_dfrbpq_1
*I *5569:CLK I *D sg13g2_dfrbpq_1
*I *5910:X O *D sg13g2_buf_8
*CAP
1 *5659:CLK 0.000381964
2 *5629:CLK 0
3 *5625:CLK 0.0007759
4 *5631:CLK 0
5 *5571:CLK 0.000251322
6 *5569:CLK 0.000648695
7 *5910:X 0
8 *634:38 0.00144511
9 *634:32 0.000808071
10 *634:10 0.00152005
11 *634:6 0.000804494
12 *634:4 0.000427556
13 *5569:CLK *5117:A 0
14 *5569:CLK *5569:RESET_B 0
15 *5569:CLK *656:53 0
16 *5571:CLK *656:44 0
17 *5571:CLK *656:53 0
18 *5625:CLK *5625:RESET_B 0
19 *5625:CLK *5631:RESET_B 0
20 *5659:CLK *1105:37 0
21 *262:14 *5569:CLK 0
22 *262:14 *5571:CLK 0
23 *262:14 *634:10 0
24 *348:32 *5625:CLK 0
25 *382:10 *5659:CLK 0
26 *382:10 *634:6 0
27 *382:10 *634:32 0
*RES
1 *5910:X *634:4 20 
2 *634:4 *634:6 0.5356 
3 *634:6 *634:10 27.2718 
4 *634:10 *5569:CLK 46.386 
5 *634:10 *5571:CLK 42.6986 
6 *634:6 *634:32 1.4008 
7 *634:32 *634:38 48.0134 
8 *634:38 *5631:CLK 20 
9 *634:38 *5625:CLK 28.4872 
10 *634:32 *5629:CLK 20 
11 *634:4 *5659:CLK 24.3466 
*END

*D_NET *635 0.00690417
*CONN
*I *5623:CLK I *D sg13g2_dfrbpq_1
*I *5563:CLK I *D sg13g2_dfrbpq_1
*I *5627:CLK I *D sg13g2_dfrbpq_1
*I *5937:A I *D sg13g2_inv_1
*I *5567:CLK I *D sg13g2_dfrbpq_1
*I *5565:CLK I *D sg13g2_dfrbpq_1
*I *5911:X O *D sg13g2_buf_8
*CAP
1 *5623:CLK 0.000349335
2 *5563:CLK 0.000714982
3 *5627:CLK 0.000130646
4 *5937:A 0
5 *5567:CLK 0.000201316
6 *5565:CLK 0.000427101
7 *5911:X 0.000510959
8 *635:56 0.00129323
9 *635:12 0.00115681
10 *635:8 0.000679796
11 *5563:CLK *5108:A 0
12 *5563:CLK *5108:B_N 0
13 *5563:CLK *5623:RESET_B 0
14 *5563:CLK *5943:A 0
15 *5563:CLK *659:23 0
16 *5565:CLK *658:22 0.000598904
17 *5565:CLK *709:30 0
18 *5567:CLK *658:16 0
19 *5567:CLK *658:22 1.54008e-05
20 *5567:CLK *658:54 0.000129271
21 *5567:CLK *706:10 0.000273622
22 *5567:CLK *709:30 0
23 *5623:CLK *5108:A 0.000342449
24 *5623:CLK *5188:B1 0
25 *5623:CLK *5623:RESET_B 0
26 *5623:CLK *1004:44 0
27 *5623:CLK *1004:50 0
28 *635:56 *1004:50 0
29 *5110:A *5563:CLK 8.0342e-05
30 *322:10 *5563:CLK 0
31 *326:8 *635:12 0
32 *607:20 *5627:CLK 0
*RES
1 *5911:X *635:8 41.8334 
2 *635:8 *635:12 26.0358 
3 *635:12 *5565:CLK 24.841 
4 *635:12 *5567:CLK 22.266 
5 *635:8 *5937:A 40 
6 *5911:X *5627:CLK 41.4008 
7 *5911:X *635:56 42.8222 
8 *635:56 *5563:CLK 47.5911 
9 *635:56 *5623:CLK 44.5629 
*END

*D_NET *636 0.0165859
*CONN
*I *5617:CLK I *D sg13g2_dfrbpq_1
*I *5607:CLK I *D sg13g2_dfrbpq_1
*I *5605:CLK I *D sg13g2_dfrbpq_1
*I *5661:CLK I *D sg13g2_dfrbpq_1
*I *5557:CLK I *D sg13g2_dfrbpq_1
*I *5912:X O *D sg13g2_buf_8
*CAP
1 *5617:CLK 0.000214188
2 *5607:CLK 0
3 *5605:CLK 0.000676358
4 *5661:CLK 0.0015162
5 *5557:CLK 0.0013995
6 *5912:X 0
7 *636:38 0.000956274
8 *636:32 0.00107481
9 *636:28 0.00142603
10 *636:15 0.00196396
11 *636:4 0.00143031
12 *5557:CLK *5619:RESET_B 7.10607e-05
13 *5557:CLK *5619:CLK 0
14 *5557:CLK *637:32 0
15 *5557:CLK *662:42 0
16 *5557:CLK *706:98 0
17 *5557:CLK *1015:131 0
18 *5557:CLK *1087:10 0
19 *5557:CLK *1117:78 0.000273065
20 *5605:CLK *5165:A 4.77425e-05
21 *5605:CLK *5605:RESET_B 0
22 *5605:CLK *1108:23 0.000907769
23 *5605:CLK *1108:27 0.000273287
24 *5617:CLK *723:10 0
25 *5661:CLK *5046:D 0.000856228
26 *5661:CLK *1014:58 8.00842e-05
27 *5661:CLK *1014:70 0.000791205
28 *5661:CLK *1116:37 0.000226315
29 *5661:CLK *1117:78 0.000597795
30 *636:28 *1004:42 0
31 *636:32 *723:10 8.03091e-05
32 *636:32 *1004:36 0.000403707
33 *636:32 *1004:42 0
34 *636:32 *1005:19 0
35 *636:32 *1117:8 0
36 *636:38 *1005:19 0.000823472
37 *636:38 *1111:10 0.000234726
38 *636:38 *1111:23 5.30319e-05
39 *5046:B *5661:CLK 0
40 *5046:A *5661:CLK 0
41 *5207:B *5661:CLK 0
42 *5605:D *5605:CLK 0
43 *287:24 *5661:CLK 0
44 *348:18 *5617:CLK 0
45 *348:22 *5617:CLK 0
46 *348:22 *636:28 0
47 *349:10 *636:38 0
48 *349:25 *636:38 0
49 *355:8 *636:38 0
50 *356:8 *5605:CLK 8.0342e-05
51 *357:8 *636:38 0
52 *370:10 *5557:CLK 0
53 *370:10 *5661:CLK 0
54 *370:10 *636:28 0.00012816
55 *386:23 *5661:CLK 0
56 *389:18 *5661:CLK 0
*RES
1 *5912:X *636:4 20 
2 *636:4 *5557:CLK 34.5436 
3 *636:4 *636:15 0.3502 
4 *636:15 *5661:CLK 36.3014 
5 *636:15 *636:28 25.047 
6 *636:28 *636:32 28.3224 
7 *636:32 *636:38 44.3054 
8 *636:38 *5605:CLK 27.8898 
9 *636:32 *5607:CLK 20 
10 *636:28 *5617:CLK 42.1218 
*END

*D_NET *637 0.00919733
*CONN
*I *5545:CLK I *D sg13g2_dfrbpq_1
*I *5559:CLK I *D sg13g2_dfrbpq_1
*I *5561:CLK I *D sg13g2_dfrbpq_1
*I *5619:CLK I *D sg13g2_dfrbpq_1
*I *5621:CLK I *D sg13g2_dfrbpq_1
*I *5913:X O *D sg13g2_buf_8
*CAP
1 *5545:CLK 0.000564315
2 *5559:CLK 0.000635659
3 *5561:CLK 0.000666449
4 *5619:CLK 0.000239634
5 *5621:CLK 0.000206007
6 *5913:X 0
7 *637:34 0.0015887
8 *637:32 0.00191119
9 *637:21 0.00171571
10 *637:6 0.000621802
11 *5545:CLK *5082:B1 0
12 *5545:CLK *5082:A2 0
13 *5545:CLK *5988:A 0
14 *5545:CLK *708:6 0.000306903
15 *5559:CLK *5103:B1 0
16 *5559:CLK *5103:A2 0
17 *5559:CLK *6097:A 0
18 *5559:CLK *6111:A 0
19 *5559:CLK *658:92 0.000176537
20 *5559:CLK *658:107 8.02763e-05
21 *5559:CLK *1117:78 0
22 *5561:CLK *5106:A2 0
23 *5561:CLK *706:75 0
24 *5561:CLK *706:98 0
25 *5561:CLK *977:8 0
26 *5621:CLK *5100:B1 0
27 *5621:CLK *5621:RESET_B 0
28 *5621:CLK *709:103 0
29 *637:21 *709:103 0
30 *637:21 *1087:10 0
31 *637:32 *5607:RESET_B 0
32 *637:32 *706:98 0
33 *637:32 *1015:131 0.000242045
34 *637:34 *706:98 0
35 *5083:B *5545:CLK 0.00024211
36 *5167:A *5619:CLK 0
37 *5167:A *637:32 0
38 *5557:CLK *5619:CLK 0
39 *5557:CLK *637:32 0
40 *5607:D *637:32 0
41 *318:10 *5559:CLK 0
42 *318:10 *5561:CLK 0
*RES
1 *5913:X *637:6 40 
2 *637:6 *5621:CLK 42.2454 
3 *637:6 *637:21 24.7998 
4 *637:21 *5619:CLK 22.6986 
5 *637:21 *637:32 30.7962 
6 *637:32 *637:34 3.5638 
7 *637:34 *5561:CLK 47.519 
8 *637:34 *5559:CLK 46.3242 
9 *637:32 *5545:CLK 46.3242 
*END

*D_NET *638 0.0126209
*CONN
*I *5667:CLK I *D sg13g2_dfrbpq_1
*I *5665:CLK I *D sg13g2_dfrbpq_1
*I *5877:CLK I *D sg13g2_dfrbpq_1
*I *5865:CLK I *D sg13g2_dfrbpq_1
*I *5875:CLK I *D sg13g2_dfrbpq_1
*I *5863:CLK I *D sg13g2_dfrbpq_1
*I *5914:X O *D sg13g2_buf_8
*CAP
1 *5667:CLK 0.000201867
2 *5665:CLK 0.000614923
3 *5877:CLK 0
4 *5865:CLK 9.39019e-05
5 *5875:CLK 0.000720052
6 *5863:CLK 9.42018e-05
7 *5914:X 0.000303974
8 *638:59 0.000607188
9 *638:51 0.00157048
10 *638:47 0.000860127
11 *638:29 0.00177933
12 *638:16 0.00170425
13 *638:10 0.00125855
14 *5665:CLK *5281:A1 0
15 *5665:CLK *5665:RESET_B 0
16 *5667:CLK *5667:RESET_B 0
17 *5667:CLK *715:112 0
18 *5667:CLK *1020:25 0
19 *5863:CLK *5863:RESET_B 0
20 *5863:CLK *1049:16 0
21 *5865:CLK *5067:A1 0
22 *5865:CLK *5733:CLK 0
23 *5875:CLK *5067:A1 0
24 *5875:CLK *5733:CLK 0
25 *638:10 *5282:B1 0
26 *638:10 *1014:16 0
27 *638:10 *1043:47 4.77537e-05
28 *638:16 *5863:RESET_B 0
29 *638:16 *686:73 0.000555321
30 *638:16 *715:78 0
31 *638:16 *1049:16 0
32 *638:16 *1051:12 0.00018211
33 *638:29 *5034:A 0
34 *638:29 *1048:12 0
35 *638:47 *715:97 0
36 *638:47 *715:112 0
37 *638:51 *5281:A1 0
38 *638:51 *5667:RESET_B 0.000265245
39 *638:51 *715:112 0
40 *638:51 *1043:32 0
41 *638:59 *5313:B 0
42 *638:59 *715:118 0
43 *638:59 *956:8 0.000288589
44 *638:59 *1020:38 0
45 *638:59 *1043:12 0.000501874
46 *638:59 *1044:56 0.000234461
47 *5035:A2 *5875:CLK 0
48 *5067:B1 *5875:CLK 0
49 *5283:B2 *638:10 0
50 *5285:A *638:10 0
51 *79:12 *638:59 0
52 *150:8 *638:16 7.56308e-05
53 *150:8 *638:47 0.000532395
54 *266:27 *638:29 0
55 *295:10 *5875:CLK 0
56 *444:10 *638:10 0
57 *446:8 *638:16 0
58 *446:8 *638:47 0
59 *605:231 *638:29 0
60 *609:8 *5665:CLK 0
61 *609:10 *638:59 0.000128663
*RES
1 *5914:X *638:10 43.0179 
2 *638:10 *638:16 28.1164 
3 *638:16 *5863:CLK 20.9682 
4 *638:16 *638:29 49.7438 
5 *638:29 *5875:CLK 27.622 
6 *638:29 *5865:CLK 20.9682 
7 *638:10 *638:47 4.0582 
8 *638:47 *638:51 23.7801 
9 *638:51 *638:59 47.6529 
10 *638:59 *5877:CLK 20 
11 *638:51 *5665:CLK 25.5105 
12 *638:47 *5667:CLK 42.369 
*END

*D_NET *639 0.00939318
*CONN
*I *5938:A I *D sg13g2_inv_1
*I *5861:CLK I *D sg13g2_dfrbpq_1
*I *5633:CLK I *D sg13g2_dfrbpq_1
*I *5635:CLK I *D sg13g2_dfrbpq_1
*I *5869:CLK I *D sg13g2_dfrbpq_1
*I *5733:CLK I *D sg13g2_dfrbpq_1
*I *5915:X O *D sg13g2_buf_8
*CAP
1 *5938:A 0
2 *5861:CLK 0.000170876
3 *5633:CLK 0
4 *5635:CLK 0
5 *5869:CLK 0
6 *5733:CLK 0.00173768
7 *5915:X 6.68694e-05
8 *639:53 0.000806939
9 *639:40 0.00137781
10 *639:18 0.00190293
11 *639:16 0.00109041
12 *639:10 0.00123014
13 *639:6 0.000771849
14 *5733:CLK *5067:A1 0
15 *5733:CLK *5865:RESET_B 0
16 *5733:CLK *5869:RESET_B 0
17 *5733:CLK *5875:RESET_B 0
18 *5733:CLK *1096:10 0
19 *5861:CLK *5861:RESET_B 0
20 *639:6 *5873:CLK 0
21 *639:6 *645:31 0
22 *639:10 *668:46 0
23 *639:10 *700:20 0.000237686
24 *639:10 *718:92 0
25 *639:16 *5031:A 0
26 *639:16 *5861:RESET_B 0
27 *639:16 *5946:A 0
28 *639:18 *5031:A 0
29 *639:40 *657:14 0
30 *639:40 *668:46 0
31 *639:40 *1094:8 0
32 *639:40 *1094:16 0
33 *639:53 *5025:A 0
34 *639:53 *5122:A 0
35 *639:53 *5122:B_N 0
36 *639:53 *5158:A1 0
37 *639:53 *5635:RESET_B 0
38 *639:53 *657:14 0
39 *639:53 *1093:10 0
40 *639:53 *1094:16 0
41 *5865:D *5733:CLK 0
42 *5865:CLK *5733:CLK 0
43 *5875:CLK *5733:CLK 0
44 *85:10 *5733:CLK 0
45 *261:12 *639:40 0
46 *261:25 *639:40 0
*RES
1 *5915:X *639:6 20.8446 
2 *639:6 *639:10 27.519 
3 *639:10 *639:16 23.8522 
4 *639:16 *639:18 1.8334 
5 *639:18 *5733:CLK 38.7872 
6 *639:18 *5869:CLK 20 
7 *639:16 *639:40 46.7774 
8 *639:40 *5635:CLK 20 
9 *639:40 *639:53 47.9928 
10 *639:53 *5633:CLK 20 
11 *639:10 *5861:CLK 41.8334 
12 *639:6 *5938:A 20 
*END

*D_NET *640 0.0094484
*CONN
*I *5769:CLK I *D sg13g2_dfrbpq_1
*I *5717:CLK I *D sg13g2_dfrbpq_1
*I *5719:CLK I *D sg13g2_dfrbpq_1
*I *5703:CLK I *D sg13g2_dfrbpq_1
*I *5687:CLK I *D sg13g2_dfrbpq_1
*I *5916:X O *D sg13g2_buf_8
*CAP
1 *5769:CLK 0.000781906
2 *5717:CLK 0
3 *5719:CLK 0.000222
4 *5703:CLK 0.000174966
5 *5687:CLK 0.000570145
6 *5916:X 0.000578672
7 *640:56 0.00168284
8 *640:41 0.00126059
9 *640:18 0.000901517
10 *640:12 0.000658965
11 *640:8 0.000593646
12 *5687:CLK *5314:A2 0
13 *5687:CLK *5337:A 0
14 *5687:CLK *5339:B 0
15 *5687:CLK *702:39 0
16 *5703:CLK *5950:A 0
17 *5703:CLK *703:47 0.000291525
18 *5719:CLK *5362:A1 8.0216e-05
19 *5719:CLK *5362:B1 0.000242089
20 *5719:CLK *5719:RESET_B 0
21 *5769:CLK *5769:RESET_B 0
22 *640:8 *5338:A1 0.00131739
23 *640:12 *5957:A 0
24 *640:12 *702:10 0
25 *640:12 *703:47 1.54008e-05
26 *5339:A *5687:CLK 0
27 *6059:A *640:12 0
28 *482:8 *640:8 7.65281e-05
*RES
1 *5916:X *640:8 46.7774 
2 *640:8 *640:12 21.4008 
3 *640:12 *640:18 44.0582 
4 *640:18 *5687:CLK 25.3887 
5 *640:12 *5703:CLK 22.0497 
6 *5916:X *640:41 41.0918 
7 *640:41 *5719:CLK 42.7192 
8 *640:41 *640:56 9.4966 
9 *640:56 *5717:CLK 40 
10 *640:56 *5769:CLK 49.5996 
*END

*D_NET *641 0.00875395
*CONN
*I *5771:CLK I *D sg13g2_dfrbpq_1
*I *5735:CLK I *D sg13g2_dfrbpq_1
*I *5785:CLK I *D sg13g2_dfrbpq_1
*I *5787:CLK I *D sg13g2_dfrbpq_1
*I *5739:CLK I *D sg13g2_dfrbpq_1
*I *5917:X O *D sg13g2_buf_8
*CAP
1 *5771:CLK 0
2 *5735:CLK 0.000205369
3 *5785:CLK 0.00037984
4 *5787:CLK 0
5 *5739:CLK 0
6 *5917:X 0.000381079
7 *641:41 0.00121082
8 *641:30 0.00139038
9 *641:26 0.000978905
10 *641:12 0.00178773
11 *641:8 0.00195467
12 *5735:CLK *5735:RESET_B 0
13 *5785:CLK *5785:RESET_B 0
14 *5785:CLK *6124:A 0
15 *641:8 *5771:RESET_B 0.000177399
16 *641:12 *5418:A0 0
17 *641:12 *667:10 0
18 *641:12 *667:23 0
19 *641:12 *718:57 0.000287758
20 *641:26 *5771:RESET_B 0
21 *641:30 *667:23 0
22 *641:30 *718:72 0
23 *641:41 *718:72 0
24 *641:41 *969:23 0
25 *5917:A *641:8 0
26 *610:12 *641:12 0
*RES
1 *5917:X *641:8 41.6171 
2 *641:8 *641:12 37.6542 
3 *641:12 *5739:CLK 20 
4 *5917:X *641:26 22.4308 
5 *641:26 *641:30 29.7438 
6 *641:30 *5787:CLK 40 
7 *641:30 *641:41 28.0134 
8 *641:41 *5785:CLK 23.9964 
9 *641:41 *5735:CLK 22.266 
10 *641:26 *5771:CLK 20 
*END

*D_NET *642 0.0122629
*CONN
*I *5803:CLK I *D sg13g2_dfrbpq_1
*I *5551:CLK I *D sg13g2_dfrbpq_1
*I *5859:CLK I *D sg13g2_dfrbpq_1
*I *5553:CLK I *D sg13g2_dfrbpq_1
*I *5549:CLK I *D sg13g2_dfrbpq_1
*I *5609:CLK I *D sg13g2_dfrbpq_1
*I *5918:X O *D sg13g2_buf_8
*CAP
1 *5803:CLK 0.000638512
2 *5551:CLK 0.000101511
3 *5859:CLK 0
4 *5553:CLK 0.000720913
5 *5549:CLK 0
6 *5609:CLK 0.000807588
7 *5918:X 0.000446504
8 *642:57 0.00145857
9 *642:24 0.00136213
10 *642:18 0.00163758
11 *642:14 0.00187179
12 *642:12 0.000473523
13 *642:10 0.00140594
14 *5551:CLK *5091:A2 7.9703e-05
15 *5551:CLK *6104:A 0
16 *5553:CLK *5094:A2 0
17 *5553:CLK *716:28 0
18 *5553:CLK *997:28 0
19 *5609:CLK *5087:A 0
20 *5609:CLK *5087:B_N 0
21 *5609:CLK *5093:A 0
22 *5609:CLK *5096:A 0
23 *5609:CLK *662:36 0.000274709
24 *5609:CLK *665:51 0
25 *5609:CLK *719:25 0
26 *5609:CLK *864:8 0
27 *5609:CLK *1112:12 0
28 *5803:CLK *5091:A1 0
29 *5803:CLK *5803:RESET_B 0
30 *5803:CLK *665:22 0
31 *5803:CLK *703:8 0
32 *642:10 *6141:A 0.000371297
33 *642:10 *716:73 0
34 *642:12 *716:73 0
35 *642:12 *876:8 0
36 *642:18 *716:58 0
37 *642:24 *716:28 0
38 *642:24 *716:58 0
39 *642:24 *719:25 0
40 *642:24 *864:8 0
41 *642:24 *997:28 0
42 *642:57 *5011:A 0.000209856
43 *642:57 *5091:B1 0
44 *642:57 *5091:A1 0
45 *642:57 *5091:A2 0
46 *642:57 *5156:A 0
47 *642:57 *5452:B1 4.77425e-05
48 *642:57 *6104:A 0
49 *642:57 *665:22 0
50 *642:57 *667:44 0
51 *642:57 *909:6 0
52 *5803:D *642:57 0.000274769
53 *247:8 *642:57 8.03091e-05
54 *311:8 *642:18 0
55 *605:296 *642:57 0
*RES
1 *5918:X *642:10 45.3045 
2 *642:10 *642:12 3.0694 
3 *642:12 *642:14 0.5974 
4 *642:14 *642:18 24.0582 
5 *642:18 *642:24 24.9955 
6 *642:24 *5609:CLK 48.858 
7 *642:24 *5549:CLK 40 
8 *642:18 *5553:CLK 26.8083 
9 *642:14 *642:57 32.7779 
10 *642:57 *5859:CLK 20 
11 *642:12 *5551:CLK 41.1845 
12 *642:10 *5803:CLK 46.8083 
*END

*D_NET *643 0.0110719
*CONN
*I *5541:CLK I *D sg13g2_dfrbpq_1
*I *5555:CLK I *D sg13g2_dfrbpq_1
*I *5601:CLK I *D sg13g2_dfrbpq_1
*I *5613:CLK I *D sg13g2_dfrbpq_1
*I *5547:CLK I *D sg13g2_dfrbpq_1
*I *5939:A I *D sg13g2_inv_1
*I *5919:X O *D sg13g2_buf_8
*CAP
1 *5541:CLK 0
2 *5555:CLK 0
3 *5601:CLK 0
4 *5613:CLK 0.000753231
5 *5547:CLK 0
6 *5939:A 0
7 *5919:X 0.00048023
8 *643:68 0.000970538
9 *643:64 0.00121947
10 *643:34 0.000753231
11 *643:27 0.00132243
12 *643:19 0.00192615
13 *643:17 0.00106301
14 *643:6 0.000690592
15 *5613:CLK *5096:A 0
16 *5613:CLK *5158:A2 0
17 *5613:CLK *5609:RESET_B 0
18 *5613:CLK *5613:RESET_B 0
19 *5613:CLK *646:20 0
20 *5613:CLK *660:18 0
21 *5613:CLK *660:29 0
22 *643:6 *665:68 1.54556e-05
23 *643:6 *665:79 0
24 *643:17 *5097:A2 0
25 *643:17 *665:79 0
26 *643:17 *667:56 0
27 *643:17 *898:8 0
28 *643:19 *5097:A2 0
29 *643:19 *667:56 0
30 *643:19 *1086:10 0
31 *643:19 *1086:28 0
32 *643:27 *5085:A2 0
33 *643:27 *646:20 0
34 *643:27 *707:29 0
35 *643:27 *707:72 0
36 *643:27 *1086:10 0
37 *643:64 *667:56 0
38 *643:64 *718:20 0
39 *643:68 *5553:RESET_B 0
40 *643:68 *5997:A 0
41 *643:68 *718:20 0
42 *643:68 *719:77 0
43 *643:68 *798:18 0.000274583
44 *643:68 *864:36 0.00160297
45 *5553:D *643:17 0
46 *5919:A *643:6 0
47 *312:10 *643:17 0
48 *315:8 *643:19 0
*RES
1 *5919:X *643:6 22.266 
2 *643:6 *5939:A 20 
3 *643:6 *643:17 24.6556 
4 *643:17 *643:19 6.7774 
5 *643:19 *643:27 34.2758 
6 *643:27 *5547:CLK 20 
7 *643:19 *643:34 20 
8 *643:34 *5613:CLK 27.8898 
9 *643:34 *5601:CLK 20 
10 *643:17 *5555:CLK 40 
11 *5919:X *643:64 42.6162 
12 *643:64 *643:68 30.7017 
13 *643:68 *5541:CLK 20 
*END

*D_NET *644 0.0130726
*CONN
*I *5797:CLK I *D sg13g2_dfrbpq_1
*I *5681:CLK I *D sg13g2_dfrbpq_1
*I *5697:CLK I *D sg13g2_dfrbpq_1
*I *5713:CLK I *D sg13g2_dfrbpq_1
*I *5781:CLK I *D sg13g2_dfrbpq_1
*I *5765:CLK I *D sg13g2_dfrbpq_1
*I *5920:X O *D sg13g2_buf_8
*CAP
1 *5797:CLK 0
2 *5681:CLK 0.000529013
3 *5697:CLK 8.23347e-05
4 *5713:CLK 0
5 *5781:CLK 0.000558187
6 *5765:CLK 0.000651352
7 *5920:X 0
8 *644:63 0.000610496
9 *644:41 0.00102225
10 *644:39 0.00125219
11 *644:12 0.00159685
12 *644:8 0.000563862
13 *644:4 0.000407349
14 *5681:CLK *5352:B 0
15 *5681:CLK *5697:RESET_B 0
16 *5697:CLK *694:72 0.000292789
17 *5765:CLK *714:51 0
18 *5781:CLK *5445:B 0
19 *5781:CLK *975:27 0.000880173
20 *644:8 *5713:RESET_B 0
21 *644:12 *5713:RESET_B 0
22 *644:39 *5353:B1 4.77425e-05
23 *644:39 *671:41 0
24 *644:41 *694:72 0.000670648
25 *644:41 *939:8 7.48842e-05
26 *644:63 *939:8 0.000375601
27 *644:63 *1027:34 0.00115399
28 *5429:A *644:12 0
29 *5920:A *644:39 0
30 *492:8 *644:41 0.000452486
31 *613:21 *644:63 0.00185045
*RES
1 *5920:X *644:4 20 
2 *644:4 *644:8 1.9673 
3 *644:8 *644:12 23.9964 
4 *644:12 *5765:CLK 46.283 
5 *644:12 *5781:CLK 47.0246 
6 *644:8 *5713:CLK 20 
7 *644:4 *644:39 21.5583 
8 *644:39 *644:41 6.0358 
9 *644:41 *5697:CLK 41.339 
10 *644:41 *5681:CLK 45.7268 
11 *644:39 *644:63 30.7326 
12 *644:63 *5797:CLK 20 
*END

*D_NET *645 0.00823591
*CONN
*I *5801:CLK I *D sg13g2_dfrbpq_1
*I *5871:CLK I *D sg13g2_dfrbpq_1
*I *5867:CLK I *D sg13g2_dfrbpq_1
*I *5873:CLK I *D sg13g2_dfrbpq_1
*I *5573:CLK I *D sg13g2_dfrbpq_1
*I *5921:X O *D sg13g2_buf_8
*CAP
1 *5801:CLK 0
2 *5871:CLK 0.000589884
3 *5867:CLK 0
4 *5873:CLK 0.000643572
5 *5573:CLK 0
6 *5921:X 0
7 *645:31 0.00139177
8 *645:27 0.00147682
9 *645:21 0.0003122
10 *645:12 0.000727554
11 *645:4 0.000901018
12 *5871:CLK *5859:D 0
13 *5871:CLK *997:28 0
14 *5873:CLK *5065:B1 0
15 *5873:CLK *5065:A1 0
16 *5873:CLK *5867:RESET_B 0
17 *5873:CLK *5873:RESET_B 0
18 *5873:CLK *718:34 0
19 *645:12 *666:10 0
20 *645:12 *718:22 4.77537e-05
21 *645:12 *997:8 0
22 *645:12 *1014:40 0
23 *645:12 *1045:16 0
24 *645:12 *1045:20 0
25 *645:21 *718:20 0
26 *645:21 *718:22 0.000226765
27 *645:27 *1014:40 0.000502289
28 *645:31 *5859:RESET_B 0
29 *645:31 *5859:D 0
30 *5921:A *5871:CLK 0.000907402
31 *5921:A *645:12 0
32 *5921:A *645:21 0
33 *5921:A *645:31 0.000274649
34 *545:8 *645:12 0.000234224
35 *605:296 *645:31 0
36 *639:6 *5873:CLK 0
37 *639:6 *645:31 0
*RES
1 *5921:X *645:4 20 
2 *645:4 *645:12 48.5799 
3 *645:12 *5573:CLK 20 
4 *645:4 *645:21 1.9673 
5 *645:21 *645:27 42.3278 
6 *645:27 *645:31 8.24 
7 *645:31 *5873:CLK 26.8186 
8 *645:31 *5867:CLK 20 
9 *645:27 *5871:CLK 26.1594 
10 *645:21 *5801:CLK 20 
*END

*D_NET *646 0.0107155
*CONN
*I *5611:CLK I *D sg13g2_dfrbpq_1
*I *5615:CLK I *D sg13g2_dfrbpq_1
*I *5575:CLK I *D sg13g2_dfrbpq_1
*I *5543:CLK I *D sg13g2_dfrbpq_1
*I *5603:CLK I *D sg13g2_dfrbpq_1
*I *5922:X O *D sg13g2_buf_8
*CAP
1 *5611:CLK 0
2 *5615:CLK 0
3 *5575:CLK 6.75162e-05
4 *5543:CLK 0
5 *5603:CLK 0
6 *5922:X 0.00219751
7 *646:54 0.000544208
8 *646:48 0.00122413
9 *646:20 0.00153341
10 *646:12 0.00216325
11 *646:8 0.000697353
12 *646:6 0.00151759
13 *646:6 *5097:B1 0
14 *646:6 *5125:A2 0
15 *646:6 *5126:A1 0
16 *646:6 *5555:RESET_B 0
17 *646:6 *5575:RESET_B 0
18 *646:6 *6047:A 0
19 *646:6 *660:29 0
20 *646:6 *666:28 0
21 *646:6 *667:56 0
22 *646:6 *898:27 0
23 *646:12 *5079:A2 0
24 *646:12 *6096:A 0
25 *646:12 *707:93 0
26 *646:20 *5078:A 0
27 *646:20 *5079:B1 0
28 *646:20 *5079:A2 0
29 *646:20 *5543:RESET_B 0
30 *646:20 *5601:RESET_B 0
31 *646:20 *660:41 0
32 *646:20 *707:87 0
33 *646:20 *1086:10 0
34 *646:20 *1097:8 0
35 *646:48 *666:28 0
36 *646:54 *1113:8 0
37 *5080:B *646:20 0
38 *5613:CLK *646:20 0
39 *5922:A *646:48 0
40 *122:12 *646:54 0.000770526
41 *261:31 *646:6 0
42 *261:31 *646:48 0
43 *333:8 *5575:CLK 0
44 *333:8 *646:12 0
45 *643:27 *646:20 0
*RES
1 *5922:X *646:6 35.0277 
2 *646:6 *646:8 20 
3 *646:8 *646:12 26.0358 
4 *646:12 *646:20 35.759 
5 *646:20 *5603:CLK 40 
6 *646:12 *5543:CLK 20 
7 *646:8 *5575:CLK 40.8446 
8 *5922:X *646:48 27.4572 
9 *646:48 *646:54 46.7774 
10 *646:54 *5615:CLK 20 
11 *646:48 *5611:CLK 20 
*END

*D_NET *647 0.0084358
*CONN
*I *5715:CLK I *D sg13g2_dfrbpq_1
*I *5767:CLK I *D sg13g2_dfrbpq_1
*I *5751:CLK I *D sg13g2_dfrbpq_1
*I *5699:CLK I *D sg13g2_dfrbpq_1
*I *5931:A I *D sg13g2_inv_1
*I *5683:CLK I *D sg13g2_dfrbpq_1
*I *5923:X O *D sg13g2_buf_8
*CAP
1 *5715:CLK 0
2 *5767:CLK 0
3 *5751:CLK 0
4 *5699:CLK 0
5 *5931:A 0.000203292
6 *5683:CLK 0.00059728
7 *5923:X 0.00059728
8 *647:66 0.000178897
9 *647:50 0.000632686
10 *647:44 0.00139583
11 *647:42 0.0015535
12 *647:29 0.000921562
13 *647:18 0.000513395
14 *5683:CLK *5308:A1 0
15 *5683:CLK *5331:B 0
16 *5683:CLK *669:14 4.77425e-05
17 *5683:CLK *1083:32 0
18 *5931:A *671:18 0.000724377
19 *647:29 *671:18 0.000507935
20 *647:42 *5357:B 0
21 *647:42 *5715:RESET_B 0
22 *647:44 *5357:B 0
23 *647:44 *5414:A1 0
24 *647:44 *5767:RESET_B 0
25 *647:44 *6112:A 0
26 *647:44 *683:51 0
27 *647:44 *683:61 0
28 *647:44 *841:10 0
29 *647:50 *5431:B 0
30 *647:50 *711:30 0
31 *647:50 *841:10 0
32 *647:50 *975:12 0
33 *5357:C *647:44 0
34 *494:14 *647:66 0.000562019
*RES
1 *5923:X *5683:CLK 45.3257 
2 *5923:X *647:18 40 
3 *647:18 *5931:A 43.3166 
4 *647:18 *647:29 2.879 
5 *647:29 *5699:CLK 40 
6 *647:29 *647:42 26.1388 
7 *647:42 *647:44 7.8898 
8 *647:44 *647:50 47.7662 
9 *647:50 *5751:CLK 20 
10 *647:44 *5767:CLK 20 
11 *647:42 *647:66 42.8222 
12 *647:66 *5715:CLK 20 
*END

*D_NET *648 0.0103352
*CONN
*I *5831:CLK I *D sg13g2_dfrbpq_1
*I *5749:CLK I *D sg13g2_dfrbpq_1
*I *5817:CLK I *D sg13g2_dfrbpq_1
*I *5835:CLK I *D sg13g2_dfrbpq_1
*I *5837:CLK I *D sg13g2_dfrbpq_1
*I *5833:CLK I *D sg13g2_dfrbpq_1
*I *5924:X O *D sg13g2_buf_8
*CAP
1 *5831:CLK 0.00036994
2 *5749:CLK 0
3 *5817:CLK 0.000645354
4 *5835:CLK 0.000140051
5 *5837:CLK 0.000478615
6 *5833:CLK 0
7 *5924:X 0.000578303
8 *648:67 0.00107096
9 *648:63 0.00183152
10 *648:32 0.00133827
11 *648:17 0.00134402
12 *648:6 0.000500225
13 *5817:CLK *5503:A 0
14 *5817:CLK *5817:RESET_B 0
15 *5817:CLK *1001:111 0.000598997
16 *5831:CLK *5497:B 0
17 *5831:CLK *5831:RESET_B 0
18 *5831:CLK *693:73 0
19 *5831:CLK *1131:8 0
20 *5831:CLK *1131:18 0
21 *5837:CLK *5508:A 0.000288174
22 *5837:CLK *998:25 0
23 *5837:CLK *1001:28 0
24 *5837:CLK *1006:77 0
25 *648:6 *714:26 0
26 *648:17 *5508:A 0.000266733
27 *648:17 *5833:RESET_B 0
28 *648:17 *693:43 4.77425e-05
29 *648:17 *693:58 7.51285e-05
30 *648:17 *714:26 0
31 *648:17 *1006:77 0
32 *648:32 *5833:RESET_B 8.0216e-05
33 *648:32 *693:43 0
34 *648:63 *714:26 0
35 *648:63 *1001:28 0
36 *648:67 *5396:A1 0
37 *648:67 *5831:RESET_B 0
38 *5505:C *5817:CLK 0
39 *5508:D *648:32 0
40 *5925:A *5817:CLK 0
41 *5925:A *648:32 0.000339393
42 *69:22 *648:67 0
43 *232:10 *5831:CLK 0
44 *234:8 *5817:CLK 0
45 *234:8 *5835:CLK 0
46 *581:8 *648:63 0
47 *584:10 *5837:CLK 0.000341534
*RES
1 *5924:X *648:6 22.266 
2 *648:6 *5833:CLK 20 
3 *648:6 *648:17 23.4196 
4 *648:17 *5837:CLK 46.0358 
5 *648:17 *648:32 46.1594 
6 *648:32 *5835:CLK 41.339 
7 *648:32 *5817:CLK 46.5714 
8 *5924:X *648:63 44.2539 
9 *648:63 *648:67 31.3506 
10 *648:67 *5749:CLK 20 
11 *648:63 *5831:CLK 44.3466 
*END

*D_NET *649 0.0133141
*CONN
*I *5857:CLK I *D sg13g2_dfrbpq_1
*I *5815:CLK I *D sg13g2_dfrbpq_1
*I *5587:CLK I *D sg13g2_dfrbpq_1
*I *5589:CLK I *D sg13g2_dfrbpq_1
*I *5821:CLK I *D sg13g2_dfrbpq_1
*I *5932:A I *D sg13g2_inv_1
*I *5925:X O *D sg13g2_buf_8
*CAP
1 *5857:CLK 0
2 *5815:CLK 0
3 *5587:CLK 0
4 *5589:CLK 0
5 *5821:CLK 0
6 *5932:A 0
7 *5925:X 0.00023305
8 *649:63 0.00104314
9 *649:38 0.00108005
10 *649:34 0.0033113
11 *649:32 0.00227897
12 *649:30 0.00181181
13 *649:21 0.00136573
14 *649:8 0.000877835
15 *649:8 *699:30 0.000350166
16 *649:21 *699:20 0
17 *649:21 *699:30 0.000291661
18 *649:21 *1120:47 0
19 *649:30 *699:20 0
20 *649:30 *720:12 0
21 *649:34 *693:20 0
22 *649:34 *710:8 0
23 *649:38 *765:16 0.00067038
24 *649:63 *5476:C1 0
25 *649:63 *1041:18 0
26 *5484:A1 *649:21 0
27 *5536:B1 *649:63 0
28 *5817:D *649:8 0
29 *5817:D *649:21 0
30 *227:8 *649:21 0
31 *554:6 *649:63 0
32 *604:10 *649:63 0
*RES
1 *5925:X *649:8 22.9252 
2 *649:8 *5932:A 20 
3 *649:8 *649:21 47.313 
4 *649:21 *5821:CLK 20 
5 *649:21 *649:30 27.8898 
6 *649:30 *649:32 0.5974 
7 *649:32 *649:34 24.5758 
8 *649:34 *649:38 32.9574 
9 *649:38 *5589:CLK 20 
10 *649:34 *5587:CLK 40 
11 *649:32 *5815:CLK 40 
12 *649:30 *649:63 31.2064 
13 *649:63 *5857:CLK 20 
*END

*D_NET *650 0.0096743
*CONN
*I *5829:CLK I *D sg13g2_dfrbpq_1
*I *5825:CLK I *D sg13g2_dfrbpq_1
*I *5827:CLK I *D sg13g2_dfrbpq_1
*I *5811:CLK I *D sg13g2_dfrbpq_1
*I *5823:CLK I *D sg13g2_dfrbpq_1
*I *5926:X O *D sg13g2_buf_8
*CAP
1 *5829:CLK 0
2 *5825:CLK 0.000629784
3 *5827:CLK 0.000210781
4 *5811:CLK 0.00107312
5 *5823:CLK 7.3196e-05
6 *5926:X 0.00102448
7 *650:59 0.000976331
8 *650:46 0.00184502
9 *650:35 0.000949025
10 *650:10 0.00167146
11 *5811:CLK *5811:RESET_B 0
12 *5811:CLK *714:99 0
13 *5811:CLK *1011:18 0.000469121
14 *5811:CLK *1049:16 0
15 *5823:CLK *1011:18 0
16 *5825:CLK *5534:A1 0
17 *5825:CLK *680:14 0
18 *5825:CLK *681:43 0
19 *5825:CLK *698:39 0
20 *5825:CLK *1128:12 0
21 *5827:CLK *5827:RESET_B 0
22 *650:10 *5486:B 0
23 *650:10 *5855:RESET_B 0
24 *650:10 *1127:10 0
25 *650:35 *5855:RESET_B 0
26 *650:46 *681:43 0
27 *650:59 *5493:A 0
28 *650:59 *5495:A 0
29 *650:59 *5495:B 0
30 *650:59 *5827:RESET_B 0
31 *650:59 *5829:RESET_B 0
32 *650:59 *5962:A 0
33 *650:59 *1008:63 0
34 *5493:D *650:59 0
35 *5534:B1 *650:59 0
36 *5827:D *650:59 8.03692e-05
37 *6008:A *5811:CLK 0.000436055
38 *229:10 *5825:CLK 0.000235556
39 *556:53 *5823:CLK 0
40 *556:72 *650:10 0
41 *633:36 *650:35 0
*RES
1 *5926:X *650:10 25.5311 
2 *650:10 *5823:CLK 20.8446 
3 *650:10 *5811:CLK 32.2364 
4 *5926:X *650:35 25.5105 
5 *650:35 *5827:CLK 22.266 
6 *650:35 *650:46 23.0694 
7 *650:46 *5825:CLK 46.7774 
8 *650:46 *650:59 30.0528 
9 *650:59 *5829:CLK 20 
*END

*D_NET *651 0.00886017
*CONN
*I *5819:CLK I *D sg13g2_dfrbpq_1
*I *5809:CLK I *D sg13g2_dfrbpq_1
*I *5807:CLK I *D sg13g2_dfrbpq_1
*I *5539:CLK I *D sg13g2_dfrbpq_1
*I *5805:CLK I *D sg13g2_dfrbpq_1
*I *5927:X O *D sg13g2_buf_8
*CAP
1 *5819:CLK 0.000245793
2 *5809:CLK 0
3 *5807:CLK 0.000146188
4 *5539:CLK 0.000783962
5 *5805:CLK 0
6 *5927:X 0.000172916
7 *651:31 0.00172877
8 *651:27 0.00184652
9 *651:14 0.00169448
10 *651:8 0.00106528
11 *5539:CLK *5807:RESET_B 0
12 *5539:CLK *899:10 0
13 *5539:CLK *1049:16 0
14 *5807:CLK *1030:56 0
15 *651:31 *5466:A 0
16 *651:31 *719:43 0.000126441
17 *651:31 *940:8 0
18 *651:31 *1030:56 0
19 *69:34 *5819:CLK 0
20 *69:34 *651:14 0
21 *69:34 *651:27 0
22 *548:8 *651:31 0
23 *551:50 *651:8 0.000649405
24 *551:50 *651:14 0.00040042
25 *605:35 *651:14 0
26 *605:35 *651:27 0
*RES
1 *5927:X *651:8 43.0694 
2 *651:8 *651:14 27.5602 
3 *651:14 *5805:CLK 20 
4 *651:14 *651:27 8.36875 
5 *651:27 *651:31 29.0022 
6 *651:31 *5539:CLK 47.8898 
7 *651:31 *5807:CLK 41.8334 
8 *651:27 *5809:CLK 20 
9 *651:8 *5819:CLK 42.266 
*END

*D_NET *652 0.0121538
*CONN
*I *5743:CLK I *D sg13g2_dfrbpq_1
*I *5745:CLK I *D sg13g2_dfrbpq_1
*I *5693:CLK I *D sg13g2_dfrbpq_1
*I *5691:CLK I *D sg13g2_dfrbpq_1
*I *5675:CLK I *D sg13g2_dfrbpq_1
*I *5845:CLK I *D sg13g2_dfrbpq_1
*I *5928:X O *D sg13g2_buf_8
*CAP
1 *5743:CLK 0.000349154
2 *5745:CLK 0
3 *5693:CLK 0.000808188
4 *5691:CLK 0.000665924
5 *5675:CLK 0.00018656
6 *5845:CLK 0.000704338
7 *5928:X 0
8 *652:47 0.00131833
9 *652:41 0.00100652
10 *652:30 0.001028
11 *652:8 0.00114942
12 *652:6 0.000473375
13 *5675:CLK *5296:B1 0.000274611
14 *5675:CLK *685:8 0
15 *5691:CLK *5320:B1 0.00024156
16 *5691:CLK *5390:A0 0
17 *5691:CLK *5390:A1 0.000242324
18 *5691:CLK *712:16 0.000630252
19 *5691:CLK *1029:21 0
20 *5691:CLK *1029:31 0
21 *5693:CLK *5323:A1 0
22 *5693:CLK *5323:B1 0
23 *5693:CLK *1030:30 0.000478312
24 *5743:CLK *5743:RESET_B 0
25 *5743:CLK *712:36 0.000595257
26 *5845:CLK *1036:10 0.000663546
27 *652:8 *1029:31 0.000238459
28 *652:30 *1029:31 0.000129968
29 *652:41 *712:36 0.000291502
30 *652:47 *1030:30 0
31 *5391:A *5691:CLK 0.000177164
32 *454:10 *5845:CLK 0.000501044
33 *605:124 *5845:CLK 0
34 *605:124 *652:8 0
35 *605:124 *652:30 0
36 *616:12 *652:30 0
*RES
1 *5928:X *652:6 40 
2 *652:6 *652:8 3.0694 
3 *652:8 *5845:CLK 47.8074 
4 *652:8 *5675:CLK 41.8334 
5 *652:6 *652:30 2.3278 
6 *652:30 *5691:CLK 47.4572 
7 *652:30 *652:41 1.8334 
8 *652:41 *652:47 24.7792 
9 *652:47 *5693:CLK 28.9816 
10 *652:47 *5745:CLK 20 
11 *652:41 *5743:CLK 44.6556 
*END

*D_NET *653 0.00712442
*CONN
*I *5759:CLK I *D sg13g2_dfrbpq_1
*I *5793:CLK I *D sg13g2_dfrbpq_1
*I *5933:A I *D sg13g2_inv_1
*I *5725:CLK I *D sg13g2_dfrbpq_1
*I *5709:CLK I *D sg13g2_dfrbpq_1
*I *5707:CLK I *D sg13g2_dfrbpq_1
*I *5929:X O *D sg13g2_buf_8
*CAP
1 *5759:CLK 0.000232053
2 *5793:CLK 0.000157163
3 *5933:A 5.66007e-05
4 *5725:CLK 0
5 *5709:CLK 0.000759504
6 *5707:CLK 0.000806079
7 *5929:X 0.000593433
8 *653:67 0.000389216
9 *653:65 0.000392701
10 *653:18 0.00173249
11 *653:12 0.000248858
12 *653:10 0.000138548
13 *653:8 0.000200732
14 *5707:CLK *5725:RESET_B 0.000339596
15 *5709:CLK *5371:A1 0.000598734
16 *5709:CLK *5371:B1 0
17 *5759:CLK *6107:A 0
18 *5759:CLK *6127:A 4.77537e-05
19 *5759:CLK *942:25 0
20 *5793:CLK *5793:RESET_B 0
21 *5793:CLK *6127:A 0.00027465
22 *653:65 *713:54 7.61954e-05
23 *5372:C *5709:CLK 0
24 *5929:A *5709:CLK 0
25 *5929:A *5933:A 0
26 *5929:A *653:12 0
27 *6028:A *5759:CLK 0
28 *605:130 *5709:CLK 0
29 *605:137 *5709:CLK 0
30 *605:154 *5707:CLK 0
31 *605:154 *5709:CLK 0
32 *616:8 *5709:CLK 8.01118e-05
*RES
1 *5929:X *653:8 42.0806 
2 *653:8 *653:10 20 
3 *653:10 *653:12 1.4008 
4 *653:12 *653:18 41.8334 
5 *653:18 *5707:CLK 28.6932 
6 *653:18 *5709:CLK 28.343 
7 *653:12 *5725:CLK 20 
8 *653:10 *5933:A 20.8858 
9 *5929:X *653:65 44.7998 
10 *653:65 *653:67 20 
11 *653:67 *5793:CLK 21.8334 
12 *653:67 *5759:CLK 22.266 
*END

*D_NET *654 0.00207063
*CONN
*I *5998:A I *D sg13g2_buf_1
*I *6078:X O *D sg13g2_buf_1
*CAP
1 *5998:A 0.000418969
2 *6078:X 0.000616347
3 *654:10 0.00103532
4 *5998:A *658:16 0
5 *6078:A *654:10 0
*RES
1 *6078:X *654:10 47.1894 
2 *654:10 *5998:A 44.8204 
*END

*D_NET *655 0.00189467
*CONN
*I *5120:A2 I *D sg13g2_o21ai_1
*I *6080:A I *D sg13g2_buf_1
*I *5571:Q O *D sg13g2_dfrbpq_1
*CAP
1 *5120:A2 3.32621e-05
2 *6080:A 0.000318779
3 *5571:Q 0.000579838
4 *655:8 0.000931879
5 *5120:A2 *5120:B1 1.54556e-05
6 *5120:A2 *5120:A1 1.54556e-05
7 *5120:A2 *5571:RESET_B 0
8 boot_addr[17] *6080:A 0
9 *5121:B1 *5120:A2 0
10 *5121:B1 *6080:A 0
11 *262:14 *655:8 0
*RES
1 *5571:Q *655:8 47.0246 
2 *655:8 *6080:A 42.9252 
3 *655:8 *5120:A2 40.3193 
*END

*D_NET *656 0.0115021
*CONN
*I *5263:A I *D sg13g2_nand3_1
*I *5262:A I *D sg13g2_and3_1
*I *5117:B_N I *D sg13g2_nor2b_1
*I *5118:A1 I *D sg13g2_o21ai_1
*I *5121:A1 I *D sg13g2_a21oi_1
*I *5120:A1 I *D sg13g2_o21ai_1
*I *5128:A1 I *D sg13g2_a21oi_1
*I *5940:X O *D sg13g2_buf_1
*CAP
1 *5263:A 0
2 *5262:A 2.60565e-05
3 *5117:B_N 9.1943e-05
4 *5118:A1 0.000150256
5 *5121:A1 0
6 *5120:A1 0.000220161
7 *5128:A1 0.000261661
8 *5940:X 9.88243e-05
9 *656:53 0.000660376
10 *656:44 0.000796764
11 *656:31 0.00102648
12 *656:22 0.00249181
13 *656:18 0.00222866
14 *656:8 0.000499013
15 *5120:A1 *5120:B1 0
16 *5120:A1 *5571:RESET_B 0
17 *5128:A1 *705:71 0.000112689
18 *5262:A *5262:B 4.77425e-05
19 *5262:A *1106:38 4.77425e-05
20 *656:18 *5263:C 0
21 *656:18 *1106:40 0
22 *656:22 *688:8 0.000933349
23 *656:22 *705:39 0
24 *656:22 *705:41 0
25 *656:22 *1031:32 0
26 *656:22 *1031:34 0
27 *656:22 *1106:40 0
28 *656:22 *1106:42 0
29 *656:31 *5120:B1 0
30 *656:31 *705:71 0.000226776
31 *656:44 *5571:RESET_B 0
32 *656:53 *5569:RESET_B 0
33 *5120:A2 *5120:A1 1.54556e-05
34 *5128:A2 *5128:A1 1.54556e-05
35 *5128:B1 *5128:A1 0
36 *5264:D *656:8 0
37 *5569:CLK *656:53 0
38 *5571:D *5120:A1 0.00023398
39 *5571:D *656:44 7.50503e-05
40 *5571:CLK *656:44 0
41 *5571:CLK *656:53 0
42 *5577:CLK *5128:A1 0
43 *262:14 *656:44 2.75793e-05
44 *348:63 *656:18 0
45 *421:32 *656:18 0
46 *421:32 *656:22 0.000821415
47 *427:10 *656:22 0.000392853
48 *430:12 *656:18 0
*RES
1 *5940:X *656:8 21.133 
2 *656:8 *656:18 23.6565 
3 *656:18 *656:22 39.1374 
4 *656:22 *5128:A1 22.4823 
5 *656:22 *656:31 4.8616 
6 *656:31 *5120:A1 22.3381 
7 *656:31 *656:44 3.7595 
8 *656:44 *5121:A1 20 
9 *656:44 *656:53 23.9964 
10 *656:53 *5118:A1 41.339 
11 *656:53 *5117:B_N 40.8446 
12 *656:18 *5262:A 40.3193 
13 *656:8 *5263:A 20 
*END

*D_NET *657 0.0166435
*CONN
*I *5032:A I *D sg13g2_and2_1
*I *5122:B_N I *D sg13g2_nor2b_1
*I *5940:A I *D sg13g2_buf_1
*I *6027:A I *D sg13g2_buf_1
*I *5237:A I *D sg13g2_nand4_1
*I *5941:X O *D sg13g2_buf_1
*CAP
1 *5032:A 4.69537e-05
2 *5122:B_N 0.000349086
3 *5940:A 3.46767e-05
4 *6027:A 0
5 *5237:A 0.0007768
6 *5941:X 0
7 *657:41 0.000460863
8 *657:33 0.00140958
9 *657:18 0.00189751
10 *657:14 0.00260145
11 *657:8 0.00289404
12 *657:4 0.000197131
13 *5032:A *5941:A 0
14 *5122:B_N *5031:A 0
15 *5122:B_N *5122:A 0
16 *5122:B_N *5941:A 1.55493e-05
17 *5122:B_N *662:10 0
18 *5122:B_N *662:23 0
19 *5122:B_N *708:34 0
20 *5122:B_N *1093:10 0
21 *5237:A *5663:RESET_B 0
22 *5237:A *1015:50 0
23 *657:8 *5031:A 0
24 *657:8 *5941:A 0
25 *657:14 *5025:A 0
26 *657:14 *5031:A 0
27 *657:14 *5219:D 0
28 *657:14 *1003:31 0
29 *657:14 *1045:28 0
30 *657:14 *1094:16 0
31 *657:14 *1094:24 0
32 *657:33 *1110:8 0
33 *657:41 *5274:B 0.000550952
34 *657:41 *705:39 0.000714685
35 *5270:A1 *657:33 0
36 *5272:C *657:33 0.000265575
37 *5275:A1 *657:33 0
38 *5663:CLK *5237:A 0
39 *5869:D *657:14 0
40 *249:10 *657:33 0.000128662
41 *249:12 *657:33 0
42 *255:40 *5237:A 0
43 *261:25 *657:14 0
44 *279:12 *657:33 0
45 *280:16 *657:33 0
46 *348:63 *657:33 0
47 *387:14 *657:18 0
48 *389:35 *5237:A 0.00101798
49 *389:35 *657:33 0
50 *393:12 *657:14 0.000340288
51 *393:32 *657:14 0.000954301
52 *409:14 *5237:A 1.54556e-05
53 *421:32 *657:41 0.00108289
54 *421:41 *657:41 0.000157445
55 *429:8 *657:33 0.000605305
56 *430:35 *657:33 0.000126358
57 *605:249 *657:41 0
58 *639:40 *657:14 0
59 *639:53 *5122:B_N 0
60 *639:53 *657:14 0
*RES
1 *5941:X *657:4 20 
2 *657:4 *657:8 2.0291 
3 *657:8 *657:14 43.2069 
4 *657:14 *657:18 22.0497 
5 *657:18 *5237:A 27.4827 
6 *657:18 *657:33 30.4133 
7 *657:33 *657:41 48.2709 
8 *657:41 *6027:A 40 
9 *657:33 *5940:A 40.3193 
10 *657:8 *5122:B_N 23.7801 
11 *657:4 *5032:A 20.5974 
*END

*D_NET *658 0.0150814
*CONN
*I *5103:A1 I *D sg13g2_o21ai_1
*I *5102:B_N I *D sg13g2_nor2b_1
*I *5100:A1 I *D sg13g2_o21ai_1
*I *5099:B_N I *D sg13g2_nor2b_1
*I *5114:B_N I *D sg13g2_nor2b_1
*I *5115:A1 I *D sg13g2_o21ai_1
*I *5112:A1 I *D sg13g2_o21ai_1
*I *5111:B_N I *D sg13g2_nor2b_1
*I *5942:X O *D sg13g2_buf_1
*CAP
1 *5103:A1 0
2 *5102:B_N 0
3 *5100:A1 0
4 *5099:B_N 0
5 *5114:B_N 4.95132e-05
6 *5115:A1 0
7 *5112:A1 0
8 *5111:B_N 3.12743e-05
9 *5942:X 0
10 *658:107 0.000272546
11 *658:92 0.000938431
12 *658:77 0.000871302
13 *658:54 0.000365949
14 *658:39 0.000158034
15 *658:22 0.000731673
16 *658:18 0.000957827
17 *658:16 0.00235607
18 *658:10 0.00239358
19 *658:4 0.000341947
20 *658:10 *662:48 0.000287758
21 *658:10 *1116:18 1.54008e-05
22 *658:10 *1117:78 8.00842e-05
23 *658:16 *659:23 0
24 *658:16 *659:37 0
25 *658:16 *662:48 0.00151529
26 *658:16 *706:10 0
27 *658:16 *706:43 0
28 *658:16 *706:45 0
29 *658:16 *706:64 0
30 *658:16 *709:18 0
31 *658:16 *709:30 0
32 *658:16 *783:8 0
33 *658:16 *988:10 0
34 *658:22 *5111:A 0
35 *658:22 *709:30 0
36 *658:22 *1090:67 0
37 *658:39 *5112:B1 0
38 *658:39 *999:10 0.00050104
39 *658:54 *5115:A2 0.000144896
40 *658:54 *1010:8 0
41 *658:77 *5100:B1 0
42 *658:77 *1116:18 0
43 *658:77 *1117:78 0.000274709
44 *658:92 *5100:A2 0.000209697
45 *658:92 *5103:B1 0.000112335
46 *658:92 *5557:RESET_B 0
47 *658:92 *6100:A 0.000112769
48 *658:92 *1117:78 0
49 *658:107 *5103:B1 0.000274414
50 *658:107 *5103:A2 1.54556e-05
51 *658:107 *6100:A 0.000259051
52 *658:107 *1117:84 0
53 *5113:A *658:39 2.21754e-05
54 *5559:CLK *658:92 0.000176537
55 *5559:CLK *658:107 8.02763e-05
56 *5565:CLK *658:22 0.000598904
57 *5567:CLK *658:16 0
58 *5567:CLK *658:22 1.54008e-05
59 *5567:CLK *658:54 0.000129271
60 *5998:A *658:16 0
61 *316:10 *658:77 0
62 *322:10 *658:16 0
63 *324:8 *658:39 0.000447678
64 *326:8 *658:54 0.000340109
*RES
1 *5942:X *658:4 20 
2 *658:4 *658:10 21.8746 
3 *658:10 *658:16 48.5104 
4 *658:16 *658:18 0.5974 
5 *658:18 *658:22 5.8607 
6 *658:22 *5111:B_N 20.3193 
7 *658:22 *658:39 42.9973 
8 *658:39 *5112:A1 20 
9 *658:18 *658:54 44.5114 
10 *658:54 *5115:A1 20 
11 *658:16 *5114:B_N 20.5974 
12 *658:10 *5099:B_N 40 
13 *658:4 *658:77 2.4308 
14 *658:77 *5100:A1 20 
15 *658:77 *658:92 46.6744 
16 *658:92 *5102:B_N 20 
17 *658:92 *658:107 43.2136 
18 *658:107 *5103:A1 20 
*END

*D_NET *659 0.00362491
*CONN
*I *5106:A1 I *D sg13g2_o21ai_1
*I *5105:B_N I *D sg13g2_nor2b_1
*I *5109:A1 I *D sg13g2_o21ai_1
*I *5108:B_N I *D sg13g2_nor2b_1
*I *5943:X O *D sg13g2_buf_1
*CAP
1 *5106:A1 0.000183975
2 *5105:B_N 0
3 *5109:A1 0
4 *5108:B_N 0.000187344
5 *5943:X 0.000218332
6 *659:41 0.000598498
7 *659:37 0.000632854
8 *659:23 0.000207249
9 *659:4 0.000394593
10 *5106:A1 *5105:A 0
11 *5106:A1 *5106:A2 1.54556e-05
12 *5106:A1 *706:64 0
13 *5108:B_N *5108:A 0
14 *659:23 *706:64 0.000555408
15 *659:37 *706:64 0
16 *659:41 *5105:A 0
17 *659:41 *706:64 0
18 *5110:A *659:23 0
19 *5563:D *659:41 0
20 *5563:CLK *5108:B_N 0
21 *5563:CLK *659:23 0
22 *322:10 *5108:B_N 0.000208758
23 *322:10 *659:23 0.000422448
24 *322:10 *659:37 0
25 *658:16 *659:23 0
26 *658:16 *659:37 0
*RES
1 *5943:X *659:4 20 
2 *659:4 *5108:B_N 21.9673 
3 *659:4 *659:23 43.4299 
4 *659:23 *5109:A1 20 
5 *5943:X *659:37 42.3278 
6 *659:37 *659:41 23.5638 
7 *659:41 *5105:B_N 20 
8 *659:41 *5106:A1 21.8334 
*END

*D_NET *660 0.0112388
*CONN
*I *5126:A1 I *D sg13g2_a21oi_1
*I *5079:A1 I *D sg13g2_o21ai_1
*I *5078:B_N I *D sg13g2_nor2b_1
*I *5085:A1 I *D sg13g2_o21ai_1
*I *5084:B_N I *D sg13g2_nor2b_1
*I *5081:B_N I *D sg13g2_nor2b_1
*I *5082:A1 I *D sg13g2_o21ai_1
*I *5096:B_N I *D sg13g2_nor2b_1
*I *5944:X O *D sg13g2_buf_1
*CAP
1 *5126:A1 0.000156868
2 *5079:A1 0.000199828
3 *5078:B_N 0
4 *5085:A1 0
5 *5084:B_N 0
6 *5081:B_N 0
7 *5082:A1 0.000251936
8 *5096:B_N 0
9 *5944:X 2.95259e-05
10 *660:47 0.000807103
11 *660:45 0.000987592
12 *660:43 0.000678916
13 *660:41 0.000717416
14 *660:35 0.000920528
15 *660:29 0.000979521
16 *660:18 0.000398997
17 *660:6 0.0010014
18 *5079:A1 *5079:B1 0
19 *5079:A1 *5079:A2 1.54556e-05
20 *5079:A1 *707:87 0
21 *5082:A1 *5082:B1 0
22 *5082:A1 *707:21 0
23 *5082:A1 *708:10 0.000342035
24 *5126:A1 *5575:RESET_B 0
25 *660:18 *5096:A 0
26 *660:18 *5944:A 0
27 *660:18 *662:38 0
28 *660:18 *1086:10 0
29 *660:29 *1086:10 0
30 *660:35 *707:93 0
31 *660:41 *707:87 0
32 *660:41 *707:93 0
33 *660:43 *708:10 0.000771926
34 *660:45 *707:21 0
35 *660:45 *708:10 0.00114344
36 *660:47 *707:21 0
37 *660:47 *708:10 0.00146451
38 *5098:B *660:18 0
39 *5555:D *660:29 0
40 *5613:CLK *660:18 0
41 *5613:CLK *660:29 0
42 *89:10 *5082:A1 0
43 *261:31 *660:18 0
44 *261:31 *660:29 0
45 *261:39 *5126:A1 0.000259112
46 *261:39 *660:29 0.000112689
47 *304:10 *5082:A1 0
48 *646:6 *5126:A1 0
49 *646:6 *660:29 0
50 *646:20 *660:41 0
*RES
1 *5944:X *660:6 20.3502 
2 *660:6 *660:18 43.9964 
3 *660:18 *5096:B_N 20 
4 *660:6 *660:29 6.18 
5 *660:29 *660:35 43.0694 
6 *660:35 *660:41 24.5938 
7 *660:41 *660:43 3.811 
8 *660:43 *660:45 5.2942 
9 *660:45 *660:47 6.7774 
10 *660:47 *5082:A1 42.575 
11 *660:47 *5081:B_N 40 
12 *660:45 *5084:B_N 40 
13 *660:43 *5085:A1 40 
14 *660:41 *5078:B_N 40 
15 *660:35 *5079:A1 21.8334 
16 *660:29 *5126:A1 21.8334 
*END

*D_NET *661 0.0132823
*CONN
*I *5944:A I *D sg13g2_buf_1
*I *5155:A1 I *D sg13g2_o21ai_1
*I *5157:A I *D sg13g2_or2_1
*I *5152:A_N I *D sg13g2_nand2b_1
*I *5169:A1 I *D sg13g2_o21ai_1
*I *5123:A1 I *D sg13g2_o21ai_1
*I *5945:X O *D sg13g2_buf_1
*CAP
1 *5944:A 0.000728571
2 *5155:A1 0.000221671
3 *5157:A 0
4 *5152:A_N 0
5 *5169:A1 0.000484998
6 *5123:A1 0.00033521
7 *5945:X 0.00099332
8 *661:61 0.000950242
9 *661:59 0.00154499
10 *661:45 8.51677e-05
11 *661:39 0.000388309
12 *661:22 0.000935443
13 *661:20 0.00235041
14 *5123:A1 *662:23 0
15 *5123:A1 *707:65 0
16 *5155:A1 *5155:A2 0.000112057
17 *5155:A1 *5158:A2 7.52149e-05
18 *5155:A1 *692:8 0.000234195
19 *5155:A1 *692:10 7.48842e-05
20 *5155:A1 *1097:8 0
21 *5169:A1 *5169:A2 0.000497526
22 *5944:A *5096:A 0
23 *5944:A *5158:A2 0.000212127
24 *5944:A *662:38 0
25 *5944:A *1086:10 4.77537e-05
26 *661:20 *725:8 0
27 *661:20 *1014:40 0
28 *661:22 *1014:40 0
29 *661:39 *5158:A1 0
30 *661:45 *707:65 0.000289155
31 *661:59 *5158:A1 0
32 *661:59 *5174:A1 0
33 *661:59 *5174:B1 4.77425e-05
34 *661:59 *5615:RESET_B 0.00033942
35 *661:59 *5973:A 0.000112013
36 *661:59 *1113:73 0
37 *661:59 *1114:12 0.000339398
38 *5098:B *5944:A 7.53965e-05
39 *5158:B1 *661:59 0
40 *5613:D *661:59 0.000468765
41 *5615:D *661:59 0
42 *6010:A *5169:A1 0.0004977
43 *6010:A *661:39 0
44 *261:31 *5123:A1 0.000533805
45 *363:10 *661:59 0.000306772
46 *660:18 *5944:A 0
*RES
1 *5945:X *5123:A1 43.5638 
2 *5945:X *661:20 47.7662 
3 *661:20 *661:22 1.5862 
4 *661:22 *5169:A1 45.6753 
5 *661:22 *661:39 23.3269 
6 *661:39 *661:45 41.339 
7 *661:45 *5152:A_N 20 
8 *661:39 *5157:A 20 
9 *661:20 *661:59 35.8929 
10 *661:59 *661:61 20 
11 *661:61 *5155:A1 42.5544 
12 *661:61 *5944:A 48.0649 
*END

*D_NET *662 0.020329
*CONN
*I *5942:A I *D sg13g2_buf_1
*I *5943:A I *D sg13g2_buf_1
*I *5945:A I *D sg13g2_buf_1
*I *5941:A I *D sg13g2_buf_1
*I *5946:X O *D sg13g2_buf_1
*CAP
1 *5942:A 0
2 *5943:A 0.000206133
3 *5945:A 0
4 *5941:A 0.000159394
5 *5946:X 0.000205827
6 *662:48 0.000764458
7 *662:42 0.000642103
8 *662:38 0.00273771
9 *662:36 0.00398247
10 *662:23 0.00213696
11 *662:10 0.00117365
12 *5943:A *5563:RESET_B 4.77425e-05
13 *5943:A *706:64 0
14 *662:10 *5031:A 0.000144138
15 *662:10 *708:34 3.15908e-05
16 *662:23 *5573:RESET_B 0
17 *662:23 *707:65 0
18 *662:36 *5096:A 0
19 *662:36 *5611:RESET_B 0.000339294
20 *662:36 *1115:6 0
21 *662:38 *5158:A2 0
22 *662:38 *5161:B 0
23 *662:38 *692:8 0
24 *662:38 *692:10 0
25 *662:38 *719:25 0
26 *662:38 *1004:10 0.000770114
27 *662:38 *1004:25 0.00221749
28 *662:38 *1013:35 0
29 *662:38 *1015:125 0
30 *662:38 *1015:131 0
31 *662:42 *1117:78 0.00014514
32 *5032:A *5941:A 0
33 *5122:B_N *5941:A 1.55493e-05
34 *5122:B_N *662:10 0
35 *5122:B_N *662:23 0
36 *5123:A1 *662:23 0
37 *5124:B *662:23 0
38 *5557:CLK *662:42 0
39 *5563:CLK *5943:A 0
40 *5609:CLK *662:36 0.000274709
41 *5944:A *662:38 0
42 *261:31 *662:10 0
43 *261:31 *662:23 0
44 *261:31 *662:36 0.00208866
45 *316:10 *662:48 0
46 *320:8 *662:48 0
47 *322:10 *5943:A 4.77425e-05
48 *349:10 *662:38 0
49 *354:25 *662:38 0.000395068
50 *657:8 *5941:A 0
51 *658:10 *662:48 0.000287758
52 *658:16 *662:48 0.00151529
53 *660:18 *662:38 0
*RES
1 *5946:X *662:10 22.2866 
2 *662:10 *5941:A 21.8489 
3 *662:10 *662:23 8.5181 
4 *662:23 *5945:A 20 
5 *662:23 *662:36 35.5118 
6 *662:36 *662:38 30.7558 
7 *662:38 *662:42 20.9682 
8 *662:42 *662:48 48.755 
9 *662:48 *5943:A 22.266 
10 *662:42 *5942:A 20 
*END

*D_NET *663 0.020858
*CONN
*I *5416:S I *D sg13g2_mux2_1
*I *5420:S I *D sg13g2_mux2_1
*I *5404:S I *D sg13g2_mux2_1
*I *5434:S I *D sg13g2_mux2_1
*I *5432:S I *D sg13g2_mux2_1
*I *5402:S I *D sg13g2_mux2_1
*I *5400:S I *D sg13g2_mux2_1
*I *5384:S I *D sg13g2_mux2_1
*I *5947:X O *D sg13g2_buf_1
*CAP
1 *5416:S 0
2 *5420:S 4.72978e-05
3 *5404:S 0.000362892
4 *5434:S 0.00014419
5 *5432:S 5.37611e-05
6 *5402:S 0
7 *5400:S 0
8 *5384:S 0
9 *5947:X 6.13098e-05
10 *663:103 0.00153342
11 *663:97 0.00187454
12 *663:75 0.00104513
13 *663:71 0.00174284
14 *663:63 0.00257796
15 *663:51 0.000717455
16 *663:34 0.00093471
17 *663:18 0.0024098
18 *663:16 0.00119553
19 *663:8 0.00171858
20 *5404:S *970:23 0
21 *5404:S *1063:8 0
22 *5432:S *5432:A1 0
23 *5432:S *5433:B 0
24 *5434:S *5434:A0 0
25 *5434:S *5434:A1 0
26 *5434:S *718:59 0
27 *663:8 *5947:A 1.54008e-05
28 *663:8 *664:14 7.92265e-05
29 *663:16 *5402:A0 0
30 *663:16 *5402:A1 0
31 *663:16 *664:14 0
32 *663:16 *668:46 0.00018387
33 *663:16 *702:39 0
34 *663:16 *717:12 0
35 *663:18 *5402:A0 0
36 *663:18 *5685:RESET_B 0
37 *663:18 *5685:D 0
38 *663:18 *717:12 0
39 *663:18 *717:16 0
40 *663:34 *5310:A 0.000258331
41 *663:34 *5384:A0 0
42 *663:34 *5384:A1 0.000112667
43 *663:34 *5385:B 0
44 *663:34 *5685:RESET_B 0
45 *663:34 *5685:D 0
46 *663:34 *673:26 0
47 *663:34 *673:43 0
48 *663:34 *687:94 0
49 *663:34 *1054:19 0.000419866
50 *663:51 *6026:A 4.77425e-05
51 *663:51 *673:10 0
52 *663:51 *690:31 0
53 *663:51 *701:41 0.000447183
54 *663:51 *717:31 0
55 *663:51 *946:10 0.000395568
56 *663:51 *993:10 0.000181694
57 *663:51 *1020:113 4.77425e-05
58 *663:51 *1084:8 0
59 *663:51 *1084:21 0
60 *663:63 *668:46 0.000453871
61 *663:63 *717:55 0
62 *663:71 *5360:B 0
63 *663:71 *5362:B1 0
64 *663:71 *5434:A1 6.16032e-06
65 *663:71 *689:60 0
66 *663:71 *1071:10 2.46687e-05
67 *663:75 *5434:A0 0
68 *663:75 *6124:A 0
69 *663:75 *718:57 0
70 *663:97 *5433:B 0
71 *663:97 *689:90 0
72 *663:97 *717:55 0
73 *663:103 *5436:A1 0
74 *663:103 *664:61 0
75 *663:103 *689:90 0
76 *663:103 *717:59 0
77 *663:103 *717:61 0
78 *663:103 *913:10 0
79 *663:103 *970:23 0
80 *663:103 *1072:12 0
81 *5312:C *663:34 0
82 *5385:A *663:34 0
83 *5417:A *663:97 0
84 *464:12 *663:51 0.000552918
85 *619:16 *5404:S 0
86 *619:16 *663:103 0
87 *628:6 *663:103 0.000112267
88 *628:12 *5404:S 0.000274545
89 *628:12 *663:103 0.000453237
90 *628:58 *663:103 0.000371587
*RES
1 *5947:X *663:8 40.5356 
2 *663:8 *663:16 24.1097 
3 *663:16 *663:18 7.8898 
4 *663:18 *663:34 49.2088 
5 *663:34 *5384:S 20 
6 *663:18 *663:51 49.0022 
7 *663:51 *5400:S 20 
8 *663:16 *5402:S 20 
9 *663:8 *663:63 13.2046 
10 *663:63 *663:71 26.4581 
11 *663:71 *663:75 31.4742 
12 *663:75 *5432:S 40.4476 
13 *663:71 *5434:S 21.4008 
14 *663:63 *663:97 27.9619 
15 *663:97 *663:103 12.4836 
16 *663:103 *5404:S 23.9964 
17 *663:103 *5420:S 20.5974 
18 *663:97 *5416:S 20 
*END

*D_NET *664 0.0150105
*CONN
*I *5436:S I *D sg13g2_mux2_1
*I *5947:A I *D sg13g2_buf_1
*I *5386:S I *D sg13g2_mux2_1
*I *5279:A I *D sg13g2_nor3_1
*I *5948:X O *D sg13g2_buf_1
*CAP
1 *5436:S 0
2 *5947:A 7.79055e-05
3 *5386:S 0.000450065
4 *5279:A 0
5 *5948:X 3.84068e-05
6 *664:61 0.00213454
7 *664:28 0.00118171
8 *664:22 0.00248989
9 *664:14 0.00137841
10 *664:8 0.00261534
11 *5386:S *5386:A1 0.00049715
12 *5386:S *1053:8 0
13 *664:14 *5402:A0 0
14 *664:14 *5402:A1 0.00020971
15 *664:14 *717:12 0.000394248
16 *664:22 *5337:B 0.000346047
17 *664:22 *5951:A 0.00125422
18 *664:22 *668:46 0.000400978
19 *664:28 *5280:B1 0
20 *664:28 *668:46 0
21 *664:28 *675:14 0
22 *664:28 *1014:8 0.000130676
23 *664:28 *1020:68 1.54008e-05
24 *664:61 *5402:A0 0
25 *664:61 *5416:A1 0
26 *664:61 *689:90 0
27 *664:61 *702:73 0
28 *664:61 *702:84 0
29 *664:61 *702:107 0
30 *664:61 *717:12 0.000237204
31 *664:61 *717:55 0
32 *664:61 *717:59 0
33 *664:61 *945:8 0.000826127
34 *664:61 *994:21 0
35 *664:61 *1061:10 0
36 *79:12 *5386:S 0
37 *351:16 *664:28 0.000237794
38 *663:8 *5947:A 1.54008e-05
39 *663:8 *664:14 7.92265e-05
40 *663:16 *664:14 0
41 *663:103 *664:61 0
*RES
1 *5948:X *664:8 40.3193 
2 *664:8 *664:14 24.841 
3 *664:14 *664:22 29.9189 
4 *664:22 *664:28 31.2682 
5 *664:28 *5279:A 20 
6 *664:22 *5386:S 45.1294 
7 *664:14 *5947:A 20.8858 
8 *664:8 *664:61 42.2377 
9 *664:61 *5436:S 20 
*END

*D_NET *665 0.0107328
*CONN
*I *5091:A1 I *D sg13g2_o21ai_1
*I *5090:B_N I *D sg13g2_nor2b_1
*I *5076:B_N I *D sg13g2_nor2b_1
*I *5075:A1 I *D sg13g2_o21ai_1
*I *5093:B_N I *D sg13g2_nor2b_1
*I *5087:B_N I *D sg13g2_nor2b_1
*I *5088:A1 I *D sg13g2_o21ai_1
*I *5156:A I *D sg13g2_nor2_1
*I *5949:X O *D sg13g2_buf_1
*CAP
1 *5091:A1 0.000161281
2 *5090:B_N 0
3 *5076:B_N 0
4 *5075:A1 0
5 *5093:B_N 0
6 *5087:B_N 0.000150664
7 *5088:A1 0
8 *5156:A 0.000362644
9 *5949:X 0.00130089
10 *665:87 0.000673794
11 *665:79 0.00134053
12 *665:68 0.00117173
13 *665:51 0.00086179
14 *665:40 0.000682991
15 *665:30 0.000857529
16 *665:22 0.0014802
17 *5087:B_N *666:28 0
18 *5087:B_N *716:34 0
19 *5091:A1 *5091:B1 0
20 *5091:A1 *5091:A2 1.54556e-05
21 *5156:A *1045:10 0
22 *665:22 *5451:A_N 0
23 *665:22 *5803:RESET_B 0.000339552
24 *665:22 *703:8 0
25 *665:30 *716:58 0
26 *665:30 *716:73 0
27 *665:30 *718:20 0
28 *665:40 *5088:A2 1.54556e-05
29 *665:40 *5090:A 0
30 *665:40 *5450:C 0
31 *665:40 *716:34 0
32 *665:51 *5088:A2 6.47546e-05
33 *665:68 *5088:A2 0
34 *665:68 *5093:A 0
35 *665:68 *5549:RESET_B 0.000273962
36 *665:68 *666:28 0
37 *665:68 *716:34 0
38 *665:79 *5093:A 0
39 *665:79 *666:28 0
40 *665:87 *5997:A 0
41 *665:87 *716:10 0
42 *665:87 *716:18 0
43 *665:87 *718:20 0
44 *665:87 *898:8 0
45 *5089:B *5087:B_N 0
46 *5452:A1 *665:22 0
47 *5549:D *5087:B_N 1.54008e-05
48 *5549:D *665:68 0
49 *5609:CLK *5087:B_N 0
50 *5609:CLK *665:51 0
51 *5803:D *665:22 0
52 *5803:CLK *5091:A1 0
53 *5803:CLK *665:22 0
54 *5919:A *665:40 0
55 *5919:A *665:51 0
56 *310:8 *665:30 0.000234727
57 *310:8 *665:40 0
58 *312:10 *665:79 0
59 *546:10 *665:22 0
60 *605:296 *5156:A 0
61 *611:12 *665:30 0
62 *611:12 *665:40 0
63 *611:27 *665:30 0.000714004
64 *612:19 *665:40 0
65 *642:57 *5091:A1 0
66 *642:57 *5156:A 0
67 *642:57 *665:22 0
68 *643:6 *665:68 1.54556e-05
69 *643:6 *665:79 0
70 *643:17 *665:79 0
*RES
1 *5949:X *5156:A 43.914 
2 *5949:X *665:22 30.2176 
3 *665:22 *665:30 45.3663 
4 *665:30 *665:40 44.4496 
5 *665:40 *5088:A1 20 
6 *665:40 *665:51 22.369 
7 *665:51 *5087:B_N 41.6274 
8 *665:51 *665:68 25.6444 
9 *665:68 *5093:B_N 20 
10 *665:68 *665:79 6.6126 
11 *665:79 *665:87 47.0658 
12 *665:87 *5075:A1 20 
13 *665:79 *5076:B_N 20 
14 *665:30 *5090:B_N 20 
15 *665:22 *5091:A1 20.5083 
*END

*D_NET *666 0.00866579
*CONN
*I *6081:A I *D sg13g2_buf_1
*I *5123:A2 I *D sg13g2_o21ai_1
*I *5573:Q O *D sg13g2_dfrbpq_1
*CAP
1 *6081:A 0.000629977
2 *5123:A2 0
3 *5573:Q 0.00293987
4 *666:28 0.00323257
5 *666:10 0.000337272
6 *6081:A *6082:A 0
7 *6081:A *6096:A 0
8 *6081:A *898:27 0.000696158
9 *666:10 *1045:20 0.000662803
10 *666:28 *5093:A 0
11 *666:28 *5125:A1 0
12 *666:28 *5549:RESET_B 0
13 *666:28 *898:27 7.50503e-05
14 *666:28 *1112:8 4.77425e-05
15 boot_addr[19] *6081:A 2.21754e-05
16 boot_addr[9] *6081:A 2.21754e-05
17 *5087:B_N *666:28 0
18 *5089:B *666:28 0
19 *5541:D *6081:A 0
20 *5549:D *666:28 0
21 *5801:D *666:28 0
22 *5922:A *666:28 0
23 *261:31 *666:10 0
24 *291:12 *666:10 0
25 *291:29 *666:28 0
26 *301:10 *6081:A 0
27 *301:10 *666:28 0
28 *312:10 *666:28 0
29 *645:12 *666:10 0
30 *646:6 *666:28 0
31 *646:48 *666:28 0
32 *665:68 *666:28 0
33 *665:79 *666:28 0
*RES
1 *5573:Q *666:10 44.6865 
2 *666:10 *5123:A2 40 
3 *5573:Q *666:28 46.7903 
4 *666:28 *6081:A 27.4778 
*END

*D_NET *667 0.0236883
*CONN
*I *5949:A I *D sg13g2_buf_1
*I *5094:A1 I *D sg13g2_o21ai_1
*I *5125:A1 I *D sg13g2_o21ai_1
*I *5097:A1 I *D sg13g2_o21ai_1
*I *5538:A I *D sg13g2_and2_1
*I *5418:S I *D sg13g2_mux2_1
*I *5950:X O *D sg13g2_buf_1
*CAP
1 *5949:A 0
2 *5094:A1 0
3 *5125:A1 0.000768633
4 *5097:A1 0
5 *5538:A 0
6 *5418:S 0
7 *5950:X 0
8 *667:56 0.00141591
9 *667:48 0.000844406
10 *667:44 0.00230839
11 *667:34 0.00404997
12 *667:23 0.0013949
13 *667:10 0.0015481
14 *667:4 0.00209192
15 *5125:A1 *5097:B1 0
16 *5125:A1 *5097:A2 0.000356476
17 *5125:A1 *5125:B1 0
18 *5125:A1 *5125:A2 1.54556e-05
19 *5125:A1 *898:27 0.000695924
20 *667:10 *703:47 0
21 *667:23 *5418:A0 0.00178211
22 *667:23 *5538:B 0.000566273
23 *667:23 *718:72 0.00167646
24 *667:23 *969:23 0.00221019
25 *667:23 *979:8 0
26 *667:34 *703:47 0
27 *667:44 *5011:A 0
28 *667:44 *5551:RESET_B 0.000274088
29 *667:44 *6104:A 0.000203674
30 *667:44 *909:6 0.000209856
31 *667:44 *997:28 0
32 *667:44 *1014:40 0
33 *667:48 *5094:A2 0
34 *667:48 *887:8 0
35 *667:56 *5097:A2 1.54556e-05
36 *5092:B *667:44 0
37 *5551:D *667:44 0
38 *5888:A *667:44 0
39 *186:8 *667:34 0
40 *247:8 *667:44 0
41 *312:10 *667:56 0.000768231
42 *313:8 *667:56 0.000340656
43 *605:296 *667:44 0
44 *605:300 *667:44 0
45 *605:307 *667:44 0
46 *605:312 *667:44 0
47 *611:6 *667:44 3.84943e-05
48 *611:27 *667:44 0.000112689
49 *641:12 *667:10 0
50 *641:12 *667:23 0
51 *641:30 *667:23 0
52 *642:57 *667:44 0
53 *643:17 *667:56 0
54 *643:19 *667:56 0
55 *643:64 *667:56 0
56 *646:6 *667:56 0
57 *666:28 *5125:A1 0
*RES
1 *5950:X *667:4 20 
2 *667:4 *667:10 21.8746 
3 *667:10 *5418:S 40 
4 *667:10 *667:23 43.5664 
5 *667:23 *5538:A 20 
6 *667:4 *667:34 44.4625 
7 *667:34 *667:44 39.7019 
8 *667:44 *667:48 22.3278 
9 *667:48 *667:56 28.652 
10 *667:56 *5097:A1 20 
11 *667:56 *5125:A1 27.8898 
12 *667:48 *5094:A1 40 
13 *667:34 *5949:A 40 
*END

*D_NET *668 0.020343
*CONN
*I *5950:A I *D sg13g2_buf_1
*I *5946:A I *D sg13g2_buf_1
*I *6026:A I *D sg13g2_buf_1
*I *5948:A I *D sg13g2_buf_1
*I *5951:X O *D sg13g2_buf_1
*CAP
1 *5950:A 0.000688618
2 *5946:A 7.27142e-05
3 *6026:A 0.00166952
4 *5948:A 2.64305e-05
5 *5951:X 0.000718816
6 *668:46 0.00384467
7 *668:44 0.00377196
8 *668:31 0.00177013
9 *668:25 0.000944535
10 *668:10 0.00102229
11 *668:6 0.000182128
12 *5946:A *5031:A 0
13 *5946:A *5861:RESET_B 0
14 *5948:A *5956:A 4.78359e-05
15 *5950:A *5361:B 0.000209725
16 *5950:A *5418:A0 0
17 *5950:A *5418:A1 0
18 *5950:A *5956:A 0
19 *5950:A *5957:A 0
20 *5950:A *674:8 0
21 *5950:A *703:47 0
22 *5950:A *943:10 0.000241957
23 *5950:A *1062:8 0
24 *5950:A *1062:12 0
25 *6026:A *5316:A 0
26 *6026:A *5334:A 0.000177334
27 *6026:A *5753:RESET_B 0
28 *6026:A *673:66 0
29 *6026:A *690:35 0.00148242
30 *6026:A *920:28 0
31 *6026:A *1020:113 0.000242313
32 *668:10 *5956:A 0
33 *668:25 *5336:B 0
34 *668:25 *702:73 0
35 *668:25 *717:55 0
36 *668:25 *718:36 0.000235556
37 *668:25 *718:51 0.000661472
38 *668:25 *1020:113 4.77702e-05
39 *668:31 *5402:A0 0
40 *668:31 *673:62 0
41 *668:46 *5065:B1 0.000672577
42 *668:46 *672:27 0.000130055
43 *668:46 *718:34 0
44 *668:46 *718:92 0
45 *668:46 *1014:8 0.000217325
46 *668:46 *1014:16 0.000130636
47 *5318:A *6026:A 4.77425e-05
48 *5318:C *6026:A 0
49 *5336:C *668:25 0
50 *5689:D *6026:A 0
51 *5701:D *668:25 0
52 *5703:CLK *5950:A 0
53 *294:8 *668:46 0
54 *626:56 *668:25 0
55 *639:10 *668:46 0
56 *639:16 *5946:A 0
57 *639:40 *668:46 0
58 *663:16 *668:46 0.00018387
59 *663:51 *6026:A 4.77425e-05
60 *663:63 *668:46 0.000453871
61 *664:22 *668:46 0.000400978
62 *664:28 *668:46 0
*RES
1 *5951:X *668:6 20.3193 
2 *668:6 *668:10 1.3184 
3 *668:10 *5948:A 20.3193 
4 *668:10 *668:25 49.4451 
5 *668:25 *668:31 41.0918 
6 *668:31 *6026:A 38.1074 
7 *668:6 *668:44 20 
8 *668:44 *668:46 38.9134 
9 *668:46 *5946:A 40.7519 
10 *5951:X *5950:A 47.5911 
*END

*D_NET *669 0.0143901
*CONN
*I *5302:A2 I *D sg13g2_a21oi_1
*I *5374:A2 I *D sg13g2_a21oi_1
*I *5350:A2 I *D sg13g2_a21oi_1
*I *5326:A2 I *D sg13g2_a21oi_1
*I *5332:A2 I *D sg13g2_a21oi_1
*I *5380:A2 I *D sg13g2_a21oi_1
*I *5356:A2 I *D sg13g2_a21oi_1
*I *5308:A2 I *D sg13g2_a21oi_1
*I *5952:X O *D sg13g2_buf_1
*CAP
1 *5302:A2 0
2 *5374:A2 0.00018228
3 *5350:A2 0.000199408
4 *5326:A2 0.000382042
5 *5332:A2 0
6 *5380:A2 0.000502588
7 *5356:A2 0
8 *5308:A2 0
9 *5952:X 0
10 *669:97 0.00037424
11 *669:71 0.000919163
12 *669:58 0.00120779
13 *669:29 0.00131818
14 *669:23 0.00139714
15 *669:14 0.000333381
16 *669:6 0.00139344
17 *669:4 0.00114103
18 *5326:A2 *5326:A1 1.54008e-05
19 *5326:A2 *5695:RESET_B 0
20 *5326:A2 *711:18 0
21 *5350:A2 *5350:A1 0
22 *5350:A2 *5374:A1 0.000274512
23 *5350:A2 *1018:12 0
24 *5374:A2 *5374:A1 0.000339546
25 *5374:A2 *5374:B1 0
26 *5374:A2 *695:71 0
27 *5380:A2 *948:8 0.0004016
28 *5380:A2 *1069:30 0.000130055
29 *669:6 *5327:B 0
30 *669:6 *5332:A1 0
31 *669:6 *1028:18 0.000825158
32 *669:14 *5308:A1 4.77537e-05
33 *669:14 *5308:B1 0.000181192
34 *669:14 *683:25 0
35 *669:14 *695:95 0
36 *669:14 *1083:19 0.000448012
37 *669:23 *5332:A1 0.000889785
38 *669:23 *1028:18 0
39 *669:29 *5332:A1 1.54556e-05
40 *669:29 *711:20 0
41 *669:29 *1028:18 0
42 *669:29 *1060:36 0
43 *669:58 *5325:B 0.000288087
44 *669:58 *6023:A 0.000266319
45 *669:58 *1027:78 0
46 *669:58 *1028:18 0.00018211
47 *669:71 *695:71 0.00023464
48 *669:71 *1027:78 0
49 *669:71 *1058:8 0
50 *669:97 *5325:B 0
51 *669:97 *671:12 0
52 *669:97 *679:35 0
53 *669:97 *1028:8 0
54 *669:97 *1028:18 3.23417e-05
55 *5327:A *669:6 0.000209856
56 *5327:C *669:6 0
57 *5375:A *5374:A2 0.000209856
58 *5381:C *5380:A2 0
59 *5683:CLK *669:14 4.77425e-05
60 *5695:CLK *5326:A2 0
61 *5783:CLK *5380:A2 0
62 *164:8 *669:58 0
63 *458:10 *669:97 0
*RES
1 *5952:X *669:4 20 
2 *669:4 *669:6 5.5105 
3 *669:6 *669:14 44.6247 
4 *669:14 *5308:A2 20 
5 *669:6 *669:23 6.5405 
6 *669:23 *669:29 29.2906 
7 *669:29 *5356:A2 40 
8 *669:29 *5380:A2 45.9328 
9 *669:23 *5332:A2 20 
10 *669:4 *669:58 24.3054 
11 *669:58 *5326:A2 43.5638 
12 *669:58 *669:71 26.7774 
13 *669:71 *5350:A2 22.1836 
14 *669:71 *5374:A2 22.266 
15 *669:4 *669:97 44.2024 
16 *669:97 *5302:A2 20 
*END

*D_NET *670 0.0133129
*CONN
*I *5296:A2 I *D sg13g2_a21oi_1
*I *5371:A2 I *D sg13g2_a21oi_1
*I *5347:A2 I *D sg13g2_a21oi_1
*I *5323:A2 I *D sg13g2_a21oi_1
*I *5299:A2 I *D sg13g2_a21oi_1
*I *5953:X O *D sg13g2_buf_1
*CAP
1 *5296:A2 0
2 *5371:A2 0.000610937
3 *5347:A2 2.99777e-05
4 *5323:A2 0.000598325
5 *5299:A2 6.98993e-05
6 *5953:X 0.000347016
7 *670:34 0.00108647
8 *670:23 0.00138231
9 *670:10 0.00107219
10 *670:6 0.00101087
11 *5299:A2 *5299:A1 0.000282907
12 *5299:A2 *934:25 0.000235556
13 *5323:A2 *5323:A1 0.000890303
14 *5323:A2 *1030:30 0
15 *5347:A2 *5347:A1 4.78028e-05
16 *5347:A2 *5372:B 0
17 *5371:A2 *5370:B 0
18 *5371:A2 *5371:A1 0.00123029
19 *5371:A2 *5709:RESET_B 0
20 *5371:A2 *684:40 7.51285e-05
21 *5371:A2 *929:8 0.000288675
22 *5371:A2 *1057:36 0
23 *670:6 *5296:A1 1.54008e-05
24 *670:6 *5296:B1 0
25 *670:6 *5675:RESET_B 0
26 *670:6 *671:75 0
27 *670:6 *696:31 0
28 *670:10 *5296:A1 0.000129432
29 *670:10 *5299:A1 0
30 *670:10 *684:16 0.000987018
31 *670:10 *696:33 0
32 *670:10 *1019:8 0
33 *670:10 *1019:87 0
34 *670:23 *5299:A1 7.52158e-05
35 *670:23 *684:29 0.00111815
36 *670:23 *696:43 0
37 *670:23 *934:25 0.000106392
38 *670:23 *1019:38 0
39 *670:23 *1019:47 0
40 *670:34 *684:29 7.51285e-05
41 *670:34 *684:40 0.00154747
42 *670:34 *1019:47 0
43 *670:34 *1019:56 0
44 *670:34 *1057:36 0
45 *5348:A *5347:A2 0
46 *5372:C *5371:A2 0
*RES
1 *5953:X *670:6 23.5638 
2 *670:6 *670:10 27.5855 
3 *670:10 *5299:A2 41.4111 
4 *670:10 *670:23 5.5414 
5 *670:23 *5323:A2 45.9431 
6 *670:23 *670:34 7.519 
7 *670:34 *5347:A2 40.3193 
8 *670:34 *5371:A2 48.0237 
9 *670:6 *5296:A2 20 
*END

*D_NET *671 0.0204357
*CONN
*I *5953:A I *D sg13g2_buf_1
*I *5952:A I *D sg13g2_buf_1
*I *5377:A2 I *D sg13g2_a21oi_1
*I *5353:A2 I *D sg13g2_a21oi_1
*I *5329:A2 I *D sg13g2_a21oi_1
*I *5305:A2 I *D sg13g2_a21oi_1
*I *5954:X O *D sg13g2_buf_1
*CAP
1 *5953:A 0
2 *5952:A 0
3 *5377:A2 2.99958e-05
4 *5353:A2 0
5 *5329:A2 8.44721e-05
6 *5305:A2 0.000370931
7 *5954:X 0.000239327
8 *671:75 0.00022356
9 *671:41 0.000745236
10 *671:33 0.000868713
11 *671:22 0.000920968
12 *671:18 0.00216694
13 *671:12 0.00425449
14 *671:8 0.00292253
15 *5305:A2 *5305:A1 0.000566448
16 *5305:A2 *1017:6 0
17 *5329:A2 *5329:A1 0.000145012
18 *5377:A2 *685:26 3.23417e-05
19 *5377:A2 *685:32 1.54008e-05
20 *671:8 *5296:B1 0
21 *671:8 *5319:B 0
22 *671:8 *5967:A 0
23 *671:12 *5302:B1 0
24 *671:12 *5319:B 0
25 *671:12 *5392:A0 0
26 *671:12 *5392:A1 0
27 *671:12 *6050:A 0.00024205
28 *671:12 *683:6 0.000533596
29 *671:12 *683:10 0.000307133
30 *671:12 *684:10 7.97166e-05
31 *671:12 *685:8 0
32 *671:12 *685:10 0
33 *671:12 *685:22 0
34 *671:12 *696:43 0
35 *671:12 *713:20 0
36 *671:12 *1028:8 0
37 *671:12 *1029:31 0
38 *671:18 *5331:A 0
39 *671:18 *683:10 0
40 *671:18 *685:22 0
41 *671:18 *1027:34 0
42 *671:18 *1028:18 0.00144096
43 *671:18 *1083:8 0
44 *671:22 *685:32 0
45 *671:22 *694:87 0.000235791
46 *671:33 *5305:A1 0
47 *671:33 *5353:A1 0.000208824
48 *671:33 *685:42 0
49 *671:33 *1017:6 0
50 *671:41 *5353:A1 1.54008e-05
51 *671:41 *5353:B1 0
52 *671:41 *685:42 0.0015899
53 *671:75 *5296:B1 0
54 *671:75 *5967:A 0
55 *5324:A *671:12 0.000209999
56 *5699:D *671:18 0
57 *5931:A *671:18 0.000724377
58 *181:8 *671:22 0.000608842
59 *458:10 *671:12 0.000144833
60 *644:39 *671:41 0
61 *647:29 *671:18 0.000507935
62 *669:97 *671:12 0
63 *670:6 *671:75 0
*RES
1 *5954:X *671:8 22.6471 
2 *671:8 *671:12 25.6373 
3 *671:12 *671:18 41.836 
4 *671:18 *671:22 24.5526 
5 *671:22 *5305:A2 24.3775 
6 *671:22 *671:33 2.0497 
7 *671:33 *671:41 49.4142 
8 *671:41 *5329:A2 20.9682 
9 *671:33 *5353:A2 20 
10 *671:18 *5377:A2 40.3193 
11 *671:12 *5952:A 20 
12 *671:8 *671:75 42.3381 
13 *671:75 *5953:A 20 
*END

*D_NET *672 0.0151117
*CONN
*I *5278:A1 I *D sg13g2_o21ai_1
*I *5276:A I *D sg13g2_nor2_1
*I *5277:A2 I *D sg13g2_a21oi_1
*I *5290:A2 I *D sg13g2_a21oi_1
*I *5028:B I *D sg13g2_nand2_1
*I *5072:A I *D sg13g2_nor2_1
*I *5382:A I *D sg13g2_nor2_1
*I *5065:B1 I *D sg13g2_a22oi_1
*I *5955:X O *D sg13g2_buf_1
*CAP
1 *5278:A1 0
2 *5276:A 0
3 *5277:A2 0
4 *5290:A2 0.000187396
5 *5028:B 3.68402e-05
6 *5072:A 0
7 *5382:A 0
8 *5065:B1 0.000306734
9 *5955:X 0
10 *672:117 0.000148841
11 *672:99 0.000121568
12 *672:93 0.000168866
13 *672:80 0.00086652
14 *672:61 0.00133245
15 *672:47 0.000640865
16 *672:37 0.00066392
17 *672:35 0.0012681
18 *672:27 0.00163488
19 *672:10 0.00152739
20 *672:4 0.000410479
21 *5028:B *5028:A 0
22 *5065:B1 *718:34 0
23 *5290:A2 *5290:A1 0
24 *5290:A2 *690:27 0.000143671
25 *672:10 *5279:B 0
26 *672:10 *5280:A1 0.000176608
27 *672:10 *1049:16 0.000371008
28 *672:10 *1049:37 1.54556e-05
29 *672:27 *5064:C 0
30 *672:27 *5064:A 0.00033953
31 *672:27 *5280:B1 0
32 *672:27 *5280:A1 0.00043533
33 *672:27 *686:79 0
34 *672:27 *1014:16 0
35 *672:35 *686:79 4.7803e-05
36 *672:35 *1047:10 0.000370902
37 *672:35 *1049:16 9.63389e-05
38 *672:37 *1049:16 3.24568e-05
39 *672:47 *5072:B 0
40 *672:47 *5073:A2 0.000290042
41 *672:47 *5074:B 0
42 *672:47 *5382:B 0
43 *672:47 *899:10 0
44 *672:47 *912:10 0
45 *672:47 *1042:27 0
46 *672:47 *1047:44 0.00018211
47 *672:47 *1049:16 0.000404438
48 *672:61 *690:27 0
49 *672:61 *899:10 0
50 *672:61 *1047:10 0
51 *672:80 *690:27 0
52 *672:99 *5028:A 7.52158e-05
53 *672:99 *686:79 0.000342034
54 *672:117 *5279:B 0
55 *672:117 *675:14 0.00012798
56 *672:117 *1049:37 0
57 *5281:A2 *672:117 0
58 *5283:A2 *672:35 0
59 *5291:A *5290:A2 1.54008e-05
60 *5291:C *5290:A2 0.000143671
61 *5873:CLK *5065:B1 0
62 *5915:A *5065:B1 0
63 *6019:A *672:80 0
64 *79:12 *672:80 0
65 *150:8 *672:99 0
66 *263:8 *672:61 7.51285e-05
67 *263:8 *672:80 0.00106726
68 *293:10 *5065:B1 0
69 *293:10 *672:27 0.000241847
70 *443:8 *672:117 0
71 *445:10 *672:99 0
72 *668:46 *5065:B1 0.000672577
73 *668:46 *672:27 0.000130055
*RES
1 *5955:X *672:4 20 
2 *672:4 *672:10 23.0797 
3 *672:10 *5065:B1 44.0376 
4 *672:10 *672:27 29.5687 
5 *672:27 *672:35 6.3139 
6 *672:35 *672:37 0.3193 
7 *672:37 *672:47 47.416 
8 *672:47 *5382:A 20 
9 *672:37 *5072:A 20 
10 *672:35 *672:61 27.2718 
11 *672:61 *5028:B 40.3193 
12 *672:61 *672:80 48.1576 
13 *672:80 *5290:A2 41.9673 
14 *672:27 *672:93 0.5974 
15 *672:93 *672:99 41.8334 
16 *672:99 *5277:A2 20 
17 *672:93 *5276:A 20 
18 *672:4 *672:117 41.5733 
19 *672:117 *5278:A1 20 
*END

*D_NET *673 0.0226707
*CONN
*I *5335:A2 I *D sg13g2_a21oi_1
*I *5317:A2 I *D sg13g2_a21oi_1
*I *5368:A2 I *D sg13g2_a21oi_1
*I *5344:A2 I *D sg13g2_a21oi_1
*I *5320:A2 I *D sg13g2_a21oi_1
*I *5311:A2 I *D sg13g2_a21oi_1
*I *5287:A2 I *D sg13g2_a21oi_1
*I *5293:A2 I *D sg13g2_a21oi_1
*I *5956:X O *D sg13g2_buf_1
*CAP
1 *5335:A2 0.000534603
2 *5317:A2 0
3 *5368:A2 0.000676143
4 *5344:A2 0.000588777
5 *5320:A2 0.000272118
6 *5311:A2 0
7 *5287:A2 0
8 *5293:A2 0.000819386
9 *5956:X 0.000881397
10 *673:82 0.000860895
11 *673:80 0.000909761
12 *673:76 0.00215407
13 *673:66 0.00169909
14 *673:62 0.0021657
15 *673:43 0.000539681
16 *673:26 0.00233144
17 *673:14 0.00104437
18 *673:10 0.000453231
19 *5293:A2 *5293:A1 0.000224906
20 *5293:A2 *5293:B1 0
21 *5293:A2 *5737:RESET_B 8.0216e-05
22 *5293:A2 *687:73 0.000588725
23 *5293:A2 *701:41 0.000112558
24 *5335:A2 *689:49 8.01116e-05
25 *5344:A2 *5344:A1 1.54008e-05
26 *5344:A2 *696:105 0
27 *5368:A2 *5368:A1 1.54008e-05
28 *5368:A2 *984:30 0.000820983
29 *5368:A2 *1030:41 0
30 *673:10 *717:31 0
31 *673:10 *946:10 0
32 *673:10 *1023:114 7.51285e-05
33 *673:14 *5311:A1 1.54008e-05
34 *673:14 *5385:B 0
35 *673:14 *1023:114 4.76053e-05
36 *673:26 *5311:A1 0
37 *673:26 *5385:B 0
38 *673:26 *5737:RESET_B 0.00014453
39 *673:26 *701:41 0.00056469
40 *673:26 *920:10 0
41 *673:43 *5287:A1 7.52149e-05
42 *673:43 *687:73 0.000607109
43 *673:43 *920:10 0
44 *673:66 *5317:A1 1.54008e-05
45 *673:66 *5689:RESET_B 0
46 *673:66 *5753:RESET_B 0
47 *673:66 *690:35 0
48 *673:76 *5317:A1 0.000413218
49 *673:76 *5689:RESET_B 0
50 *673:76 *690:35 0
51 *673:76 *713:10 0.000112486
52 *673:76 *722:10 0.000144882
53 *673:80 *5317:A1 0.000209977
54 *673:80 *722:10 0.000145031
55 *673:80 *1030:18 0.000177164
56 *673:80 *1030:30 0.00121368
57 *673:80 *1056:8 0
58 *5369:A *5368:A2 0
59 *5385:A *673:26 0
60 *5673:CLK *5293:A2 0
61 *5685:CLK *5293:A2 0
62 *5685:CLK *673:10 0.000176537
63 *5689:CLK *673:66 0
64 *5737:D *673:26 8.0276e-05
65 *5741:CLK *5368:A2 0
66 *5902:A *673:66 0
67 *6026:A *673:66 0
68 *6062:A *673:26 8.00842e-05
69 *185:8 *673:43 0
70 *263:18 *673:43 0
71 *464:12 *673:10 0
72 *486:10 *5344:A2 0
73 *605:154 *5344:A2 0
74 *625:8 *5293:A2 0
75 *626:14 *673:66 0
76 *626:33 *673:66 0
77 *626:44 *5335:A2 0
78 *626:44 *673:66 0
79 *626:56 *673:62 0.000503291
80 *663:34 *673:26 0
81 *663:34 *673:43 0
82 *663:51 *673:10 0
83 *668:31 *673:62 0
*RES
1 *5956:X *673:10 42.744 
2 *673:10 *673:14 20.7519 
3 *673:14 *673:26 49.1876 
4 *673:26 *5293:A2 28.343 
5 *673:26 *673:43 45.7886 
6 *673:43 *5287:A2 20 
7 *673:14 *5311:A2 20 
8 *5956:X *673:62 46.7774 
9 *673:62 *673:66 30.3678 
10 *673:66 *673:76 26.3448 
11 *673:76 *673:80 30.4854 
12 *673:80 *673:82 20 
13 *673:82 *5320:A2 42.8222 
14 *673:82 *5344:A2 46.8804 
15 *673:76 *5368:A2 48.9816 
16 *673:66 *5317:A2 20 
17 *673:62 *5335:A2 45.8916 
*END

*D_NET *674 0.0118291
*CONN
*I *5362:A2 I *D sg13g2_a21oi_1
*I *5359:A2 I *D sg13g2_a21oi_1
*I *5365:A2 I *D sg13g2_a21oi_1
*I *5341:A2 I *D sg13g2_a21oi_1
*I *5338:A2 I *D sg13g2_a21oi_1
*I *5957:X O *D sg13g2_buf_1
*CAP
1 *5362:A2 4.22993e-05
2 *5359:A2 0.000171118
3 *5365:A2 0
4 *5341:A2 0
5 *5338:A2 0.00010581
6 *5957:X 0.000210465
7 *674:49 0.00078308
8 *674:41 0.00175535
9 *674:33 0.00200324
10 *674:23 0.00159677
11 *674:8 0.00101089
12 *5338:A2 *5338:A1 1.54008e-05
13 *5338:A2 *5956:A 4.77425e-05
14 *5338:A2 *5957:A 3.23417e-05
15 *5338:A2 *675:27 7.62389e-05
16 *5338:A2 *702:10 0
17 *5362:A2 *5362:A1 1.54008e-05
18 *5362:A2 *5719:RESET_B 0
19 *5362:A2 *689:60 0
20 *674:8 *5956:A 4.77425e-05
21 *674:8 *5957:A 0.000274299
22 *674:8 *943:10 0
23 *674:33 *5719:RESET_B 0
24 *674:33 *1022:34 0.00039953
25 *674:41 *5358:A 0
26 *674:41 *5364:B 0
27 *674:41 *5721:RESET_B 0.000265666
28 *674:41 *689:30 1.54556e-05
29 *674:41 *689:41 0.000847778
30 *674:41 *689:90 6.46834e-05
31 *674:41 *702:107 0
32 *674:49 *5369:B 0.00105204
33 *674:49 *5404:A1 0.000342036
34 *674:49 *689:30 0.000501222
35 *674:49 *1055:19 2.21839e-05
36 *5366:A *674:49 0
37 *5950:A *674:8 0
38 *484:8 *674:49 0
39 *498:10 *674:33 0.000130344
*RES
1 *5957:X *674:8 42.0497 
2 *674:8 *5338:A2 41.133 
3 *674:8 *674:23 27.519 
4 *674:23 *674:33 29.1258 
5 *674:33 *674:41 30.1364 
6 *674:41 *674:49 49.476 
7 *674:49 *5341:A2 20 
8 *674:41 *5365:A2 20 
9 *674:33 *5359:A2 41.5862 
10 *674:23 *5362:A2 20.5356 
*END

*D_NET *675 0.00954854
*CONN
*I *5955:A I *D sg13g2_buf_1
*I *5957:A I *D sg13g2_buf_1
*I *5956:A I *D sg13g2_buf_1
*I *5314:A2 I *D sg13g2_a21oi_1
*I *5958:X O *D sg13g2_buf_1
*CAP
1 *5955:A 0
2 *5957:A 0.000239503
3 *5956:A 0.00109004
4 *5314:A2 0.000565104
5 *5958:X 0.000152522
6 *675:27 0.00185944
7 *675:14 0.0025888
8 *675:8 0.00164632
9 *5314:A2 *5314:B1 0
10 *5314:A2 *687:104 1.54008e-05
11 *5314:A2 *1065:25 0
12 *5956:A *5361:B 0
13 *5956:A *5755:RESET_B 0
14 *5956:A *6045:A 0.000112618
15 *5956:A *702:10 0
16 *5956:A *1023:114 0.0001122
17 *5957:A *5338:A1 0
18 *5957:A *702:10 0
19 *675:8 *5278:B1 0
20 *675:8 *5279:B 0.0001944
21 *675:14 *5278:B1 0
22 *675:14 *5279:B 8.03692e-05
23 *675:14 *5951:A 0
24 *675:14 *1020:68 0
25 *675:14 *1049:37 0
26 *675:27 *943:10 0.000237643
27 *5281:A2 *675:8 0
28 *5281:A2 *675:14 0
29 *5338:A2 *5956:A 4.77425e-05
30 *5338:A2 *5957:A 3.23417e-05
31 *5338:A2 *675:27 7.62389e-05
32 *5687:CLK *5314:A2 0
33 *5755:D *5956:A 0
34 *5948:A *5956:A 4.78359e-05
35 *5950:A *5956:A 0
36 *5950:A *5957:A 0
37 *443:8 *675:14 0
38 *640:12 *5957:A 0
39 *664:28 *675:14 0
40 *668:10 *5956:A 0
41 *672:117 *675:14 0.00012798
42 *674:8 *5956:A 4.77425e-05
43 *674:8 *5957:A 0.000274299
*RES
1 *5958:X *675:8 21.751 
2 *675:8 *675:14 37.201 
3 *675:14 *5314:A2 45.5105 
4 *675:14 *675:27 26.283 
5 *675:27 *5956:A 30.5266 
6 *675:27 *5957:A 22.6162 
7 *675:8 *5955:A 20 
*END

*D_NET *676 0.00828357
*CONN
*I *5462:A I *D sg13g2_nor2b_1
*I *5454:A I *D sg13g2_and3_1
*I *5453:A I *D sg13g2_and2_1
*I *5465:A I *D sg13g2_nor2_1
*I *5455:A I *D sg13g2_and4_1
*I *5456:A I *D sg13g2_nand4_1
*I *5463:A_N I *D sg13g2_nand2b_1
*I *5536:A1 I *D sg13g2_o21ai_1
*I *5959:X O *D sg13g2_buf_1
*CAP
1 *5462:A 0.00026943
2 *5454:A 0.000348133
3 *5453:A 8.69884e-05
4 *5465:A 0
5 *5455:A 0.000144613
6 *5456:A 7.23474e-05
7 *5463:A_N 0
8 *5536:A1 6.2792e-05
9 *5959:X 0.000170302
10 *676:68 0.000278836
11 *676:60 0.000581787
12 *676:49 0.000417221
13 *676:36 0.000331451
14 *676:32 0.000981548
15 *676:28 0.00103985
16 *676:14 0.000203841
17 *676:8 0.000650811
18 *5453:A *5453:B 8.01447e-05
19 *5453:A *5467:A2 0
20 *5453:A *5485:A 0
21 *5453:A *1124:6 0
22 *5454:A *5454:B 0
23 *5454:A *5454:C 0.00037174
24 *5454:A *1032:20 0
25 *5454:A *1124:6 0
26 *5455:A *5455:B 0
27 *5455:A *5455:D 0
28 *5455:A *5456:B 0
29 *5455:A *1124:30 0
30 *5456:A *5456:B 1.54008e-05
31 *5456:A *1124:30 0
32 *5462:A *1041:18 0
33 *5462:A *1122:10 0
34 *5462:A *1122:27 0
35 *676:8 *5993:A 0
36 *676:14 *1041:33 4.00421e-05
37 *676:28 *5959:A 0
38 *676:28 *5993:A 0
39 *676:28 *1007:24 0
40 *676:28 *1041:18 0
41 *676:28 *1041:33 2.31012e-05
42 *676:28 *1122:10 0
43 *676:32 *1007:24 0
44 *676:32 *1007:56 0.000394981
45 *676:32 *1122:10 0.000341949
46 *676:36 *5454:C 0.000345124
47 *676:36 *1007:24 0
48 *676:36 *1123:18 5.30319e-05
49 *676:36 *1123:20 0.000106064
50 *676:49 *5456:B 0
51 *676:49 *1123:18 0.000182121
52 *676:60 *5453:B 0.000339398
53 *676:60 *5467:A2 0
54 *676:68 *5465:B 0
55 *676:68 *5466:A 0.000287256
56 *676:68 *927:8 0
57 *676:68 *1124:54 0
58 *5466:D *676:68 4.78195e-05
59 *5536:B1 *5536:A1 0
60 *5536:B1 *676:14 0
61 *5805:D *676:14 0
62 *5807:D *676:68 0
63 *556:10 *676:14 1.54556e-05
64 *559:8 *676:32 0
*RES
1 *5959:X *676:8 22.6471 
2 *676:8 *676:14 1.7304 
3 *676:14 *5536:A1 20.8446 
4 *676:14 *5463:A_N 20 
5 *676:8 *676:28 3.7183 
6 *676:28 *676:32 25.7886 
7 *676:32 *676:36 3.1106 
8 *676:36 *5456:A 40.7519 
9 *676:36 *676:49 20.8446 
10 *676:49 *5455:A 21.5347 
11 *676:49 *676:60 2.4823 
12 *676:60 *676:68 43.3578 
13 *676:68 *5465:A 20 
14 *676:60 *5453:A 20.9682 
15 *676:32 *5454:A 43.5123 
16 *676:28 *5462:A 23.0797 
*END

*D_NET *677 0.00125955
*CONN
*I *6082:A I *D sg13g2_buf_1
*I *5125:A2 I *D sg13g2_o21ai_1
*I *5575:Q O *D sg13g2_dfrbpq_1
*CAP
1 *6082:A 0.000234045
2 *5125:A2 0.000335634
3 *5575:Q 4.46393e-05
4 *677:8 0.000614318
5 *5125:A2 *5125:B1 1.54556e-05
6 *5125:A2 *898:27 0
7 *6082:A *5541:RESET_B 0
8 *5125:A1 *5125:A2 1.54556e-05
9 *5541:D *6082:A 0
10 *6081:A *6082:A 0
11 *301:10 *5125:A2 0
12 *301:10 *677:8 0
13 *646:6 *5125:A2 0
*RES
1 *5575:Q *677:8 40.5974 
2 *677:8 *5125:A2 43.7286 
3 *677:8 *6082:A 42.4823 
*END

*D_NET *678 0.0162079
*CONN
*I *5510:A I *D sg13g2_nor4_1
*I *5513:A I *D sg13g2_nor4_1
*I *5458:C I *D sg13g2_nand3b_1
*I *5525:A I *D sg13g2_nor4_1
*I *5509:A I *D sg13g2_nor3_1
*I *5528:A I *D sg13g2_nor4_1
*I *5531:A I *D sg13g2_nor4_1
*I *5010:A I *D sg13g2_inv_1
*I *5960:X O *D sg13g2_buf_1
*CAP
1 *5510:A 0.000324511
2 *5513:A 0.000565526
3 *5458:C 0
4 *5525:A 0
5 *5509:A 5.70598e-05
6 *5528:A 0
7 *5531:A 0
8 *5010:A 0
9 *5960:X 0
10 *678:101 0.0010765
11 *678:95 0.00174839
12 *678:91 0.0010445
13 *678:87 0.00131463
14 *678:79 0.00115704
15 *678:64 0.000564999
16 *678:41 0.00068019
17 *678:31 0.000797552
18 *678:22 0.00085531
19 *678:18 0.00137806
20 *678:10 0.000676972
21 *678:4 0.000323479
22 *5509:A *1009:42 0
23 *5510:A *682:14 0
24 *5510:A *1011:61 0
25 *5510:A *1035:28 0.000127744
26 *5510:A *1049:20 0
27 *5513:A *5513:B 1.53311e-05
28 *5513:A *5516:B 0
29 *5513:A *5964:A 7.99033e-05
30 *5513:A *696:14 0
31 *678:10 *694:12 2.21058e-05
32 *678:18 *5528:B 0
33 *678:18 *5528:D 0
34 *678:18 *681:10 0
35 *678:18 *1009:42 0.000240488
36 *678:22 *5495:B 0
37 *678:22 *681:10 0.00012874
38 *678:22 *694:20 0
39 *678:22 *1024:12 0
40 *678:22 *1024:18 0
41 *678:22 *1129:10 0
42 *678:31 *681:10 0.000233463
43 *678:41 *5528:B 1.54008e-05
44 *678:41 *679:33 0
45 *678:41 *681:22 0.000501286
46 *678:64 *5525:B 1.94184e-05
47 *678:79 *5525:B 0.000193004
48 *678:87 *5522:A 7.98406e-05
49 *678:87 *679:22 0.00068995
50 *678:87 *679:57 0.000272313
51 *678:91 *5520:A 4.77425e-05
52 *678:91 *5521:A 0.000175882
53 *678:91 *5522:B 0.000112141
54 *678:91 *5964:A 0
55 *678:91 *679:57 0
56 *678:91 *682:40 0
57 *678:91 *696:14 0.000289715
58 *678:95 *682:14 0
59 *678:95 *1049:20 0
60 *678:101 *5458:A_N 0.000112684
61 *678:101 *5485:A 0
62 *678:101 *682:16 0
63 *678:101 *1049:20 0
64 *5458:B *678:101 0
65 *5515:B *5513:A 0
66 *5517:B *5510:A 0
67 *5530:B *678:18 0
68 *5909:A *678:41 0
69 *242:8 *678:22 0
70 *552:10 *678:101 0
71 *586:10 *5509:A 1.54008e-05
72 *586:10 *678:18 0.000111568
73 *586:64 *678:79 0.000143888
74 *586:79 *678:87 1.51975e-05
75 *596:8 *678:79 0
76 *605:66 *678:22 0
77 *605:120 *678:41 0
*RES
1 *5960:X *678:4 20 
2 *678:4 *678:10 41.8334 
3 *678:10 *678:18 24.2642 
4 *678:18 *678:22 30.4854 
5 *678:22 *5010:A 20 
6 *678:18 *678:31 21.5862 
7 *678:31 *678:41 46.9216 
8 *678:41 *5531:A 20 
9 *678:31 *5528:A 20 
10 *678:10 *5509:A 20.5356 
11 *678:4 *678:64 1.27205 
12 *678:64 *5525:A 20 
13 *678:64 *678:79 45.253 
14 *678:79 *678:87 47.004 
15 *678:87 *678:91 25.7268 
16 *678:91 *678:95 1.1639 
17 *678:95 *678:101 32.7205 
18 *678:101 *5458:C 20 
19 *678:95 *5513:A 46.0205 
20 *678:91 *5510:A 43.0488 
*END

*D_NET *679 0.0243221
*CONN
*I *5519:A I *D sg13g2_nor4_1
*I *5516:A I *D sg13g2_nor4_1
*I *5522:A I *D sg13g2_nor4_1
*I *6145:A I *D sg13g2_buf_1
*I *5960:A I *D sg13g2_buf_1
*I *5961:X O *D sg13g2_buf_1
*CAP
1 *5519:A 0.000112566
2 *5516:A 0
3 *5522:A 5.166e-05
4 *6145:A 0
5 *5960:A 2.9025e-05
6 *5961:X 0.000123203
7 *679:65 0.000395319
8 *679:57 0.00112876
9 *679:35 0.00262914
10 *679:33 0.00320141
11 *679:22 0.00142339
12 *679:10 0.000873758
13 *679:8 0.000744076
14 *5519:A *5519:C 0.000158578
15 *5519:A *682:14 2.20248e-05
16 *5519:A *696:27 0
17 *5522:A *5522:B 1.53311e-05
18 *5522:A *5963:A 0
19 *679:8 *1011:33 0.000183434
20 *679:22 *5509:B 0
21 *679:22 *5963:A 0.00102687
22 *679:33 *5509:B 0
23 *679:33 *5528:B 0.000240669
24 *679:33 *694:18 0.000176631
25 *679:35 *5394:A0 0.00172792
26 *679:35 *681:22 0.000394571
27 *679:35 *711:90 0
28 *679:35 *983:10 0.0011956
29 *679:35 *990:25 0.00279662
30 *679:35 *1027:121 0
31 *679:35 *1028:72 0
32 *679:57 *5520:A 4.77425e-05
33 *679:57 *5521:A 0.000176057
34 *679:57 *696:14 0.00011226
35 *679:65 *682:14 0.000126149
36 boot_wdata[5] *679:35 0
37 *5520:B *679:57 6.4468e-05
38 *5521:B *679:57 0.000272915
39 *5527:B *679:33 0
40 *5747:CLK *679:35 0.000586758
41 *214:8 *679:35 0
42 *458:10 *679:35 0
43 *586:10 *679:33 0
44 *586:22 *679:33 0.000529944
45 *586:64 *679:22 0.000529707
46 *586:79 *679:22 6.4398e-05
47 *586:79 *679:57 0.000272313
48 *594:12 *679:57 0.000175664
49 *606:12 *679:35 0
50 *622:56 *679:35 0.000234727
51 *622:65 *679:35 0.00143634
52 *669:97 *679:35 0
53 *678:41 *679:33 0
54 *678:87 *5522:A 7.98406e-05
55 *678:87 *679:22 0.00068995
56 *678:87 *679:57 0.000272313
57 *678:91 *679:57 0
*RES
1 *5961:X *679:8 41.5862 
2 *679:8 *679:10 20 
3 *679:10 *679:22 49.9601 
4 *679:22 *5960:A 20.3502 
5 *679:22 *679:33 26.1594 
6 *679:33 *679:35 38.6662 
7 *679:35 *6145:A 40 
8 *679:10 *5522:A 20.5356 
9 *679:8 *679:57 46.7568 
10 *679:57 *679:65 44.5938 
11 *679:65 *5516:A 40 
12 *679:57 *5519:A 41.339 
*END

*D_NET *680 0.0118958
*CONN
*I *5491:C I *D sg13g2_nor4_1
*I *5495:C I *D sg13g2_nor4_1
*I *5498:C I *D sg13g2_nor4_1
*I *5504:C I *D sg13g2_nor4_1
*I *5507:C I *D sg13g2_nor4_1
*I *5501:C I *D sg13g2_nor4_1
*I *5457:B I *D sg13g2_nor3_1
*I *5472:C I *D sg13g2_or4_1
*I *5962:X O *D sg13g2_buf_1
*CAP
1 *5491:C 0
2 *5495:C 0
3 *5498:C 0.000469471
4 *5504:C 0
5 *5507:C 0.000140207
6 *5501:C 0.000398801
7 *5457:B 0
8 *5472:C 0
9 *5962:X 0.000276974
10 *680:104 0.00031459
11 *680:71 0.000414767
12 *680:56 0.000924298
13 *680:42 0.000621528
14 *680:32 0.000826133
15 *680:26 0.000808651
16 *680:24 0.00115255
17 *680:22 0.000801323
18 *680:18 0.000220268
19 *680:14 0.000340478
20 *5498:C *5488:C 0
21 *5498:C *5498:B 4.77425e-05
22 *5498:C *1024:18 0
23 *5501:C *5501:A 0.000240816
24 *5501:C *5501:D 0.000127799
25 *5501:C *1008:29 0.00037174
26 *5501:C *1024:39 0.0001944
27 *5507:C *5507:D 0
28 *5507:C *1008:87 0
29 *680:14 *5534:A1 0.000237204
30 *680:14 *5962:A 0
31 *680:14 *1006:34 1.56704e-05
32 *680:14 *1128:12 0
33 *680:18 *5491:B 9.72497e-05
34 *680:18 *5491:D 4.78688e-05
35 *680:22 *5491:A 0
36 *680:22 *5491:B 4.77537e-05
37 *680:22 *5491:D 0.00024216
38 *680:24 *1024:18 0
39 *680:32 *1008:27 0.000209126
40 *680:32 *1008:87 0
41 *680:32 *1024:73 0
42 *680:42 *5472:A 0.000874328
43 *680:42 *5472:B 9.6255e-05
44 *680:42 *714:26 0
45 *680:56 *1008:27 0.000306925
46 *680:56 *1008:29 6.46834e-05
47 *680:71 *1008:87 0
48 *680:71 *1024:39 0
49 *680:71 *1132:27 0.000232421
50 *680:104 *1001:67 0
51 *5534:B1 *680:18 0
52 *5825:CLK *680:14 0
53 *5890:A *680:56 0
54 *5891:A *5498:C 0
55 *69:22 *5501:C 0
56 *69:22 *680:32 0
57 *69:28 *680:26 0
58 *551:8 *680:42 0.000181695
59 *574:10 *680:104 0
60 *605:43 *680:56 0
61 *605:60 *680:24 0
62 *605:60 *680:26 0
63 *605:66 *5498:C 0
64 *605:198 *5498:C 0
65 *614:21 *5507:C 0.000340479
66 *614:21 *680:71 0.000209452
*RES
1 *5962:X *680:14 43.0385 
2 *680:14 *680:18 20.7519 
3 *680:18 *680:22 21.6171 
4 *680:22 *680:24 3.5638 
5 *680:24 *680:26 4.0582 
6 *680:26 *680:32 21.9982 
7 *680:32 *680:42 47.2461 
8 *680:42 *5472:C 20 
9 *680:32 *5457:B 20 
10 *680:26 *680:56 22.4823 
11 *680:56 *5501:C 24.4496 
12 *680:56 *680:71 22.8222 
13 *680:71 *5507:C 41.5862 
14 *680:71 *5504:C 40 
15 *680:24 *5498:C 44.6453 
16 *680:22 *680:104 43.3269 
17 *680:104 *5495:C 40 
18 *680:18 *5491:C 20 
*END

*D_NET *681 0.00895757
*CONN
*I *5525:C I *D sg13g2_nor4_1
*I *5509:B I *D sg13g2_nor3_1
*I *5962:A I *D sg13g2_buf_1
*I *5534:A1 I *D sg13g2_o21ai_1
*I *5528:C I *D sg13g2_nor4_1
*I *5531:C I *D sg13g2_nor4_1
*I *5963:X O *D sg13g2_buf_1
*CAP
1 *5525:C 0.000234386
2 *5509:B 7.72789e-05
3 *5962:A 0.000138617
4 *5534:A1 0.000608728
5 *5528:C 0
6 *5531:C 0
7 *5963:X 0.000465571
8 *681:65 0.000474101
9 *681:43 0.00132674
10 *681:39 0.000741829
11 *681:22 0.000605464
12 *681:12 0.000605464
13 *681:10 0.000465571
14 *5509:B *5963:A 0
15 *5525:C *5525:B 7.99179e-05
16 *5525:C *5525:D 4.75825e-05
17 *5534:A1 *5534:A2 4.78359e-05
18 *5534:A1 *6007:A 0
19 *5534:A1 *1009:8 0
20 *681:10 *694:41 0
21 *681:10 *1009:42 0.000400885
22 *681:10 *1129:10 0
23 *681:22 *5528:B 4.77425e-05
24 *681:22 *5531:D 0.000272684
25 *681:43 *950:8 0
26 *681:43 *1006:34 0
27 *5530:B *681:22 0
28 *5534:B1 *5534:A1 0.000533057
29 *5825:CLK *5534:A1 0
30 *5825:CLK *681:43 0
31 *586:60 *5525:C 0.000288852
32 *605:120 *5525:C 0
33 *650:46 *681:43 0
34 *650:59 *5962:A 0
35 *678:18 *681:10 0
36 *678:22 *681:10 0.00012874
37 *678:31 *681:10 0.000233463
38 *678:41 *681:22 0.000501286
39 *679:22 *5509:B 0
40 *679:33 *5509:B 0
41 *679:35 *681:22 0.000394571
42 *680:14 *5534:A1 0.000237204
43 *680:14 *5962:A 0
*RES
1 *5963:X *681:10 44.9337 
2 *681:10 *681:12 20 
3 *681:12 *681:22 46.9216 
4 *681:22 *5531:C 20 
5 *681:12 *5528:C 20 
6 *5963:X *681:39 40 
7 *681:39 *681:43 7.3439 
8 *681:43 *5534:A1 46.8804 
9 *681:43 *5962:A 41.1845 
10 *681:39 *681:65 1.5862 
11 *681:65 *5509:B 40.7519 
12 *681:65 *5525:C 42.8634 
*END

*D_NET *682 0.0137257
*CONN
*I *5513:C I *D sg13g2_nor4_1
*I *5516:C I *D sg13g2_nor4_1
*I *5510:C I *D sg13g2_nor4_1
*I *5519:C I *D sg13g2_nor4_1
*I *5522:C I *D sg13g2_nor4_1
*I *5963:A I *D sg13g2_buf_1
*I *5471:C I *D sg13g2_and4_1
*I *5458:A_N I *D sg13g2_nand3b_1
*I *5964:X O *D sg13g2_buf_1
*CAP
1 *5513:C 0
2 *5516:C 0
3 *5510:C 0
4 *5519:C 5.98875e-05
5 *5522:C 0
6 *5963:A 0.0010863
7 *5471:C 0
8 *5458:A_N 0.00049361
9 *5964:X 0
10 *682:99 0.000311497
11 *682:86 0.000490965
12 *682:79 0.000122662
13 *682:73 0.000345175
14 *682:40 0.00166517
15 *682:16 0.00110519
16 *682:14 0.0013247
17 *682:10 0.000338888
18 *682:4 0.000187797
19 *5458:A_N *5471:D 0.00061561
20 *5458:A_N *5485:B 0.000345382
21 *5458:A_N *1006:28 0.00033913
22 *5963:A *5522:D 3.15716e-05
23 *5963:A *1009:34 0
24 *5963:A *1011:54 1.54008e-05
25 *682:10 *696:14 0.00017593
26 *682:10 *1011:61 0
27 *682:16 *5471:D 5.38157e-05
28 *682:40 *5522:B 0.000304446
29 *682:40 *1011:54 0.000353722
30 *682:73 *696:14 6.43908e-05
31 *682:73 *1011:61 0
32 *682:73 *1011:65 4.77083e-05
33 *682:86 *5516:B 4.75265e-05
34 *682:86 *696:14 0.000225192
35 *682:86 *1011:65 0.000337465
36 *682:99 *5516:B 0.000257583
37 *682:99 *1011:65 4.76456e-05
38 *682:99 *1011:78 0.000748907
39 *5509:B *5963:A 0
40 *5510:A *682:14 0
41 *5519:A *5519:C 0.000158578
42 *5519:A *682:14 2.20248e-05
43 *5521:B *682:10 1.54008e-05
44 *5522:A *5963:A 0
45 *5524:B *5963:A 0.000720699
46 *552:10 *5458:A_N 0
47 *678:91 *682:40 0
48 *678:95 *682:14 0
49 *678:101 *5458:A_N 0.000112684
50 *678:101 *682:16 0
51 *679:22 *5963:A 0.00102687
52 *679:65 *682:14 0.000126149
*RES
1 *5964:X *682:4 20 
2 *682:4 *682:10 21.5038 
3 *682:10 *682:14 1.4111 
4 *682:14 *682:16 7.7662 
5 *682:16 *5458:A_N 46.5714 
6 *682:16 *5471:C 40 
7 *682:14 *682:40 26.0461 
8 *682:40 *5963:A 32.36 
9 *682:40 *5522:C 20 
10 *682:10 *5519:C 40.8446 
11 *682:4 *682:73 0.5356 
12 *682:73 *682:79 41.0918 
13 *682:79 *5510:C 20 
14 *682:73 *682:86 2.266 
15 *682:86 *5516:C 20 
16 *682:86 *682:99 44.4084 
17 *682:99 *5513:C 20 
*END

*D_NET *683 0.0175406
*CONN
*I *5302:A1 I *D sg13g2_a21oi_1
*I *5350:A1 I *D sg13g2_a21oi_1
*I *5374:A1 I *D sg13g2_a21oi_1
*I *5356:A1 I *D sg13g2_a21oi_1
*I *5380:A1 I *D sg13g2_a21oi_1
*I *5326:A1 I *D sg13g2_a21oi_1
*I *5332:A1 I *D sg13g2_a21oi_1
*I *5308:A1 I *D sg13g2_a21oi_1
*I *5965:X O *D sg13g2_buf_1
*CAP
1 *5302:A1 0
2 *5350:A1 2.86876e-05
3 *5374:A1 0.000587883
4 *5356:A1 0
5 *5380:A1 0
6 *5326:A1 3.32229e-05
7 *5332:A1 0.000645456
8 *5308:A1 0.000562063
9 *5965:X 0.000321669
10 *683:81 0.00102118
11 *683:61 0.000485946
12 *683:51 0.00137174
13 *683:47 0.00149959
14 *683:36 0.000594263
15 *683:25 0.00114333
16 *683:10 0.00121391
17 *683:6 0.000827484
18 *5308:A1 *5683:RESET_B 0
19 *5308:A1 *695:31 0
20 *5332:A1 *695:33 0.000615955
21 *5332:A1 *695:41 0.000371849
22 *5332:A1 *711:20 0
23 *5332:A1 *1060:36 0
24 *5350:A1 *1018:20 0
25 *5374:A1 *5374:B1 0
26 *5374:A1 *695:71 0
27 *5374:A1 *1019:71 0
28 *5374:A1 *1058:34 0
29 *683:6 *685:22 0
30 *683:10 *685:22 0.000825416
31 *683:25 *695:31 0.00050063
32 *683:36 *695:31 7.51285e-05
33 *683:47 *1027:78 0
34 *683:47 *1058:18 0.000609684
35 *683:51 *5715:RESET_B 0
36 *683:51 *1018:26 0
37 *683:61 *948:8 0.0004016
38 *683:61 *1069:30 0.000130055
39 *683:81 *695:71 0
40 *683:81 *1018:20 0.000500215
41 *683:81 *1027:78 0
42 *683:81 *1058:18 0.00023547
43 *5326:A2 *5326:A1 1.54008e-05
44 *5350:A2 *5350:A1 0
45 *5350:A2 *5374:A1 0.000274512
46 *5351:A *5350:A1 1.54556e-05
47 *5351:A *5374:A1 0
48 *5351:A *683:81 0.000177323
49 *5374:A2 *5374:A1 0.000339546
50 *5375:A *5374:A1 0
51 *5683:CLK *5308:A1 0
52 *6052:A *5374:A1 0
53 *6052:A *683:81 0
54 *462:12 *5308:A1 0
55 *474:8 *683:36 0
56 *474:8 *683:47 0
57 *478:10 *5332:A1 4.76327e-05
58 *494:14 *683:51 0.000274594
59 *647:44 *683:51 0
60 *647:44 *683:61 0
61 *669:6 *5332:A1 0
62 *669:14 *5308:A1 4.77537e-05
63 *669:14 *683:25 0
64 *669:23 *5332:A1 0.000889785
65 *669:29 *5332:A1 1.54556e-05
66 *671:12 *683:6 0.000533596
67 *671:12 *683:10 0.000307133
68 *671:18 *683:10 0
*RES
1 *5965:X *683:6 23.5638 
2 *683:6 *683:10 25.9431 
3 *683:10 *5308:A1 45.2221 
4 *683:10 *683:25 2.3278 
5 *683:25 *5332:A1 47.6735 
6 *683:25 *683:36 3.811 
7 *683:36 *5326:A1 40.3193 
8 *683:36 *683:47 3.3166 
9 *683:47 *683:51 29.8365 
10 *683:51 *683:61 45.9328 
11 *683:61 *5380:A1 20 
12 *683:51 *5356:A1 20 
13 *683:47 *683:81 25.6341 
14 *683:81 *5374:A1 26.8392 
15 *683:81 *5350:A1 20.5356 
16 *683:6 *5302:A1 20 
*END

*D_NET *684 0.0136361
*CONN
*I *5296:A1 I *D sg13g2_a21oi_1
*I *5371:A1 I *D sg13g2_a21oi_1
*I *5347:A1 I *D sg13g2_a21oi_1
*I *5323:A1 I *D sg13g2_a21oi_1
*I *5299:A1 I *D sg13g2_a21oi_1
*I *5966:X O *D sg13g2_buf_1
*CAP
1 *5296:A1 8.81396e-05
2 *5371:A1 0.000607805
3 *5347:A1 5.25296e-05
4 *5323:A1 0.000570037
5 *5299:A1 0.000164076
6 *5966:X 0.00019672
7 *684:40 0.00110734
8 *684:29 0.00136388
9 *684:16 0.00108475
10 *684:12 0.000661978
11 *684:10 0.00019672
12 *5296:A1 *685:10 0
13 *5299:A1 *1019:8 0
14 *5323:A1 *5323:B1 0
15 *5347:A1 *5370:B 0
16 *5371:A1 *929:8 0
17 *5371:A1 *989:23 0
18 *684:10 *685:10 0
19 *684:10 *764:10 0.000341535
20 *684:16 *685:10 0
21 *684:29 *5392:A0 0
22 *684:40 *5392:A0 0
23 *684:40 *989:23 0
24 *5299:A2 *5299:A1 0.000282907
25 *5323:A2 *5323:A1 0.000890303
26 *5347:A2 *5347:A1 4.78028e-05
27 *5371:A2 *5371:A1 0.00123029
28 *5371:A2 *684:40 7.51285e-05
29 *5677:CLK *5299:A1 0
30 *5693:CLK *5323:A1 0
31 *5709:CLK *5371:A1 0.000598734
32 *454:10 *5296:A1 4.78521e-05
33 *605:124 *684:10 0
34 *670:6 *5296:A1 1.54008e-05
35 *670:10 *5296:A1 0.000129432
36 *670:10 *5299:A1 0
37 *670:10 *684:16 0.000987018
38 *670:23 *5299:A1 7.52158e-05
39 *670:23 *684:29 0.00111815
40 *670:34 *684:29 7.51285e-05
41 *670:34 *684:40 0.00154747
42 *671:12 *684:10 7.97166e-05
*RES
1 *5966:X *684:10 42.1218 
2 *684:10 *684:12 20 
3 *684:12 *684:16 26.592 
4 *684:16 *5299:A1 42.1218 
5 *684:16 *684:29 5.5414 
6 *684:29 *5323:A1 46.1594 
7 *684:29 *684:40 7.519 
8 *684:40 *5347:A1 40.5356 
9 *684:40 *5371:A1 47.8074 
10 *684:12 *5296:A1 20.9682 
*END

*D_NET *685 0.0188447
*CONN
*I *5966:A I *D sg13g2_buf_1
*I *5965:A I *D sg13g2_buf_1
*I *5377:A1 I *D sg13g2_a21oi_1
*I *5353:A1 I *D sg13g2_a21oi_1
*I *5305:A1 I *D sg13g2_a21oi_1
*I *5329:A1 I *D sg13g2_a21oi_1
*I *5967:X O *D sg13g2_buf_1
*CAP
1 *5966:A 0
2 *5965:A 0
3 *5377:A1 0
4 *5353:A1 0.000132234
5 *5305:A1 0.000381697
6 *5329:A1 0.000114184
7 *5967:X 0.00041175
8 *685:42 0.000868019
9 *685:36 0.00126682
10 *685:32 0.000656342
11 *685:26 0.000519857
12 *685:22 0.0024914
13 *685:10 0.00393427
14 *685:8 0.00198166
15 *5305:A1 *694:55 0
16 *5305:A1 *694:57 0
17 *5353:A1 *5376:B 0
18 *5353:A1 *1017:6 7.97166e-05
19 *685:8 *5296:B1 0.000145052
20 *685:10 *5296:B1 0
21 *685:10 *5976:A 0
22 *685:10 *934:12 0
23 *685:10 *934:25 0
24 *685:22 *5331:A 0.000274781
25 *685:22 *5331:B 0.00108441
26 *685:22 *5679:RESET_B 0
27 *685:22 *5976:A 0
28 *685:22 *695:10 0
29 *685:22 *695:95 0
30 *685:22 *914:8 0
31 *685:22 *1083:8 0.000226578
32 *685:26 *5377:B1 0
33 *685:32 *1017:10 0
34 *685:42 *694:57 0
35 *5296:A1 *685:10 0
36 *5305:A2 *5305:A1 0.000566448
37 *5329:A2 *5329:A1 0.000145012
38 *5330:A *5329:A1 0
39 *5333:C *685:22 0
40 *5354:C *685:42 0
41 *5377:A2 *685:26 3.23417e-05
42 *5377:A2 *685:32 1.54008e-05
43 *5675:CLK *685:8 0
44 *5699:D *685:22 0
45 *5713:D *685:42 0
46 *454:10 *685:10 0
47 *508:8 *685:32 0.0008772
48 *613:8 *685:26 0
49 *622:10 *685:22 0
50 *622:56 *685:22 0
51 *671:12 *685:8 0
52 *671:12 *685:10 0
53 *671:12 *685:22 0
54 *671:18 *685:22 0
55 *671:22 *685:32 0
56 *671:33 *5305:A1 0
57 *671:33 *5353:A1 0.000208824
58 *671:33 *685:42 0
59 *671:41 *5353:A1 1.54008e-05
60 *671:41 *685:42 0.0015899
61 *683:6 *685:22 0
62 *683:10 *685:22 0.000825416
63 *684:10 *685:10 0
64 *684:16 *685:10 0
*RES
1 *5967:X *685:8 23.6977 
2 *685:8 *685:10 15.6766 
3 *685:10 *685:22 46.0402 
4 *685:22 *685:26 21.1845 
5 *685:26 *685:32 25.0882 
6 *685:32 *685:36 21.0918 
7 *685:36 *685:42 30.0013 
8 *685:42 *5329:A1 41.1845 
9 *685:36 *5305:A1 24.429 
10 *685:32 *5353:A1 41.4008 
11 *685:26 *5377:A1 20 
12 *685:10 *5965:A 20 
13 *685:8 *5966:A 20 
*END

*D_NET *686 0.0127479
*CONN
*I *5064:C I *D sg13g2_nand3_1
*I *5028:A I *D sg13g2_nand2_1
*I *5277:A1 I *D sg13g2_a21oi_1
*I *5065:A1 I *D sg13g2_a22oi_1
*I *5036:B I *D sg13g2_and3_1
*I *5034:A I *D sg13g2_nor2_1
*I *5069:B I *D sg13g2_and3_1
*I *5033:B I *D sg13g2_and3_1
*I *5968:X O *D sg13g2_buf_1
*CAP
1 *5064:C 0.000374326
2 *5028:A 0.000849691
3 *5277:A1 3.03288e-05
4 *5065:A1 0.000524701
5 *5036:B 0
6 *5034:A 0.000431145
7 *5069:B 0
8 *5033:B 0.000399385
9 *5968:X 0
10 *686:79 0.00132434
11 *686:73 0.00105624
12 *686:60 0.00120863
13 *686:34 0.000514345
14 *686:30 0.00100533
15 *686:10 0.000635085
16 *686:4 0.00071149
17 *5033:B *700:38 0
18 *5033:B *1032:26 0
19 *5033:B *1048:23 0
20 *5033:B *1048:29 1.54008e-05
21 *5034:A *5067:A2 0
22 *5034:A *700:24 1.54008e-05
23 *5034:A *700:34 0
24 *5034:A *1048:6 0
25 *5064:C *5280:A1 1.54556e-05
26 *5064:C *1049:16 0.000550872
27 *5065:A1 *5065:A2 0
28 *5065:A1 *715:78 0
29 *5065:A1 *1051:12 0
30 *686:10 *690:10 0
31 *686:10 *700:38 0
32 *686:10 *1032:20 8.02763e-05
33 *686:10 *1047:10 0
34 *686:10 *1051:29 8.02763e-05
35 *686:30 *5863:RESET_B 0
36 *686:30 *1032:20 0.000240662
37 *686:30 *1051:29 0.000775495
38 *686:34 *715:21 0
39 *686:60 *5863:RESET_B 0
40 *686:60 *715:78 8.00842e-05
41 *686:60 *1051:12 0
42 *686:60 *1051:29 0.00035635
43 *686:73 *1051:12 0
44 *686:79 *1049:16 0.000404454
45 *5028:B *5028:A 0
46 *5037:A2 *5034:A 0
47 *5283:A2 *5277:A1 4.77425e-05
48 *5873:CLK *5065:A1 0
49 *445:10 *5028:A 0
50 *605:227 *5033:B 0
51 *638:16 *686:73 0.000555321
52 *638:29 *5034:A 0
53 *672:27 *5064:C 0
54 *672:27 *686:79 0
55 *672:35 *686:79 4.7803e-05
56 *672:99 *5028:A 7.52158e-05
57 *672:99 *686:79 0.000342034
*RES
1 *5968:X *686:4 20 
2 *686:4 *686:10 22.369 
3 *686:10 *5033:B 43.8522 
4 *686:10 *5069:B 40 
5 *686:4 *686:30 5.2942 
6 *686:30 *686:34 20.8446 
7 *686:34 *5034:A 43.6462 
8 *686:34 *5036:B 40 
9 *686:30 *686:60 24.5629 
10 *686:60 *5065:A1 45.5105 
11 *686:60 *686:73 23.3166 
12 *686:73 *686:79 25.2736 
13 *686:79 *5277:A1 40.3193 
14 *686:79 *5028:A 49.8159 
15 *686:73 *5064:C 23.7801 
*END

*D_NET *687 0.0205015
*CONN
*I *5317:A1 I *D sg13g2_a21oi_1
*I *5311:A1 I *D sg13g2_a21oi_1
*I *5314:A1 I *D sg13g2_a21oi_1
*I *5287:A1 I *D sg13g2_a21oi_1
*I *5293:A1 I *D sg13g2_a21oi_1
*I *5368:A1 I *D sg13g2_a21oi_1
*I *5344:A1 I *D sg13g2_a21oi_1
*I *5320:A1 I *D sg13g2_a21oi_1
*I *5969:X O *D sg13g2_buf_1
*CAP
1 *5317:A1 0.00088181
2 *5311:A1 0.000581967
3 *5314:A1 0
4 *5287:A1 0.000366109
5 *5293:A1 0.000252357
6 *5368:A1 0.000708726
7 *5344:A1 0.000401302
8 *5320:A1 0.000369847
9 *5969:X 0.000489321
10 *687:104 0.00131579
11 *687:94 0.00244562
12 *687:73 0.0017774
13 *687:56 0.00162922
14 *687:52 0.00175282
15 *687:24 0.00191736
16 *687:20 0.00128438
17 *5287:A1 *5287:B1 0
18 *5287:A1 *1023:26 0
19 *5287:A1 *1023:34 0
20 *5293:A1 *5292:B 0
21 *5311:A1 *701:41 0.000371386
22 *5311:A1 *1020:113 0
23 *5317:A1 *722:10 0
24 *5317:A1 *984:10 0
25 *5317:A1 *1030:41 0
26 *5320:A1 *5320:B1 0
27 *5320:A1 *712:16 0
28 *5320:A1 *1029:21 0
29 *5344:A1 *5343:B 0
30 *5344:A1 *5707:RESET_B 0.000296852
31 *5368:A1 *1029:47 0
32 *5368:A1 *1064:22 0
33 *5368:A1 *1064:43 0
34 *687:20 *712:16 0.000209763
35 *687:20 *1029:21 0
36 *687:24 *1029:47 0
37 *687:52 *690:35 0
38 *687:52 *712:16 0.000242089
39 *687:52 *712:96 0.000144849
40 *687:52 *1029:19 0
41 *687:52 *1029:21 0
42 *687:56 *5388:A1 0.000159096
43 *687:56 *984:10 0
44 *687:56 *1030:56 0
45 *687:56 *1076:10 0.000129077
46 *687:73 *5292:B 0
47 *687:73 *701:41 8.00842e-05
48 *687:73 *701:57 0
49 *687:94 *5384:A1 0
50 *687:94 *1054:19 0
51 *687:104 *5312:B 0
52 *687:104 *702:47 0
53 *687:104 *1020:90 0
54 *687:104 *1023:26 0
55 *687:104 *1065:6 0
56 *687:104 *1065:25 0
57 *5293:A2 *5293:A1 0.000224906
58 *5293:A2 *687:73 0.000588725
59 *5314:A2 *687:104 1.54008e-05
60 *5344:A2 *5344:A1 1.54008e-05
61 *5368:A2 *5368:A1 1.54008e-05
62 *5389:A *687:52 0
63 *5669:CLK *5287:A1 0
64 *5669:CLK *687:94 0
65 *5685:CLK *5311:A1 0
66 *5741:CLK *5317:A1 0
67 *5902:A *5317:A1 0
68 *6016:A *687:73 0
69 *6016:A *687:94 0.000208878
70 *452:8 *687:56 0
71 *470:10 *5320:A1 0.000209048
72 *485:18 *5344:A1 0
73 *485:18 *687:24 0
74 *486:10 *5344:A1 8.0216e-05
75 *605:154 *5344:A1 0
76 *605:154 *5368:A1 0
77 *605:158 *5368:A1 0
78 *663:34 *687:94 0
79 *673:14 *5311:A1 1.54008e-05
80 *673:26 *5311:A1 0
81 *673:43 *5287:A1 7.52149e-05
82 *673:43 *687:73 0.000607109
83 *673:66 *5317:A1 1.54008e-05
84 *673:76 *5317:A1 0.000413218
85 *673:80 *5317:A1 0.000209977
*RES
1 *5969:X *5320:A1 43.9449 
2 *5969:X *687:20 21.4008 
3 *687:20 *687:24 27.519 
4 *687:24 *5344:A1 42.9712 
5 *687:24 *5368:A1 46.8186 
6 *687:20 *687:52 23.5638 
7 *687:52 *687:56 26.283 
8 *687:56 *5293:A1 22.9664 
9 *687:56 *687:73 29.1979 
10 *687:73 *5287:A1 43.7801 
11 *687:73 *687:94 45.2942 
12 *687:94 *687:104 33.9771 
13 *687:104 *5314:A1 20 
14 *687:94 *5311:A1 45.9843 
15 *687:52 *5317:A1 49.373 
*END

*D_NET *688 0.00404353
*CONN
*I *5127:A2 I *D sg13g2_o21ai_1
*I *6083:A I *D sg13g2_buf_1
*I *5577:Q O *D sg13g2_dfrbpq_1
*CAP
1 *5127:A2 0.000137622
2 *6083:A 0.000395568
3 *5577:Q 0.000233881
4 *688:8 0.000767072
5 *5127:A2 *5120:B1 1.54556e-05
6 *5127:A2 *5127:A1 0.000161086
7 *5127:A2 *705:71 0
8 *5127:A2 *820:14 0
9 *6083:A *5127:A1 0
10 *6083:A *5577:RESET_B 0
11 *6083:A *705:49 0
12 *6083:A *820:14 0.000307051
13 *688:8 *5127:A1 0.00109244
14 *5128:B1 *5127:A2 0
15 *5577:D *6083:A 0
16 *656:22 *688:8 0.000933349
*RES
1 *5577:Q *688:8 45.2942 
2 *688:8 *6083:A 44.3157 
3 *688:8 *5127:A2 41.5038 
*END

*D_NET *689 0.01257
*CONN
*I *5359:A1 I *D sg13g2_a21oi_1
*I *5362:A1 I *D sg13g2_a21oi_1
*I *5338:A1 I *D sg13g2_a21oi_1
*I *5335:A1 I *D sg13g2_a21oi_1
*I *5365:A1 I *D sg13g2_a21oi_1
*I *5341:A1 I *D sg13g2_a21oi_1
*I *5970:X O *D sg13g2_buf_1
*CAP
1 *5359:A1 0
2 *5362:A1 4.42446e-05
3 *5338:A1 0.000721975
4 *5335:A1 0
5 *5365:A1 0
6 *5341:A1 0.000425613
7 *5970:X 0.000567023
8 *689:90 0.000556224
9 *689:60 0.00165523
10 *689:49 0.00126188
11 *689:41 0.00144172
12 *689:30 0.000810195
13 *689:26 0.00043898
14 *5338:A1 *702:10 8.0216e-05
15 *5341:A1 *5341:B1 0
16 *5341:A1 *5705:RESET_B 0
17 *5362:A1 *5719:RESET_B 0
18 *689:26 *952:8 0
19 *689:26 *962:8 0
20 *689:49 *994:21 0.00114158
21 *689:60 *5335:B1 0
22 *689:60 *5362:B1 0
23 *689:60 *5701:RESET_B 0
24 *689:90 *994:21 0.00034245
25 *5335:A2 *689:49 8.01116e-05
26 *5338:A2 *5338:A1 1.54008e-05
27 *5342:C *5341:A1 0.00014502
28 *5362:A2 *5362:A1 1.54008e-05
29 *5362:A2 *689:60 0
30 *5689:CLK *689:26 0
31 *5701:CLK *689:60 0
32 *5719:CLK *5362:A1 8.0216e-05
33 *5957:A *5338:A1 0
34 *498:10 *689:60 0
35 *640:8 *5338:A1 0.00131739
36 *663:71 *689:60 0
37 *663:97 *689:90 0
38 *663:103 *689:90 0
39 *664:61 *689:90 0
40 *674:41 *689:30 1.54556e-05
41 *674:41 *689:41 0.000847778
42 *674:41 *689:90 6.46834e-05
43 *674:49 *689:30 0.000501222
*RES
1 *5970:X *5341:A1 44.3672 
2 *5970:X *689:26 41.5862 
3 *689:26 *689:30 23.3475 
4 *689:30 *5365:A1 20 
5 *689:30 *689:41 6.18 
6 *689:41 *689:49 45.8298 
7 *689:49 *5335:A1 20 
8 *689:49 *689:60 28.4872 
9 *689:60 *5338:A1 49.0434 
10 *689:60 *5362:A1 40.5356 
11 *689:41 *689:90 46.1182 
12 *689:90 *5359:A1 20 
*END

*D_NET *690 0.0190327
*CONN
*I *5290:A1 I *D sg13g2_a21oi_1
*I *5970:A I *D sg13g2_buf_1
*I *5969:A I *D sg13g2_buf_1
*I *5968:A I *D sg13g2_buf_1
*I *5971:X O *D sg13g2_buf_1
*CAP
1 *5290:A1 8.20162e-05
2 *5970:A 0.000737038
3 *5969:A 0
4 *5968:A 0.000124881
5 *5971:X 0.0001765
6 *690:35 0.00168081
7 *690:31 0.00410449
8 *690:27 0.00354441
9 *690:10 0.00207714
10 *5968:A *1047:34 0.000176577
11 *5968:A *1051:29 0.000208271
12 *5970:A *5369:B 0
13 *5970:A *5705:RESET_B 0
14 *5970:A *993:10 0
15 *690:10 *715:39 0.000178206
16 *690:10 *1032:26 0
17 *690:10 *1047:10 0.000126358
18 *690:27 *1020:8 7.98406e-05
19 *690:27 *1020:25 0
20 *690:27 *1047:10 0.00134158
21 *690:31 *701:14 0
22 *690:31 *701:41 0
23 *690:31 *1020:90 0
24 *690:31 *1020:113 0
25 *690:35 *5689:RESET_B 0
26 *690:35 *712:16 0.000533821
27 *690:35 *712:96 0.000209664
28 *690:35 *713:10 0.000356263
29 *690:35 *713:14 0.000598734
30 *690:35 *1030:18 0.000177164
31 *5290:A2 *5290:A1 0
32 *5290:A2 *690:27 0.000143671
33 *5741:D *690:35 0
34 *6019:A *5290:A1 0
35 *6019:A *690:27 0
36 *6026:A *690:35 0.00148242
37 *159:8 *690:31 0.000553334
38 *626:14 *690:35 0.000339492
39 *663:51 *690:31 0
40 *672:61 *690:27 0
41 *672:80 *690:27 0
42 *673:66 *690:35 0
43 *673:76 *690:35 0
44 *686:10 *690:10 0
45 *687:52 *690:35 0
*RES
1 *5971:X *690:10 42.1527 
2 *690:10 *5968:A 41.4008 
3 *690:10 *690:27 41.5064 
4 *690:27 *690:31 36.9126 
5 *690:31 *690:35 39.1374 
6 *690:35 *5969:A 20 
7 *690:31 *5970:A 48.1782 
8 *690:27 *5290:A1 20.7519 
*END

*D_NET *691 0.00820595
*CONN
*I *5040:B I *D sg13g2_nor4_1
*I *5192:A1 I *D sg13g2_o21ai_1
*I *5193:A1 I *D sg13g2_a21oi_1
*I *5197:B I *D sg13g2_and3_1
*I *5111:A I *D sg13g2_nor2b_1
*I *5194:A1 I *D sg13g2_a21oi_1
*I *5195:B I *D sg13g2_and2_1
*I *5200:C I *D sg13g2_and4_1
*I *5972:X O *D sg13g2_buf_1
*CAP
1 *5040:B 0.000164069
2 *5192:A1 0.000152305
3 *5193:A1 5.7846e-05
4 *5197:B 2.0488e-05
5 *5111:A 0.00059082
6 *5194:A1 0
7 *5195:B 0
8 *5200:C 0
9 *5972:X 0
10 *691:47 0.000736443
11 *691:36 0.000538744
12 *691:22 9.1896e-05
13 *691:16 0.000245257
14 *691:14 0.00094656
15 *691:10 0.000559593
16 *691:8 0.000842057
17 *691:6 0.000731664
18 *5040:B *5196:D 7.51285e-05
19 *5040:B *705:113 0
20 *5040:B *1088:42 1.54556e-05
21 *5040:B *1088:50 0
22 *5040:B *1090:85 1.54556e-05
23 *5040:B *1090:89 8.02434e-05
24 *5111:A *999:10 0
25 *5111:A *1090:48 7.49652e-05
26 *5192:A1 *5625:RESET_B 0
27 *5197:B *5197:A 3.46518e-06
28 *5197:B *1090:67 3.58069e-05
29 *691:8 *705:33 0
30 *691:8 *705:113 0
31 *691:10 *705:33 0
32 *691:14 *705:33 0
33 *691:14 *1090:12 0
34 *691:16 *1090:20 4.76034e-05
35 *691:16 *1090:30 4.77425e-05
36 *691:22 *1090:30 0.000342629
37 *691:47 *1004:82 0
38 *691:47 *1090:48 0.000263469
39 *5193:B1 *5192:A1 0
40 *5193:B1 *5193:A1 0
41 *5198:B *691:36 0
42 *5199:A1 *691:36 0
43 *5200:D *691:22 0.000343546
44 *348:32 *691:8 0
45 *374:10 *5040:B 0
46 *374:10 *691:8 0
47 *374:16 *5193:A1 1.54556e-05
48 *374:16 *691:8 0
49 *374:16 *691:10 0
50 *374:20 *5193:A1 8.02434e-05
51 *374:54 *691:16 0
52 *374:54 *691:36 0.00066339
53 *374:54 *691:47 1.54556e-05
54 *374:69 *5197:B 3.58069e-05
55 *374:69 *691:47 0.000372347
56 *658:22 *5111:A 0
*RES
1 *5972:X *691:6 40 
2 *691:6 *691:8 6.319 
3 *691:8 *691:10 1.339 
4 *691:10 *691:14 24.0582 
5 *691:14 *691:16 1.4008 
6 *691:16 *691:22 41.8334 
7 *691:22 *5200:C 20 
8 *691:16 *5195:B 20 
9 *691:14 *691:36 4.7792 
10 *691:36 *5194:A1 20 
11 *691:36 *691:47 22.1527 
12 *691:47 *5111:A 46.6023 
13 *691:47 *5197:B 40.2395 
14 *691:10 *5193:A1 40.5356 
15 *691:8 *5192:A1 41.4008 
16 *691:6 *5040:B 41.8746 
*END

*D_NET *692 0.00877297
*CONN
*I *5158:A2 I *D sg13g2_a21oi_1
*I *5155:A2 I *D sg13g2_o21ai_1
*I *5159:A2 I *D sg13g2_a21o_1
*I *5160:B I *D sg13g2_nand3_1
*I *5054:D I *D sg13g2_and4_1
*I *5051:D I *D sg13g2_nand4_1
*I *5055:D I *D sg13g2_nand4_1
*I *5163:B I *D sg13g2_and4_1
*I *5973:X O *D sg13g2_buf_1
*CAP
1 *5158:A2 0.000234769
2 *5155:A2 5.97316e-05
3 *5159:A2 0.000120646
4 *5160:B 5.02162e-05
5 *5054:D 0
6 *5051:D 0.000244682
7 *5055:D 5.64571e-05
8 *5163:B 0.00021862
9 *5973:X 0
10 *692:35 0.000496445
11 *692:29 0.000764592
12 *692:14 0.000899851
13 *692:12 0.000602299
14 *692:10 0.000979249
15 *692:8 0.000547827
16 *692:6 0.0003044
17 *5051:D *5051:A 0.00018128
18 *5155:A2 *708:14 0.000112057
19 *5158:A2 *5158:A1 0.000241088
20 *5158:A2 *5601:RESET_B 8.00842e-05
21 *5159:A2 *1013:31 8.14577e-05
22 *5160:B *5160:C 4.77425e-05
23 *5160:B *1097:14 6.46834e-05
24 *5163:B *5163:C 4.77425e-05
25 *5163:B *1108:23 0
26 *692:10 *5161:B 0
27 *692:12 *5161:B 0
28 *692:12 *1013:35 0
29 *692:12 *1097:14 0
30 *692:14 *1097:25 0
31 *692:29 *5055:A 0.000112289
32 *692:29 *1097:40 0.000871677
33 *692:29 *1111:25 0
34 *692:35 *5055:C 0.000242088
35 *692:35 *5055:A 0.000306903
36 *692:35 *1097:40 1.54008e-05
37 *692:35 *1097:42 8.0216e-05
38 *5155:A1 *5155:A2 0.000112057
39 *5155:A1 *5158:A2 7.52149e-05
40 *5155:A1 *692:8 0.000234195
41 *5155:A1 *692:10 7.48842e-05
42 *5613:CLK *5158:A2 0
43 *5944:A *5158:A2 0.000212127
44 *282:8 *5051:D 0
45 *284:8 *5051:D 0
46 *662:38 *5158:A2 0
47 *662:38 *692:8 0
48 *662:38 *692:10 0
*RES
1 *5973:X *692:6 40 
2 *692:6 *692:8 1.0918 
3 *692:8 *692:10 4.5526 
4 *692:10 *692:12 4.0582 
5 *692:12 *692:14 1.0918 
6 *692:14 *5163:B 42.0909 
7 *692:14 *692:29 26.3757 
8 *692:29 *692:35 22.369 
9 *692:35 *5055:D 40.5974 
10 *692:35 *5051:D 43.0694 
11 *692:29 *5054:D 20 
12 *692:12 *5160:B 40.7519 
13 *692:10 *5159:A2 41.1948 
14 *692:8 *5155:A2 40.7519 
15 *692:6 *5158:A2 42.9561 
*END

*D_NET *693 0.020305
*CONN
*I *5470:A I *D sg13g2_nor4_1
*I *5461:A I *D sg13g2_nor2_1
*I *5505:A I *D sg13g2_nor4_1
*I *5496:A I *D sg13g2_nor4_1
*I *5499:A I *D sg13g2_nor4_1
*I *5502:A I *D sg13g2_nor4_1
*I *5508:A I *D sg13g2_nor4_1
*I *5477:A I *D sg13g2_nor2_1
*I *5974:X O *D sg13g2_buf_1
*CAP
1 *5470:A 0.000175002
2 *5461:A 0
3 *5505:A 0
4 *5496:A 0
5 *5499:A 0
6 *5502:A 3.22094e-05
7 *5508:A 0.000130734
8 *5477:A 0
9 *5974:X 0
10 *693:88 0.000619861
11 *693:73 0.00104023
12 *693:58 0.000552526
13 *693:45 0.000230682
14 *693:43 0.000824794
15 *693:35 0.00255179
16 *693:20 0.000911962
17 *693:16 0.00305745
18 *693:14 0.000461324
19 *693:10 0.00129365
20 *693:4 0.00142583
21 *5470:A *1006:28 0
22 *5502:A *5502:B 1.54556e-05
23 *5508:A *699:30 0
24 *5508:A *1006:77 1.54008e-05
25 *693:10 *5974:A 0
26 *693:10 *698:24 0
27 *693:10 *1006:28 0
28 *693:16 *5475:B 0
29 *693:35 *5460:A 0
30 *693:35 *5503:A 0
31 *693:35 *5505:B 1.54008e-05
32 *693:35 *714:26 0
33 *693:35 *1001:101 0
34 *693:35 *1001:111 0
35 *693:35 *1008:10 0
36 *693:35 *1118:16 4.20439e-05
37 *693:35 *1118:25 0.000588956
38 *693:35 *1118:31 0
39 *693:43 *5502:B 0
40 *693:43 *5505:B 0
41 *693:43 *5507:A 0
42 *693:43 *5507:B 0
43 *693:43 *5507:D 0
44 *693:43 *1001:101 0
45 *693:43 *1001:111 0
46 *693:43 *1006:62 0
47 *693:58 *1006:77 0
48 *693:73 *5499:B 1.54008e-05
49 *693:73 *1001:28 0
50 *693:73 *1001:42 0
51 *693:73 *1006:60 0
52 *693:73 *1006:77 0
53 *693:73 *1131:18 0.000342449
54 *693:88 *5496:B 0.000304511
55 *693:88 *5499:B 0.000144672
56 *693:88 *5501:A 0
57 *693:88 *1001:61 0.000176263
58 *693:88 *1006:52 0.000981652
59 *693:88 *1006:60 7.51285e-05
60 *693:88 *1008:48 0
61 *693:88 *1008:63 0
62 *5458:B *5470:A 0
63 *5458:B *693:10 0
64 *5470:B *5470:A 6.3368e-05
65 *5470:D *5470:A 0
66 *5476:A1 *693:20 0.000399574
67 *5502:D *5502:A 0
68 *5505:C *693:35 0
69 *5505:D *693:43 0
70 *5536:B1 *693:14 0
71 *5831:CLK *693:73 0
72 *5837:CLK *5508:A 0.000288174
73 *5925:A *693:43 0
74 *69:22 *693:73 0
75 *219:10 *693:10 0.000341621
76 *219:10 *693:14 1.54556e-05
77 *232:10 *693:73 0
78 *233:8 *5508:A 0.000555737
79 *233:8 *693:58 0.000319939
80 *233:8 *693:73 5.34469e-05
81 *234:8 *693:43 0
82 *550:10 *693:10 0
83 *551:18 *693:35 0.000793248
84 *551:22 *693:20 0.000453057
85 *554:6 *693:16 0
86 *556:10 *693:14 0
87 *556:10 *693:16 0
88 *556:10 *693:35 0
89 *565:8 *693:20 0
90 *580:8 *693:73 0
91 *581:8 *693:73 0.000606364
92 *605:66 *693:88 0
93 *648:17 *5508:A 0.000266733
94 *648:17 *693:43 4.77425e-05
95 *648:17 *693:58 7.51285e-05
96 *648:32 *693:43 0
97 *649:34 *693:20 0
*RES
1 *5974:X *693:4 20 
2 *693:4 *693:10 33.7711 
3 *693:10 *693:14 20.254 
4 *693:14 *693:16 3.9964 
5 *693:16 *693:20 30.7326 
6 *693:20 *5477:A 40 
7 *693:16 *693:35 17.9632 
8 *693:35 *693:43 48.2715 
9 *693:43 *693:45 20 
10 *693:45 *5508:A 42.8943 
11 *693:45 *693:58 1.5862 
12 *693:58 *5502:A 40.3193 
13 *693:58 *693:73 25.3663 
14 *693:73 *5499:A 20 
15 *693:73 *693:88 47.6632 
16 *693:88 *5496:A 20 
17 *693:35 *5505:A 20 
18 *693:14 *5461:A 20 
19 *693:4 *5470:A 21.6171 
*END

*D_NET *694 0.0151919
*CONN
*I *5527:A I *D sg13g2_nor3_1
*I *5530:A I *D sg13g2_nor3_1
*I *5533:A I *D sg13g2_nor3_1
*I *5306:B I *D sg13g2_nor3_1
*I *5378:B I *D sg13g2_nor3_1
*I *5330:B I *D sg13g2_nor3_1
*I *5354:B I *D sg13g2_nor3_1
*I *5493:A I *D sg13g2_nor4_1
*I *5975:X O *D sg13g2_buf_1
*CAP
1 *5527:A 0.000168594
2 *5530:A 4.72978e-05
3 *5533:A 0.000463808
4 *5306:B 0
5 *5378:B 0
6 *5330:B 0
7 *5354:B 3.84491e-05
8 *5493:A 0.000893217
9 *5975:X 0.000260693
10 *694:87 0.00033624
11 *694:72 0.000680471
12 *694:57 0.000926977
13 *694:55 0.0011153
14 *694:49 0.000694148
15 *694:45 0.00130751
16 *694:41 0.00115459
17 *694:20 0.00165439
18 *694:18 0.000663925
19 *694:12 0.000381582
20 *5493:A *5495:B 0
21 *5493:A *950:8 0.000822314
22 *5493:A *1001:67 7.52158e-05
23 *5493:A *1129:10 0
24 *5527:A *5528:B 7.48842e-05
25 *5527:A *1038:17 0.000371406
26 *5533:A *5304:B 0
27 *5533:A *1017:6 0
28 *5533:A *1017:47 0
29 *694:20 *5528:B 0.000127744
30 *694:20 *1009:42 0
31 *694:20 *1129:10 0
32 *694:45 *5304:A 0
33 *694:45 *5304:B 0.000242121
34 *694:45 *5851:RESET_B 0
35 *694:49 *1082:36 0
36 *694:55 *5681:RESET_B 0
37 *694:57 *5352:B 0
38 *694:87 *5729:D 2.19969e-05
39 *5305:A1 *694:55 0
40 *5305:A1 *694:57 0
41 *5306:A *694:45 0
42 *5306:A *694:55 1.54556e-05
43 *5306:C *694:55 1.54008e-05
44 *5354:C *5354:B 1.54008e-05
45 *5378:C *694:87 1.54008e-05
46 *5493:D *5493:A 0
47 *5527:B *694:18 0
48 *5530:B *694:41 0
49 *5530:B *694:45 0
50 *5530:C *694:45 0
51 *5534:B1 *5493:A 0.000242017
52 *5681:D *694:55 0.000274611
53 *5697:CLK *694:72 0.000292789
54 *5729:CLK *5533:A 0.000208132
55 *5851:D *694:45 0
56 *5851:CLK *694:45 0
57 *6020:A *5493:A 0
58 *459:8 *5533:A 0.00012816
59 *459:8 *694:49 0.00034112
60 *586:14 *694:18 0
61 *613:8 *5533:A 1.54008e-05
62 *613:8 *694:87 0
63 *644:41 *694:72 0.000670648
64 *650:59 *5493:A 0
65 *671:22 *694:87 0.000235791
66 *678:10 *694:12 2.21058e-05
67 *678:22 *694:20 0
68 *679:33 *694:18 0.000176631
69 *681:10 *694:41 0
70 *685:42 *694:57 0
*RES
1 *5975:X *694:12 42.7192 
2 *694:12 *694:18 41.1845 
3 *694:18 *694:20 4.0582 
4 *694:20 *5493:A 49.5275 
5 *694:20 *694:41 24.1303 
6 *694:41 *694:45 27.8898 
7 *694:45 *694:49 21.8334 
8 *694:49 *694:55 6.18 
9 *694:55 *694:57 2.0497 
10 *694:57 *5354:B 20.3193 
11 *694:57 *694:72 48.5799 
12 *694:72 *5330:B 20 
13 *694:55 *694:87 43.9552 
14 *694:87 *5378:B 20 
15 *694:49 *5306:B 20 
16 *694:45 *5533:A 45.3972 
17 *694:41 *5530:A 20.5974 
18 *694:18 *5527:A 42.3999 
*END

*D_NET *695 0.0162199
*CONN
*I *5303:B I *D sg13g2_nor3_1
*I *5327:B I *D sg13g2_nor3_1
*I *5333:B I *D sg13g2_nor3_1
*I *5381:B I *D sg13g2_nor3_1
*I *5375:B I *D sg13g2_nor3_1
*I *5351:B I *D sg13g2_nor3_1
*I *5357:B I *D sg13g2_nor3_1
*I *5309:B I *D sg13g2_nor3_1
*I *5976:X O *D sg13g2_buf_1
*CAP
1 *5303:B 7.34829e-05
2 *5327:B 0.000233024
3 *5333:B 0
4 *5381:B 0.000258296
5 *5375:B 0
6 *5351:B 0
7 *5357:B 9.66988e-05
8 *5309:B 0.000148449
9 *5976:X 0.000422933
10 *695:95 0.000386835
11 *695:71 0.000545523
12 *695:56 0.00118443
13 *695:52 0.00128413
14 *695:41 0.00108459
15 *695:33 0.00142907
16 *695:31 0.00126067
17 *695:18 0.00138931
18 *695:10 0.0011509
19 *5303:B *5301:B 0.000129558
20 *5309:B *1017:62 0
21 *5309:B *1017:75 0
22 *5327:B *711:20 0
23 *5327:B *1027:18 0
24 *5357:B *5355:B 0
25 *5381:B *5379:B 0.000324375
26 *695:10 *5679:RESET_B 0
27 *695:18 *5301:B 0.000571128
28 *695:18 *5679:RESET_B 0
29 *695:18 *5683:RESET_B 1.54008e-05
30 *695:18 *1017:75 0.00024211
31 *695:31 *5308:B1 0
32 *695:33 *711:20 0
33 *695:41 *711:20 0
34 *695:52 *5355:B 0.00110106
35 *695:52 *5379:B 0.000238641
36 *695:56 *5711:D 0
37 *695:56 *1018:26 0
38 *695:71 *1027:78 0
39 *695:71 *1058:12 0
40 *695:71 *1058:34 0
41 *695:95 *1083:19 0
42 *5303:C *5303:B 1.54556e-05
43 *5303:C *695:10 0
44 *5308:A1 *695:31 0
45 *5309:C *695:18 0
46 *5327:A *5327:B 0
47 *5327:C *5327:B 1.54008e-05
48 *5332:A1 *695:33 0.000615955
49 *5332:A1 *695:41 0.000371849
50 *5351:A *695:56 0
51 *5351:C *695:56 8.02431e-05
52 *5357:C *5357:B 1.54556e-05
53 *5374:A1 *695:71 0
54 *5374:A2 *695:71 0
55 *5375:A *695:71 0
56 *5381:A *5381:B 0
57 *5381:C *5381:B 1.54556e-05
58 *5679:D *5303:B 0
59 *5679:D *695:10 0
60 *5715:D *5357:B 4.76327e-05
61 *5727:D *695:71 0
62 *6040:A *5381:B 0
63 *6052:A *695:71 0
64 *462:12 *5309:B 0.000501633
65 *462:12 *695:31 0.000159839
66 *474:8 *695:31 0
67 *623:31 *5381:B 0
68 *647:42 *5357:B 0
69 *647:44 *5357:B 0
70 *669:6 *5327:B 0
71 *669:14 *695:95 0
72 *669:71 *695:71 0.00023464
73 *683:25 *695:31 0.00050063
74 *683:36 *695:31 7.51285e-05
75 *683:81 *695:71 0
76 *685:22 *695:10 0
77 *685:22 *695:95 0
*RES
1 *5976:X *695:10 24.2024 
2 *695:10 *695:18 27.4778 
3 *695:18 *5309:B 42.3278 
4 *695:18 *695:31 26.7774 
5 *695:31 *695:33 4.429 
6 *695:33 *695:41 25.871 
7 *695:41 *5357:B 40.9682 
8 *695:41 *695:52 6.0358 
9 *695:52 *695:56 27.0246 
10 *695:56 *5351:B 20 
11 *695:56 *695:71 45.9328 
12 *695:71 *5375:B 20 
13 *695:52 *5381:B 43.296 
14 *695:33 *695:95 44.3466 
15 *695:95 *5333:B 20 
16 *695:31 *5327:B 22.2866 
17 *695:10 *5303:B 20.9682 
*END

*D_NET *696 0.0179515
*CONN
*I *5345:B I *D sg13g2_nor3_1
*I *5321:B I *D sg13g2_nor3_1
*I *5518:A I *D sg13g2_nor3_1
*I *5297:B I *D sg13g2_nor3_1
*I *5300:B I *D sg13g2_nor3_1
*I *5524:A I *D sg13g2_nor3_1
*I *5324:B I *D sg13g2_nor3_1
*I *5521:A I *D sg13g2_nor3_1
*I *5977:X O *D sg13g2_buf_1
*CAP
1 *5345:B 0
2 *5321:B 0.000101779
3 *5518:A 6.20796e-05
4 *5297:B 0
5 *5300:B 0
6 *5524:A 0.000525557
7 *5324:B 0
8 *5521:A 9.4304e-05
9 *5977:X 0
10 *696:105 0.00120014
11 *696:90 0.00236604
12 *696:56 0.000756016
13 *696:43 0.000921424
14 *696:33 0.00191319
15 *696:31 0.00111553
16 *696:27 0.00112454
17 *696:14 0.00141133
18 *696:8 0.000756851
19 *696:6 0.00121219
20 *5321:B *5967:A 0
21 *5524:A *5298:A 0.000266733
22 *5524:A *1019:12 0
23 *5524:A *1037:14 0.000714891
24 *696:8 *1049:20 0
25 *696:14 *5964:A 0
26 *696:14 *698:18 0
27 *696:14 *1049:20 0
28 *696:27 *1035:28 0
29 *696:31 *1019:87 0
30 *696:33 *5677:RESET_B 0
31 *696:33 *1019:8 0.000890346
32 *696:33 *1019:87 0
33 *696:43 *713:20 0
34 *696:43 *934:25 0
35 *696:43 *1019:8 0.000111787
36 *696:43 *1019:12 0
37 *696:43 *1019:38 0
38 *696:56 *1019:12 0
39 *696:90 *1032:35 0
40 *696:90 *1035:16 0
41 *696:90 *1049:20 0
42 *696:105 *5320:B1 0
43 *696:105 *5343:B 0
44 *696:105 *1056:8 0
45 *696:105 *1056:23 0
46 *5297:A *696:31 4.77866e-05
47 *5297:C *696:31 0
48 *5300:A *696:33 0
49 *5321:C *5321:B 0
50 *5324:A *696:43 0
51 *5324:C *696:43 0.00024205
52 *5344:A2 *696:105 0
53 *5345:A *696:105 0
54 *5513:A *696:14 0
55 *5519:A *696:27 0
56 *5675:D *696:31 0.000274611
57 *5677:CLK *5524:A 0
58 *5677:CLK *696:56 0
59 *5707:D *696:105 0
60 *6016:A *696:31 0
61 *6016:A *696:33 0
62 *162:8 *696:90 0
63 *162:8 *696:105 0
64 *238:8 *696:8 0.000338264
65 *238:8 *696:90 0
66 *456:8 *696:56 0
67 *470:10 *696:105 0
68 *596:8 *5524:A 0.000284678
69 *633:19 *5524:A 0
70 *633:64 *5524:A 0
71 *670:6 *696:31 0
72 *670:10 *696:33 0
73 *670:23 *696:43 0
74 *671:12 *696:43 0
75 *678:91 *5521:A 0.000175882
76 *678:91 *696:14 0.000289715
77 *679:57 *5521:A 0.000176057
78 *679:57 *696:14 0.00011226
79 *682:10 *696:14 0.00017593
80 *682:73 *696:14 6.43908e-05
81 *682:86 *696:14 0.000225192
*RES
1 *5977:X *696:6 40 
2 *696:6 *696:8 1.8334 
3 *696:8 *696:14 25.7989 
4 *696:14 *5521:A 21.1845 
5 *696:14 *696:27 48.5078 
6 *696:27 *696:31 3.6977 
7 *696:31 *696:33 8.3224 
8 *696:33 *696:43 48.7138 
9 *696:43 *5324:B 20 
10 *696:33 *696:56 22.7192 
11 *696:56 *5524:A 47.2718 
12 *696:56 *5300:B 40 
13 *696:31 *5297:B 20 
14 *696:8 *5518:A 40.5356 
15 *696:6 *696:90 10.0322 
16 *696:90 *5321:B 40.9682 
17 *696:90 *696:105 32.1334 
18 *696:105 *5345:B 20 
*END

*D_NET *697 0.0121964
*CONN
*I *5977:A I *D sg13g2_buf_1
*I *5372:B I *D sg13g2_nor3_1
*I *5348:B I *D sg13g2_nor3_1
*I *5976:A I *D sg13g2_buf_1
*I *5975:A I *D sg13g2_buf_1
*I *5978:X O *D sg13g2_buf_1
*CAP
1 *5977:A 0
2 *5372:B 0.000918762
3 *5348:B 0
4 *5976:A 0.000360306
5 *5975:A 3.22269e-05
6 *5978:X 0.000183717
7 *697:48 0.00263328
8 *697:29 0.00270007
9 *697:18 0.00231705
10 *697:14 0.00171559
11 *697:8 0.000239729
12 *5372:B *5709:RESET_B 0
13 *5372:B *989:8 0
14 *5976:A *5301:A 0
15 *5976:A *1038:17 0
16 *697:8 *698:18 0
17 *697:8 *1035:16 4.76243e-05
18 *697:14 *1032:35 0
19 *697:29 *1019:12 0
20 *697:29 *1019:38 0
21 *697:29 *1038:17 0
22 *697:48 *5323:B1 0
23 *697:48 *5370:B 0
24 *697:48 *934:12 0
25 *697:48 *964:12 0
26 *697:48 *1019:38 0
27 *697:48 *1019:47 0
28 *697:48 *1057:23 0.00024211
29 *697:48 *1057:36 4.77425e-05
30 *5347:A2 *5372:B 0
31 *5348:A *5372:B 0
32 *5348:A *697:48 0
33 *5348:C *697:48 0.00014512
34 *5372:A *5372:B 0.000338509
35 *5372:C *5372:B 0
36 *5512:B *697:8 0
37 *5709:D *5372:B 0.000274545
38 *238:8 *697:14 0
39 *472:8 *697:48 0
40 *586:111 *697:8 0
41 *633:64 *697:29 0
42 *685:10 *5976:A 0
43 *685:22 *5976:A 0
*RES
1 *5978:X *697:8 21.751 
2 *697:8 *697:14 40.3502 
3 *697:14 *697:18 39.57 
4 *697:18 *5975:A 40.3502 
5 *697:18 *697:29 7.519 
6 *697:29 *5976:A 43.9964 
7 *697:29 *697:48 37.4747 
8 *697:48 *5348:B 20 
9 *697:48 *5372:B 29.9292 
10 *697:8 *5977:A 20 
*END

*D_NET *698 0.0134711
*CONN
*I *5978:A I *D sg13g2_buf_1
*I *5974:A I *D sg13g2_buf_1
*I *5488:B I *D sg13g2_nor3_1
*I *5537:A I *D sg13g2_nor2_1
*I *5979:X O *D sg13g2_buf_1
*CAP
1 *5978:A 0
2 *5974:A 3.33415e-05
3 *5488:B 0
4 *5537:A 0
5 *5979:X 0.000235477
6 *698:39 0.000235475
7 *698:33 0.00175513
8 *698:24 0.00131251
9 *698:20 0.00304708
10 *698:18 0.00141223
11 *698:8 0.00139945
12 *5974:A *1006:28 2.4669e-05
13 *698:18 *1032:35 0.00306408
14 *698:18 *1049:20 0
15 *698:24 *1007:24 0
16 *698:24 *1032:20 0
17 *698:24 *1032:35 0
18 *698:24 *1041:33 0.000288087
19 *698:33 *1007:32 0
20 *698:33 *1119:10 0
21 *698:39 *1009:14 0
22 *5489:B1 *698:33 0
23 *5489:B2 *698:33 0
24 *5512:B *698:18 0
25 *5518:C *698:8 0
26 *5825:CLK *698:39 0
27 *219:10 *698:24 0
28 *550:10 *698:18 0
29 *550:10 *698:20 0
30 *550:10 *698:24 0
31 *550:10 *698:33 0
32 *552:10 *698:33 0
33 *572:8 *698:39 0
34 *573:10 *698:33 0.000663527
35 *604:10 *698:24 0
36 *693:10 *5974:A 0
37 *693:10 *698:24 0
38 *696:14 *698:18 0
39 *697:8 *698:18 0
*RES
1 *5979:X *698:8 22.4617 
2 *698:8 *698:18 36.9435 
3 *698:18 *698:20 2.0806 
4 *698:20 *698:24 34.4406 
5 *698:24 *5537:A 20 
6 *698:20 *698:33 35.6766 
7 *698:33 *698:39 42.3278 
8 *698:39 *5488:B 20 
9 *698:18 *5974:A 40.3193 
10 *698:8 *5978:A 20 
*END

*D_NET *699 0.0134674
*CONN
*I *5129:A2 I *D sg13g2_o21ai_1
*I *6084:A I *D sg13g2_buf_1
*I *5579:Q O *D sg13g2_dfrbpq_1
*CAP
1 *5129:A2 0
2 *6084:A 0.00201506
3 *5579:Q 0.000140701
4 *699:43 0.000192644
5 *699:30 0.00338485
6 *699:20 0.00348128
7 *699:6 0.00244484
8 *6084:A *5833:RESET_B 0
9 *6084:A *5837:RESET_B 0
10 *699:6 *1041:12 0
11 *699:20 *5473:A 0
12 *699:20 *5473:C 0
13 *699:20 *5476:C1 0.000711046
14 *699:20 *5857:RESET_B 0
15 *699:20 *704:68 0
16 *699:20 *1025:14 0
17 *699:20 *1120:8 0
18 *699:30 *5835:RESET_B 0
19 *699:43 *1041:12 0.000182109
20 *5476:B1 *699:20 0
21 *5484:A1 *699:20 0
22 *5508:A *699:30 0
23 *5508:D *699:30 0
24 *5537:B *699:20 8.02379e-05
25 *5833:D *6084:A 0
26 *5835:D *699:30 0
27 *5837:D *699:30 8.01447e-05
28 *5857:D *699:20 0
29 *227:8 *699:20 0
30 *584:10 *6084:A 0
31 *584:10 *699:30 0.000112618
32 *649:8 *699:30 0.000350166
33 *649:21 *699:20 0
34 *649:21 *699:30 0.000291661
35 *649:30 *699:20 0
*RES
1 *5579:Q *699:6 21.4008 
2 *699:6 *699:20 42.2789 
3 *699:20 *699:30 35.4603 
4 *699:30 *6084:A 42.8145 
5 *699:6 *699:43 42.575 
6 *699:43 *5129:A2 20 
*END

*D_NET *700 0.0254383
*CONN
*I *5062:B1 I *D sg13g2_a21oi_1
*I *5066:B1 I *D sg13g2_a21oi_1
*I *5034:B I *D sg13g2_nor2_1
*I *5072:B I *D sg13g2_nor2_1
*I *5383:B1 I *D sg13g2_a21oi_1
*I *5238:B1 I *D sg13g2_a21oi_1
*I *5466:A I *D sg13g2_nor4_1
*I *5468:B I *D sg13g2_nor4_1
*I *5980:X O *D sg13g2_buf_1
*CAP
1 *5062:B1 5.16367e-05
2 *5066:B1 0
3 *5034:B 0
4 *5072:B 0.000685922
5 *5383:B1 2.77263e-05
6 *5238:B1 0
7 *5466:A 0.000340931
8 *5468:B 0.000246222
9 *5980:X 5.40811e-05
10 *700:86 0.00181632
11 *700:82 0.00253685
12 *700:54 0.000587153
13 *700:52 0.00074488
14 *700:44 0.00165399
15 *700:42 0.000482995
16 *700:38 0.00134622
17 *700:34 0.00117065
18 *700:24 0.00172563
19 *700:20 0.00103201
20 *700:12 0.00146929
21 *700:6 0.00149159
22 *5062:B1 *718:20 0
23 *5072:B *5071:B 0
24 *5072:B *5074:B 0
25 *5072:B *1047:10 0
26 *5072:B *1049:16 0
27 *5466:A *940:8 0.000605458
28 *5466:A *1124:54 0
29 *5468:B *940:8 2.16263e-05
30 *5468:B *1007:16 1.54008e-05
31 *5468:B *1007:18 4.78521e-05
32 *5468:B *1122:27 0.000287758
33 *700:6 *718:20 0
34 *700:12 *5448:A_N 0
35 *700:12 *5449:B 0
36 *700:12 *5450:C 0
37 *700:12 *5801:RESET_B 0
38 *700:12 *718:20 0
39 *700:12 *718:22 0.000792692
40 *700:20 *718:92 0.000237976
41 *700:24 *5067:A2 0
42 *700:24 *5994:A 0
43 *700:34 *1032:26 0
44 *700:34 *1048:6 0
45 *700:34 *1048:23 0.000728265
46 *700:38 *5071:B 0
47 *700:38 *1052:19 0
48 *700:42 *1032:20 0
49 *700:42 *1047:34 0.000112558
50 *700:42 *1047:44 4.77425e-05
51 *700:42 *1051:29 4.78356e-05
52 *700:44 *1032:20 0
53 *700:52 *1032:20 4.78711e-05
54 *700:82 *735:10 0.000769196
55 *700:86 *5022:A 0
56 *700:86 *1002:69 0
57 *5033:B *700:38 0
58 *5034:A *700:24 1.54008e-05
59 *5034:A *700:34 0
60 *5035:A2 *700:34 0
61 *5449:A *700:12 0
62 *5468:C *5468:B 4.77425e-05
63 *5867:D *700:12 0.000177268
64 *5871:D *700:6 0
65 *5873:D *700:24 0.000663823
66 *5881:A *700:52 0
67 *69:34 *700:52 0
68 *137:10 *700:86 0
69 *183:10 *700:44 0.000209681
70 *183:10 *700:52 4.77425e-05
71 *183:10 *700:82 0.000979995
72 *266:10 *700:24 8.02272e-05
73 *266:27 *700:34 0.000288087
74 *292:12 *700:12 0
75 *298:10 *5072:B 0.000144833
76 *403:10 *700:86 0
77 *406:18 *700:86 0
78 *548:8 *5468:B 0
79 *555:10 *700:82 0
80 *559:8 *5466:A 0.000478948
81 *559:8 *5468:B 0.000553334
82 *605:214 *700:44 0
83 *605:227 *700:34 0
84 *605:227 *700:42 0
85 *605:227 *700:44 0
86 *605:292 *700:12 0
87 *605:292 *700:24 0
88 *631:79 *700:86 0
89 *639:10 *700:20 0.000237686
90 *651:31 *5466:A 0
91 *672:47 *5072:B 0
92 *676:68 *5466:A 0.000287256
93 *686:10 *700:38 0
*RES
1 *5980:X *700:6 20.5974 
2 *700:6 *700:12 14.0286 
3 *700:12 *700:20 41.4111 
4 *700:20 *700:24 10.1867 
5 *700:24 *700:34 48.6829 
6 *700:34 *700:38 23.5638 
7 *700:38 *700:42 22.4823 
8 *700:42 *700:44 2.0497 
9 *700:44 *700:52 46.2624 
10 *700:52 *700:54 20 
11 *700:54 *5468:B 43.3887 
12 *700:54 *5466:A 45.6135 
13 *700:44 *700:82 31.2991 
14 *700:82 *700:86 40.1262 
15 *700:86 *5238:B1 20 
16 *700:42 *5383:B1 20.3502 
17 *700:38 *5072:B 45.7471 
18 *700:24 *5034:B 20 
19 *700:12 *5066:B1 20 
20 *700:6 *5062:B1 20.5356 
*END

*D_NET *701 0.0214126
*CONN
*I *5291:B I *D sg13g2_nor3_1
*I *5342:B I *D sg13g2_nor3_1
*I *5318:B I *D sg13g2_nor3_1
*I *5294:B I *D sg13g2_nor3_1
*I *5288:B I *D sg13g2_nor3_1
*I *5512:A I *D sg13g2_nor3_1
*I *5515:A I *D sg13g2_nor3_1
*I *5312:B I *D sg13g2_nor3_1
*I *5981:X O *D sg13g2_buf_1
*CAP
1 *5291:B 0
2 *5342:B 0
3 *5318:B 3.0634e-05
4 *5294:B 0
5 *5288:B 0.000827684
6 *5512:A 9.30312e-05
7 *5515:A 0.000374848
8 *5312:B 0.00012189
9 *5981:X 0.000172822
10 *701:124 0.000949878
11 *701:109 0.00149316
12 *701:100 0.000118495
13 *701:65 0.000619927
14 *701:63 0.00151182
15 *701:57 0.0017063
16 *701:43 0.00156837
17 *701:41 0.00110844
18 *701:14 0.00215878
19 *701:10 0.00110127
20 *5288:B *5286:A 0.000546197
21 *5288:B *5839:RESET_B 0.000336663
22 *5288:B *1023:26 0
23 *5288:B *1033:16 0.000529484
24 *5312:B *1023:114 0.000129077
25 *701:10 *1020:25 0
26 *701:14 *1023:114 0
27 *701:41 *5737:RESET_B 0
28 *701:57 *1023:34 0
29 *701:57 *1023:49 0
30 *701:109 *920:10 0
31 *701:109 *1023:49 0
32 *701:109 *1023:60 0
33 *701:124 *6057:A 0.000209796
34 *701:124 *941:8 0.000502462
35 *701:124 *1023:60 0
36 *701:124 *1055:19 3.24568e-05
37 *5288:C *5288:B 0.000304613
38 *5293:A2 *701:41 0.000112558
39 *5311:A1 *701:41 0.000371386
40 *5312:C *5312:B 1.38607e-05
41 *5318:C *5318:B 4.79124e-05
42 *5342:A *701:124 0
43 *5342:C *701:124 0
44 *5385:A *701:41 0
45 *5514:B *5515:A 0.000501207
46 *5514:B *701:65 0.000317852
47 *5669:CLK *701:57 0
48 *5685:CLK *701:41 0
49 *5705:D *701:124 0
50 *5839:D *5288:B 0
51 *5843:CLK *701:57 5.00476e-05
52 *5843:CLK *701:63 0
53 *5902:A *701:124 0
54 *6016:A *701:57 0.00093687
55 *6016:A *701:63 0.00024211
56 *79:12 *5515:A 0
57 *79:12 *701:10 7.97992e-05
58 *159:8 *701:41 0.000553334
59 *237:10 *5515:A 0
60 *464:12 *5312:B 7.57164e-05
61 *464:12 *701:41 0.000129077
62 *468:8 *701:124 0
63 *586:111 *701:63 0.000158578
64 *586:111 *701:65 0.000182216
65 *590:12 *5515:A 0
66 *625:25 *701:57 0
67 *626:14 *701:124 0
68 *663:51 *701:41 0.000447183
69 *673:26 *701:41 0.00056469
70 *687:73 *701:41 8.00842e-05
71 *687:73 *701:57 0
72 *687:104 *5312:B 0
73 *690:31 *701:14 0
74 *690:31 *701:41 0
*RES
1 *5981:X *701:10 41.8746 
2 *701:10 *701:14 8.0855 
3 *701:14 *5312:B 41.7922 
4 *701:14 *701:41 32.6896 
5 *701:41 *701:43 20 
6 *701:43 *701:57 31.16 
7 *701:57 *701:63 26.4169 
8 *701:63 *701:65 2.3278 
9 *701:65 *5515:A 44.3157 
10 *701:65 *5512:A 40.7519 
11 *701:63 *5288:B 49.4039 
12 *701:57 *701:100 41.339 
13 *701:100 *5294:B 20 
14 *701:43 *701:109 6.077 
15 *701:109 *5318:B 40.3193 
16 *701:109 *701:124 30.7429 
17 *701:124 *5342:B 20 
18 *701:10 *5291:B 40 
*END

*D_NET *702 0.0213005
*CONN
*I *5363:B I *D sg13g2_nor3_1
*I *5366:B I *D sg13g2_nor3_1
*I *5369:B I *D sg13g2_nor3_1
*I *5360:B I *D sg13g2_nor3_1
*I *5336:B I *D sg13g2_nor3_1
*I *5315:B I *D sg13g2_nor3_1
*I *5981:A I *D sg13g2_buf_1
*I *5339:B I *D sg13g2_nor3_1
*I *5982:X O *D sg13g2_buf_1
*CAP
1 *5363:B 0
2 *5366:B 0
3 *5369:B 0.0017992
4 *5360:B 0.000702599
5 *5336:B 5.42988e-05
6 *5315:B 3.35951e-05
7 *5981:A 7.74078e-05
8 *5339:B 0.000299704
9 *5982:X 0.000375473
10 *702:107 0.00261049
11 *702:84 0.00201066
12 *702:73 0.00140629
13 *702:67 0.00116085
14 *702:47 0.00117115
15 *702:41 0.00112733
16 *702:39 0.000918149
17 *702:12 0.00134036
18 *702:10 0.000803613
19 *5336:B *5701:RESET_B 0
20 *5339:B *5951:A 0.000130055
21 *5360:B *5364:B 0
22 *5360:B *5717:RESET_B 0
23 *5369:B *5340:A 0
24 *5369:B *5340:B 0
25 *5369:B *5341:B1 0.000533634
26 *5369:B *5364:B 0
27 *5369:B *5705:RESET_B 0
28 *5369:B *5723:RESET_B 0
29 *5369:B *5723:D 0
30 *5369:B *1023:64 0
31 *702:12 *5951:A 0.000431921
32 *702:39 *5337:A 0
33 *702:39 *5337:B 8.00842e-05
34 *702:39 *718:34 0
35 *702:39 *928:8 0
36 *702:47 *1023:22 0.000345068
37 *702:47 *1065:14 0
38 *702:47 *1065:25 0
39 *702:67 *5951:A 0.000215371
40 *702:67 *1022:34 0.000508868
41 *702:73 *5755:RESET_B 0
42 *702:73 *718:51 0
43 *702:84 *994:21 0
44 *702:107 *5364:B 0
45 *702:107 *5721:RESET_B 0
46 *702:107 *994:21 0
47 *5315:C *5315:B 1.53311e-05
48 *5336:A *5336:B 0
49 *5338:A1 *702:10 8.0216e-05
50 *5338:A2 *702:10 0
51 *5339:A *5339:B 0
52 *5339:C *5339:B 0.0001434
53 *5339:C *702:10 0
54 *5360:C *5360:B 0.000225164
55 *5363:C *702:73 1.54008e-05
56 *5366:A *5369:B 0
57 *5366:A *702:107 0
58 *5366:C *5369:B 0.000145035
59 *5369:C *5369:B 1.54008e-05
60 *5671:D *5981:A 0.000144325
61 *5687:CLK *5339:B 0
62 *5687:CLK *702:39 0
63 *5701:D *5336:B 1.54008e-05
64 *5701:CLK *5360:B 0
65 *5721:D *702:107 0.000274507
66 *5956:A *702:10 0
67 *5957:A *702:10 0
68 *5970:A *5369:B 0
69 *6043:A *5369:B 0.000339398
70 *79:12 *5981:A 0.000144181
71 *466:8 *702:39 0
72 *480:8 *702:84 0.000554492
73 *618:10 *5369:B 0
74 *626:48 *702:73 0
75 *640:12 *702:10 0
76 *663:16 *702:39 0
77 *663:71 *5360:B 0
78 *664:61 *702:73 0
79 *664:61 *702:84 0
80 *664:61 *702:107 0
81 *668:25 *5336:B 0
82 *668:25 *702:73 0
83 *674:41 *702:107 0
84 *674:49 *5369:B 0.00105204
85 *687:104 *702:47 0
*RES
1 *5982:X *702:10 43.6977 
2 *702:10 *702:12 2.0806 
3 *702:12 *5339:B 43.3269 
4 *702:12 *702:39 49.5069 
5 *702:39 *702:41 20 
6 *702:41 *702:47 29.2716 
7 *702:47 *5981:A 40.9682 
8 *702:41 *5315:B 20.3193 
9 *702:10 *702:67 24.3054 
10 *702:67 *702:73 27.3492 
11 *702:73 *5336:B 40.5356 
12 *702:73 *702:84 5.5414 
13 *702:84 *5360:B 46.8598 
14 *702:84 *702:107 28.3842 
15 *702:107 *5369:B 39.5494 
16 *702:107 *5366:B 20 
17 *702:67 *5363:B 20 
*END

*D_NET *703 0.01133
*CONN
*I *5982:A I *D sg13g2_buf_1
*I *5452:B1 I *D sg13g2_a21oi_1
*I *5859:D I *D sg13g2_dfrbpq_1
*I *5980:A I *D sg13g2_buf_1
*I *5983:X O *D sg13g2_buf_1
*CAP
1 *5982:A 0
2 *5452:B1 2.60565e-05
3 *5859:D 0.000552793
4 *5980:A 0.000213078
5 *5983:X 0.000351132
6 *703:47 0.00235803
7 *703:12 0.00099198
8 *703:10 0.000388395
9 *703:8 0.00284539
10 *5859:D *5859:RESET_B 0
11 *5859:D *997:28 0.000469027
12 *5980:A *718:20 4.77863e-05
13 *703:8 *5803:RESET_B 0
14 *703:47 *5703:RESET_B 0
15 *703:47 *5703:D 0
16 *703:47 *996:12 0.000823144
17 *5062:A1 *5980:A 0.000554491
18 *5062:A1 *703:12 0.000660971
19 *5452:A1 *703:10 0.000128248
20 *5452:A1 *703:12 0.000106064
21 *5703:CLK *703:47 0.000291525
22 *5803:D *5452:B1 4.77425e-05
23 *5803:CLK *703:8 0
24 *5871:CLK *5859:D 0
25 *5921:A *5980:A 0
26 *5950:A *703:47 0
27 *6059:A *703:47 0
28 *546:10 *703:8 4.77425e-05
29 *546:10 *703:10 0.000288173
30 *546:10 *703:47 7.51285e-05
31 *605:296 *5859:D 0
32 *640:12 *703:47 1.54008e-05
33 *642:57 *5452:B1 4.77425e-05
34 *645:31 *5859:D 0
35 *665:22 *703:8 0
36 *667:10 *703:47 0
37 *667:34 *703:47 0
*RES
1 *5983:X *703:8 43.7801 
2 *703:8 *703:10 2.0806 
3 *703:10 *703:12 3.5638 
4 *703:12 *5980:A 43.1106 
5 *703:12 *5859:D 45.2942 
6 *703:10 *5452:B1 40.3193 
7 *703:8 *703:47 49.4992 
8 *703:47 *5982:A 20 
*END

*D_NET *704 0.0247441
*CONN
*I *5245:B I *D sg13g2_nand3_1
*I *5141:B1 I *D sg13g2_o21ai_1
*I *5140:B I *D sg13g2_and2_1
*I *5129:B1 I *D sg13g2_o21ai_1
*I *5133:B1 I *D sg13g2_o21ai_1
*I *5131:B1 I *D sg13g2_o21ai_1
*I *5137:B1 I *D sg13g2_o21ai_1
*I *5143:B1 I *D sg13g2_o21ai_1
*I *5984:X O *D sg13g2_buf_1
*CAP
1 *5245:B 2.77263e-05
2 *5141:B1 0.000184648
3 *5140:B 0
4 *5129:B1 0
5 *5133:B1 3.63385e-05
6 *5131:B1 0.000104027
7 *5137:B1 0.00017352
8 *5143:B1 0.000168943
9 *5984:X 0
10 *704:85 0.000849277
11 *704:79 0.00181873
12 *704:68 0.000982621
13 *704:53 0.00143936
14 *704:40 0.00165876
15 *704:29 0.00135992
16 *704:27 0.00178813
17 *704:23 0.00241967
18 *704:6 0.00160963
19 *5131:B1 *5131:A2 1.54008e-05
20 *5137:B1 *742:29 1.54008e-05
21 *5137:B1 *1025:89 0
22 *5141:B1 *5141:A2 0.000112519
23 *5141:B1 *5142:A1 0
24 *5141:B1 *765:16 0.000194258
25 *5143:B1 *5143:A2 1.53666e-05
26 *5143:B1 *709:51 0.000235075
27 *5143:B1 *709:62 0.000128439
28 *5143:B1 *1025:60 0
29 *704:23 *709:62 0.00396804
30 *704:23 *1015:88 0
31 *704:23 *1102:21 0
32 *704:23 *1102:27 0
33 *704:27 *5243:A 0
34 *704:27 *5649:RESET_B 0.000339552
35 *704:27 *1015:88 0
36 *704:27 *1025:89 0
37 *704:27 *1102:21 0
38 *704:27 *1103:10 4.79124e-05
39 *704:29 *1025:89 0
40 *704:40 *1025:16 0
41 *704:53 *1025:16 0
42 *704:53 *1026:24 0.00136433
43 *704:68 *720:8 0
44 *704:68 *720:12 0
45 *704:68 *720:27 0.000609155
46 *704:68 *1025:14 0
47 *704:68 *1025:16 0
48 *704:68 *1026:24 0.000106333
49 *704:79 *765:8 0
50 *704:79 *1025:18 0
51 *704:85 *5139:S 0
52 *704:85 *753:18 0.000454344
53 *704:85 *765:16 0.000598822
54 *5132:A2 *5131:B1 0
55 *5138:B1 *5137:B1 1.54008e-05
56 *5246:B *704:27 0
57 *5581:CLK *5131:B1 0
58 *5593:CLK *704:23 0
59 *5649:D *704:27 0
60 *5857:D *704:68 0
61 *337:18 *5133:B1 1.54008e-05
62 *415:6 *704:23 0.000323773
63 *415:6 *704:27 1.54008e-05
64 *418:10 *704:23 0.00154788
65 *629:10 *704:23 0
66 *699:20 *704:68 0
*RES
1 *5984:X *704:6 40 
2 *704:6 *5143:B1 42.1218 
3 *704:6 *704:23 40.6618 
4 *704:23 *704:27 10.1867 
5 *704:27 *704:29 0.5356 
6 *704:29 *5137:B1 21.6171 
7 *704:29 *704:40 33.9462 
8 *704:40 *5131:B1 41.2875 
9 *704:40 *704:53 6.7774 
10 *704:53 *5133:B1 40.3193 
11 *704:53 *704:68 31.4227 
12 *704:68 *5129:B1 20 
13 *704:27 *704:79 49.991 
14 *704:79 *704:85 30.4957 
15 *704:85 *5140:B 40 
16 *704:79 *5141:B1 22.0497 
17 *704:23 *5245:B 20.3502 
*END

*D_NET *705 0.02761
*CONN
*I *5100:B1 I *D sg13g2_o21ai_1
*I *5274:B I *D sg13g2_nand2_1
*I *5150:B1 I *D sg13g2_o21ai_1
*I *5120:B1 I *D sg13g2_o21ai_1
*I *5127:B1 I *D sg13g2_o21ai_1
*I *5149:B I *D sg13g2_and2_1
*I *5145:B1 I *D sg13g2_o21ai_1
*I *5118:B1 I *D sg13g2_o21ai_1
*I *5985:X O *D sg13g2_buf_1
*CAP
1 *5100:B1 0.00198449
2 *5274:B 0.000878965
3 *5150:B1 4.29679e-05
4 *5120:B1 0.000477496
5 *5127:B1 0
6 *5149:B 0
7 *5145:B1 0.000497463
8 *5118:B1 0.000482645
9 *5985:X 3.18253e-05
10 *705:113 0.00237499
11 *705:71 0.000704715
12 *705:49 0.00139641
13 *705:41 0.00186895
14 *705:39 0.00185579
15 *705:37 0.0034826
16 *705:33 0.00373439
17 *705:8 0.00232476
18 *5100:B1 *5100:A2 1.54556e-05
19 *5100:B1 *5183:B1 0
20 *5100:B1 *5185:B 0
21 *5100:B1 *5189:B 0
22 *5100:B1 *1088:36 0
23 *5100:B1 *1090:104 0.000144768
24 *5100:B1 *1116:18 0
25 *5100:B1 *1116:27 0
26 *5118:B1 *5118:A2 4.77425e-05
27 *5118:B1 *5569:RESET_B 0
28 *5118:B1 *709:30 0
29 *5118:B1 *1021:12 0.000161856
30 *5120:B1 *820:14 0
31 *5145:B1 *5145:A1 0
32 *5145:B1 *5145:A2 1.54556e-05
33 *5145:B1 *5146:A1 0
34 *5145:B1 *1106:14 0
35 *5150:B1 *5150:A2 7.99179e-05
36 *5274:B *5271:A 0
37 *705:33 *5985:A 0
38 *705:33 *709:43 0
39 *705:33 *1090:30 0.000396405
40 *705:39 *743:10 0
41 *705:41 *820:14 0
42 *705:49 *5597:RESET_B 0
43 *705:49 *820:14 0
44 *705:113 *1088:50 0.000234398
45 *705:113 *1092:30 0
46 boot_addr[30] *5145:B1 0
47 *5040:B *705:113 0
48 *5101:B *5100:B1 0
49 *5119:B *5118:B1 0
50 *5120:A1 *5120:B1 0
51 *5120:A2 *5120:B1 1.54556e-05
52 *5121:B1 *5120:B1 1.54556e-05
53 *5127:A2 *5120:B1 1.54556e-05
54 *5127:A2 *705:71 0
55 *5128:A1 *705:71 0.000112689
56 *5128:B1 *705:71 0.000274677
57 *5146:B1 *5145:B1 1.54556e-05
58 *5149:A *5145:B1 0.000530593
59 *5149:A *705:49 8.02379e-05
60 *5151:B1 *5150:B1 7.99179e-05
61 *5185:A *5100:B1 4.77425e-05
62 *5185:C *5100:B1 0
63 *5192:A2 *705:33 0
64 *5200:D *705:33 0
65 *5274:A *5274:B 0
66 *5569:D *5118:B1 0
67 *5577:D *5120:B1 0
68 *5577:D *705:49 0
69 *5577:D *705:71 0
70 *5621:CLK *5100:B1 0
71 *5913:A *5100:B1 0
72 *6083:A *705:49 0
73 *260:8 *705:39 0
74 *270:18 *705:113 0
75 *287:24 *5100:B1 0
76 *287:28 *5100:B1 0
77 *316:10 *5100:B1 0
78 *329:10 *5118:B1 4.77425e-05
79 *348:32 *705:33 0.00130085
80 *348:32 *705:113 0
81 *374:22 *705:33 0
82 *374:26 *705:33 0
83 *378:8 *705:113 0
84 *385:26 *5274:B 0
85 *410:12 *5274:B 0
86 *410:20 *5274:B 0
87 *410:20 *705:39 0
88 *412:70 *5274:B 0.000346904
89 *421:41 *5274:B 0
90 *427:10 *705:39 0
91 *605:233 *5274:B 0
92 *605:249 *705:37 0
93 *605:265 *705:113 0
94 *608:6 *5100:B1 0
95 *656:22 *705:39 0
96 *656:22 *705:41 0
97 *656:31 *5120:B1 0
98 *656:31 *705:71 0.000226776
99 *657:41 *5274:B 0.000550952
100 *657:41 *705:39 0.000714685
101 *658:77 *5100:B1 0
102 *691:8 *705:33 0
103 *691:8 *705:113 0
104 *691:10 *705:33 0
105 *691:14 *705:33 0
*RES
1 *5985:X *705:8 40.3193 
2 *705:8 *5118:B1 45.5105 
3 *705:8 *705:33 41.0532 
4 *705:33 *705:37 35.8929 
5 *705:37 *705:39 11.9686 
6 *705:39 *705:41 7.7662 
7 *705:41 *705:49 29.6408 
8 *705:49 *5145:B1 25.6856 
9 *705:49 *5149:B 20 
10 *705:41 *705:71 22.8634 
11 *705:71 *5127:B1 20 
12 *705:71 *5120:B1 25.4384 
13 *705:39 *5150:B1 40.5356 
14 *705:37 *5274:B 49.785 
15 *705:33 *705:113 44.3054 
16 *705:113 *5100:B1 39.1351 
*END

*D_NET *706 0.0151827
*CONN
*I *5154:B I *D sg13g2_nand2_1
*I *5103:B1 I *D sg13g2_o21ai_1
*I *5106:B1 I *D sg13g2_o21ai_1
*I *5109:B1 I *D sg13g2_o21ai_1
*I *5115:B1 I *D sg13g2_o21ai_1
*I *5112:B1 I *D sg13g2_o21ai_1
*I *5986:X O *D sg13g2_buf_1
*CAP
1 *5154:B 0
2 *5103:B1 0.000586365
3 *5106:B1 0
4 *5109:B1 6.09305e-05
5 *5115:B1 0
6 *5112:B1 0.000731767
7 *5986:X 0.000587913
8 *706:98 0.000959272
9 *706:75 0.00204539
10 *706:64 0.00144773
11 *706:45 0.00223498
12 *706:43 0.00135017
13 *706:14 0.000769233
14 *706:10 0.000501287
15 *5103:B1 *5103:A2 1.54556e-05
16 *5103:B1 *5557:RESET_B 0.000209763
17 *5103:B1 *6100:A 0.000274583
18 *5112:B1 *5115:A2 1.54556e-05
19 *5112:B1 *6144:A 0
20 *5112:B1 *709:30 0
21 *706:10 *709:30 0
22 *706:14 *5115:A2 6.49135e-05
23 *706:43 *5989:A 0
24 *706:43 *719:8 4.73096e-05
25 *706:45 *719:25 0
26 *706:45 *988:10 0
27 *706:64 *5106:A2 1.54556e-05
28 *706:64 *5563:RESET_B 0
29 *706:64 *719:25 0
30 *706:64 *988:10 0
31 *706:75 *5106:A2 8.0276e-05
32 *706:98 *875:8 0
33 *706:98 *1015:131 0
34 *706:98 *1117:78 0
35 *5106:A1 *706:64 0
36 *5107:B *706:64 0
37 *5113:A *5112:B1 0
38 *5113:B *5112:B1 0.00053399
39 *5116:A *5112:B1 1.54556e-05
40 *5116:A *706:14 8.03089e-05
41 *5557:CLK *706:98 0
42 *5559:CLK *5103:B1 0
43 *5561:CLK *706:75 0
44 *5561:CLK *706:98 0
45 *5563:D *706:64 0.000307096
46 *5565:D *5112:B1 0
47 *5567:CLK *706:10 0.000273622
48 *5943:A *706:64 0
49 *98:8 *706:64 0.000662216
50 *318:10 *5103:B1 8.01938e-05
51 *320:8 *706:75 0
52 *326:8 *706:10 0.00023464
53 *349:10 *706:98 5.47442e-05
54 *637:32 *706:98 0
55 *637:34 *706:98 0
56 *658:16 *706:10 0
57 *658:16 *706:43 0
58 *658:16 *706:45 0
59 *658:16 *706:64 0
60 *658:39 *5112:B1 0
61 *658:92 *5103:B1 0.000112335
62 *658:107 *5103:B1 0.000274414
63 *659:23 *706:64 0.000555408
64 *659:37 *706:64 0
65 *659:41 *706:64 0
*RES
1 *5986:X *706:10 44.7174 
2 *706:10 *706:14 20.5356 
3 *706:14 *5112:B1 28.303 
4 *706:14 *5115:B1 20 
5 *5986:X *706:43 41.1845 
6 *706:43 *706:45 11.227 
7 *706:45 *5109:B1 40.5356 
8 *706:45 *706:64 31.1652 
9 *706:64 *5106:B1 20 
10 *706:64 *706:75 26.3242 
11 *706:75 *5103:B1 46.18 
12 *706:75 *706:98 30.1197 
13 *706:98 *5154:B 20 
*END

*D_NET *707 0.0208191
*CONN
*I *5079:B1 I *D sg13g2_o21ai_1
*I *5125:B1 I *D sg13g2_o21ai_1
*I *5097:B1 I *D sg13g2_o21ai_1
*I *5085:B1 I *D sg13g2_o21ai_1
*I *5123:B1 I *D sg13g2_o21ai_1
*I *5153:B I *D sg13g2_and2_1
*I *5161:B I *D sg13g2_and4_1
*I *5082:B1 I *D sg13g2_o21ai_1
*I *5987:X O *D sg13g2_buf_1
*CAP
1 *5079:B1 3.10479e-05
2 *5125:B1 2.95145e-05
3 *5097:B1 0.000784915
4 *5085:B1 0
5 *5123:B1 0
6 *5153:B 0.000130148
7 *5161:B 0.00035536
8 *5082:B1 0.000148385
9 *5987:X 0
10 *707:93 0.00131806
11 *707:87 0.00142673
12 *707:72 0.000942894
13 *707:65 0.000995466
14 *707:46 0.00112561
15 *707:44 0.0015084
16 *707:29 0.00264036
17 *707:21 0.00227208
18 *707:6 0.00159303
19 *5079:B1 *5079:A2 1.54556e-05
20 *5082:B1 *5082:A2 1.54556e-05
21 *5082:B1 *842:8 0
22 *5097:B1 *5097:A2 0.000372009
23 *5097:B1 *6047:A 0.000242203
24 *5161:B *5084:A 0
25 *5161:B *5161:C 1.54008e-05
26 *5161:B *1013:35 0.000448399
27 *707:21 *5081:A 0
28 *707:21 *1108:8 0
29 *707:29 *5159:B1 0
30 *707:65 *1014:40 0
31 *707:65 *1045:20 0
32 *707:65 *1045:39 0.00183646
33 *707:65 *1045:45 0.000342014
34 *707:72 *5085:A2 1.54008e-05
35 *707:87 *5085:A2 8.00842e-05
36 *707:87 *708:10 0.000877645
37 *5079:A1 *5079:B1 0
38 *5079:A1 *707:87 0
39 *5082:A1 *5082:B1 0
40 *5082:A1 *707:21 0
41 *5083:A *5082:B1 1.54556e-05
42 *5123:A1 *707:65 0
43 *5125:A1 *5097:B1 0
44 *5125:A1 *5125:B1 0
45 *5125:A2 *5125:B1 1.54556e-05
46 *5161:A *5161:B 4.77425e-05
47 *5545:CLK *5082:B1 0
48 *261:39 *707:93 0
49 *303:8 *707:87 0
50 *307:10 *707:72 1.54008e-05
51 *307:10 *707:87 6.46834e-05
52 *332:8 *707:65 0
53 *333:8 *707:93 0.000554994
54 *347:27 *5153:B 0.000180236
55 *347:27 *707:65 7.34424e-05
56 *643:27 *707:29 0
57 *643:27 *707:72 0
58 *646:6 *5097:B1 0
59 *646:12 *707:93 0
60 *646:20 *5079:B1 0
61 *646:20 *707:87 0
62 *660:35 *707:93 0
63 *660:41 *707:87 0
64 *660:41 *707:93 0
65 *660:45 *707:21 0
66 *660:47 *707:21 0
67 *661:45 *707:65 0.000289155
68 *662:23 *707:65 0
69 *662:38 *5161:B 0
70 *692:10 *5161:B 0
71 *692:12 *5161:B 0
*RES
1 *5987:X *707:6 40 
2 *707:6 *5082:B1 41.6274 
3 *707:6 *707:21 33.4518 
4 *707:21 *707:29 27.6941 
5 *707:29 *5161:B 43.6359 
6 *707:29 *707:44 37.8396 
7 *707:44 *707:46 20 
8 *707:46 *5153:B 41.4703 
9 *707:46 *707:65 34.0183 
10 *707:65 *5123:B1 20 
11 *707:21 *707:72 0.5356 
12 *707:72 *5085:B1 20 
13 *707:72 *707:87 49.9189 
14 *707:87 *707:93 46.7774 
15 *707:93 *5097:B1 27.6735 
16 *707:93 *5125:B1 20.3193 
17 *707:87 *5079:B1 20.3193 
*END

*D_NET *708 0.0251395
*CONN
*I *5987:A I *D sg13g2_buf_1
*I *5155:B1 I *D sg13g2_o21ai_1
*I *5214:B I *D sg13g2_and4_1
*I *5226:B I *D sg13g2_nand3_1
*I *5032:B I *D sg13g2_and2_1
*I *5031:A I *D sg13g2_and2_1
*I *5988:X O *D sg13g2_buf_1
*CAP
1 *5987:A 0
2 *5155:B1 0
3 *5214:B 0
4 *5226:B 0
5 *5032:B 0
6 *5031:A 0.000429124
7 *5988:X 0.000296726
8 *708:68 0.00242419
9 *708:58 0.00285087
10 *708:34 0.00108653
11 *708:20 0.00312254
12 *708:18 0.00203846
13 *708:14 0.000762261
14 *708:10 0.00180436
15 *708:6 0.00133883
16 *5031:A *5861:RESET_B 0
17 *5031:A *1045:28 0.000307166
18 *708:6 *5988:A 0.000500991
19 *708:14 *5078:A 0
20 *708:14 *5601:RESET_B 0
21 *708:34 *1093:10 0.000993868
22 *708:58 *1015:10 0
23 *708:68 *5223:D 0
24 *708:68 *5224:C1 0
25 *708:68 *5225:A 0
26 *708:68 *1003:25 0
27 *708:68 *1012:44 0
28 *708:68 *1015:10 0
29 *708:68 *1094:44 0
30 *5082:A1 *708:10 0.000342035
31 *5083:B *708:6 0
32 *5122:B_N *5031:A 0
33 *5122:B_N *708:34 0
34 *5134:A2 *708:68 0
35 *5155:A2 *708:14 0.000112057
36 *5158:B1 *708:14 0.000337046
37 *5214:A *708:58 6.45171e-05
38 *5214:A *708:68 1.54008e-05
39 *5214:C *708:58 0.00011226
40 *5214:C *708:68 1.54008e-05
41 *5214:D *708:68 0
42 *5217:B1 *708:68 0
43 *5217:A2 *708:68 0
44 *5218:C *708:68 0
45 *5225:D *708:68 0
46 *5229:B1 *708:68 0.000208411
47 *5545:CLK *708:6 0.000306903
48 *5637:D *708:68 0
49 *5637:CLK *708:68 0
50 *5869:D *5031:A 0
51 *5946:A *5031:A 0
52 *89:10 *708:10 0
53 *261:31 *5031:A 0
54 *284:33 *708:68 0
55 *286:41 *708:68 0
56 *291:12 *708:34 0
57 *291:12 *708:58 0
58 *292:12 *708:34 0
59 *304:10 *708:10 0
60 *307:10 *708:10 0
61 *387:25 *708:58 0.000450182
62 *390:28 *708:68 0.000786118
63 *400:10 *708:68 0
64 *639:16 *5031:A 0
65 *639:18 *5031:A 0
66 *657:8 *5031:A 0
67 *657:14 *5031:A 0
68 *660:43 *708:10 0.000771926
69 *660:45 *708:10 0.00114344
70 *660:47 *708:10 0.00146451
71 *662:10 *5031:A 0.000144138
72 *662:10 *708:34 3.15908e-05
73 *707:87 *708:10 0.000877645
*RES
1 *5988:X *708:6 23.3475 
2 *708:6 *708:10 36.9126 
3 *708:10 *708:14 28.1061 
4 *708:14 *708:18 40 
5 *708:18 *708:20 22.8145 
6 *708:20 *708:34 48.4408 
7 *708:34 *5031:A 24.5893 
8 *708:34 *5032:B 20 
9 *708:20 *708:58 45.0573 
10 *708:58 *708:68 44.1526 
11 *708:68 *5226:B 40 
12 *708:58 *5214:B 20 
13 *708:14 *5155:B1 20 
14 *708:6 *5987:A 20 
*END

*D_NET *709 0.0340166
*CONN
*I *5988:A I *D sg13g2_buf_1
*I *5986:A I *D sg13g2_buf_1
*I *5234:B I *D sg13g2_nand3_1
*I *5135:B1 I *D sg13g2_o21ai_1
*I *5984:A I *D sg13g2_buf_1
*I *5985:A I *D sg13g2_buf_1
*I *5989:X O *D sg13g2_buf_1
*CAP
1 *5988:A 0.0014792
2 *5986:A 0
3 *5234:B 0
4 *5135:B1 0.000722594
5 *5984:A 0
6 *5985:A 0.000139723
7 *5989:X 0.000259003
8 *709:103 0.0040113
9 *709:78 0.000923452
10 *709:70 0.000782368
11 *709:62 0.00253529
12 *709:51 0.00208392
13 *709:47 0.00284103
14 *709:43 0.0031259
15 *709:30 0.00203487
16 *709:18 0.0015081
17 *709:14 0.00281907
18 *5135:B1 *5135:A2 1.54008e-05
19 *5985:A *1021:8 0
20 *5988:A *5081:A 0
21 *5988:A *5545:RESET_B 0
22 *5988:A *5607:RESET_B 0
23 *5988:A *6002:A 0
24 *5988:A *1004:6 8.0057e-05
25 *5988:A *1004:36 0
26 *709:14 *5567:RESET_B 0
27 *709:14 *5989:A 0
28 *709:18 *5989:A 0
29 *709:30 *5567:RESET_B 0
30 *709:43 *1021:8 0
31 *709:47 *5150:A1 0
32 *709:47 *5150:A2 0
33 *709:47 *5200:A 0
34 *709:47 *5655:RESET_B 0
35 *709:47 *743:10 0.00033683
36 *709:47 *1031:72 0
37 *709:51 *776:32 0
38 *709:62 *1005:59 0
39 *709:62 *1015:88 0
40 *709:62 *1102:27 0
41 *709:62 *1102:40 0
42 *709:70 *5234:C 8.00842e-05
43 *709:70 *1100:23 0
44 *709:78 *5234:C 1.54008e-05
45 *709:78 *1101:10 0
46 *709:103 *5989:A 0
47 *709:103 *719:25 0
48 *709:103 *1010:8 0
49 *5083:B *5988:A 0
50 *5112:B1 *709:30 0
51 *5116:A *709:30 0
52 *5116:B *709:30 0
53 *5118:B1 *709:30 0
54 *5136:A2 *5135:B1 0
55 *5136:B1 *5135:B1 0
56 *5143:B1 *709:51 0.000235075
57 *5143:B1 *709:62 0.000128439
58 *5151:A2 *709:47 0
59 *5151:B1 *709:47 0
60 *5167:C *5988:A 0.000176559
61 *5234:A *709:70 2.21754e-05
62 *5235:A1 *5135:B1 0
63 *5235:A2 *5135:B1 0.00056637
64 *5248:C *709:62 0
65 *5251:A1 *709:62 0
66 *5545:CLK *5988:A 0
67 *5565:CLK *709:30 0
68 *5567:CLK *709:30 0
69 *5585:CLK *5135:B1 0.000589472
70 *5605:D *5988:A 0
71 *5607:D *5988:A 8.02105e-05
72 *5621:CLK *709:103 0
73 *5629:D *709:47 0.000658008
74 *100:10 *709:14 0
75 *253:14 *709:62 0
76 *255:14 *5135:B1 0
77 *255:36 *709:62 0.00023547
78 *406:18 *709:62 0.000234224
79 *406:22 *709:70 0
80 *407:8 *709:78 0.000289003
81 *412:8 *709:62 0
82 *412:14 *709:62 0
83 *629:80 *709:78 0.000395482
84 *630:16 *709:47 0.000143444
85 *637:21 *709:103 0
86 *658:16 *709:18 0
87 *658:16 *709:30 0
88 *658:22 *709:30 0
89 *704:23 *709:62 0.00396804
90 *705:33 *5985:A 0
91 *705:33 *709:43 0
92 *706:10 *709:30 0
93 *708:6 *5988:A 0.000500991
*RES
1 *5989:X *709:14 42.8222 
2 *709:14 *709:18 20.3193 
3 *709:18 *709:30 34.8526 
4 *709:30 *5985:A 41.339 
5 *709:30 *709:43 24.5526 
6 *709:43 *709:47 49.0872 
7 *709:47 *709:51 21.5862 
8 *709:51 *5984:A 20 
9 *709:51 *709:62 47.8306 
10 *709:62 *709:70 25.3457 
11 *709:70 *709:78 42.8943 
12 *709:78 *5135:B1 28.1267 
13 *709:70 *5234:B 20 
14 *709:18 *5986:A 20 
15 *709:14 *709:103 49.2726 
16 *709:103 *5988:A 35.8105 
*END

*D_NET *710 0.0100443
*CONN
*I *6085:A I *D sg13g2_buf_1
*I *5131:A2 I *D sg13g2_o21ai_1
*I *5581:Q O *D sg13g2_dfrbpq_1
*CAP
1 *6085:A 0
2 *5131:A2 0.000326474
3 *5581:Q 0.000224851
4 *710:27 0.00427727
5 *710:21 0.00427727
6 *710:8 0.000551325
7 *5131:A2 *5131:A1 6.46834e-05
8 *5131:A2 *1026:30 0.000307057
9 *710:8 *1026:24 0
10 *710:27 *1026:30 0
11 *5131:B1 *5131:A2 1.54008e-05
12 *5132:A2 *710:27 0
13 *5132:B1 *5131:A2 0
14 *107:10 *5131:A2 0
15 *649:34 *710:8 0
*RES
1 *5581:Q *710:8 42.8222 
2 *710:8 *5131:A2 43.5741 
3 *710:8 *710:21 20 
4 *710:21 *710:27 48.5748 
5 *710:27 *6085:A 20 
*END

*D_NET *711 0.0194762
*CONN
*I *5443:B I *D sg13g2_and2_1
*I *5427:B I *D sg13g2_and2_1
*I *5411:B I *D sg13g2_and2_1
*I *5395:B I *D sg13g2_and2_1
*I *5415:B I *D sg13g2_and2_1
*I *5431:B I *D sg13g2_and2_1
*I *5399:B I *D sg13g2_and2_1
*I *5445:B I *D sg13g2_and2_1
*I *5990:X O *D sg13g2_buf_1
*CAP
1 *5443:B 0
2 *5427:B 0.000896295
3 *5411:B 5.08741e-05
4 *5395:B 0
5 *5415:B 0
6 *5431:B 0.000594029
7 *5399:B 3.77166e-05
8 *5445:B 0.000728883
9 *5990:X 0
10 *711:90 0.00209545
11 *711:75 0.00189349
12 *711:30 0.00126291
13 *711:24 0.00113996
14 *711:20 0.00168016
15 *711:18 0.00234112
16 *711:10 0.00124836
17 *711:4 0.00118124
18 *5427:B *5442:A1 0
19 *5427:B *5779:RESET_B 0
20 *5427:B *713:39 0
21 *5427:B *1027:92 0
22 *5427:B *1075:10 0
23 *5431:B *5430:A0 0.000209637
24 *5431:B *5430:S 0.00117118
25 *5431:B *6121:A 0
26 *5431:B *841:10 0.000397963
27 *5431:B *967:10 0
28 *5431:B *1027:26 0.00012816
29 *5431:B *1027:54 0.000480694
30 *5445:B *975:27 0
31 *5445:B *1028:22 0
32 *711:10 *5990:A 0
33 *711:10 *6066:A 0
34 *711:10 *6072:A 0
35 *711:10 *1030:30 0
36 *711:18 *5695:RESET_B 0
37 *711:18 *1027:8 0
38 *711:18 *1027:18 0
39 *711:18 *1027:78 0
40 *711:18 *1027:108 0
41 *711:20 *5414:A1 0
42 *711:20 *985:23 0
43 *711:20 *1027:18 0
44 *711:20 *1028:18 0
45 *711:20 *1060:36 4.7803e-05
46 *711:30 *992:21 0
47 *711:30 *1027:26 0.000821397
48 *711:30 *1028:22 0
49 *711:75 *713:24 0
50 *711:75 *713:39 0
51 *711:75 *964:12 0
52 *711:90 *5795:RESET_B 0
53 *711:90 *713:39 0
54 *711:90 *964:12 0
55 *5326:A2 *711:18 0
56 *5327:B *711:20 0
57 *5332:A1 *711:20 0
58 *5395:A *711:10 0
59 *5395:A *711:18 8.03692e-05
60 *5411:A *5411:B 8.00842e-05
61 *5415:A *711:20 8.03091e-05
62 *5415:A *711:24 9.5485e-05
63 *5431:A *5431:B 0
64 *5445:A *5445:B 8.03692e-05
65 *5695:CLK *711:10 0
66 *5695:CLK *711:18 0
67 *5747:D *711:10 0
68 *5763:CLK *711:90 0.000395396
69 *5779:D *5427:B 0
70 *5781:CLK *5445:B 0
71 *5795:D *711:90 0
72 *5799:CLK *5427:B 0
73 *5899:A *711:90 0
74 *5900:A *711:90 0
75 *214:8 *711:90 0
76 *474:8 *711:18 0
77 *478:10 *711:20 0
78 *519:10 *711:30 0.000128247
79 *623:8 *711:90 0.000128663
80 *624:6 *711:90 0
81 *624:8 *5427:B 0
82 *624:8 *711:90 0
83 *647:50 *5431:B 0
84 *647:50 *711:30 0
85 *669:29 *711:20 0
86 *679:35 *711:90 0
87 *695:33 *711:20 0
88 *695:41 *711:20 0
*RES
1 *5990:X *711:4 20 
2 *711:4 *711:10 5.1294 
3 *711:10 *711:18 46.9422 
4 *711:18 *711:20 14.8114 
5 *711:20 *711:24 20.5356 
6 *711:24 *711:30 6.9525 
7 *711:30 *5445:B 48.2709 
8 *711:30 *5399:B 40.3193 
9 *711:24 *5431:B 49.6614 
10 *711:20 *5415:B 20 
11 *711:10 *5395:B 20 
12 *711:4 *711:75 26.0358 
13 *711:75 *5411:B 40.5356 
14 *711:75 *711:90 33.2458 
15 *711:90 *5427:B 29.0846 
16 *711:90 *5443:B 20 
*END

*D_NET *712 0.0218171
*CONN
*I *5389:B I *D sg13g2_and2_1
*I *5439:B I *D sg13g2_and2_1
*I *5423:B I *D sg13g2_and2_1
*I *5407:B I *D sg13g2_and2_1
*I *5425:B I *D sg13g2_and2_1
*I *5409:B I *D sg13g2_and2_1
*I *5391:B I *D sg13g2_and2_1
*I *5393:B I *D sg13g2_and2_1
*I *5991:X O *D sg13g2_buf_1
*CAP
1 *5389:B 0
2 *5439:B 0.000861371
3 *5423:B 0
4 *5407:B 0
5 *5425:B 0.000165849
6 *5409:B 0.000432938
7 *5391:B 0
8 *5393:B 0.000655511
9 *5991:X 0.00152395
10 *712:96 0.000245903
11 *712:71 0.00140722
12 *712:64 0.000932098
13 *712:42 0.00132842
14 *712:38 0.00111588
15 *712:36 0.000867333
16 *712:18 0.000678219
17 *712:16 0.00216808
18 *5393:B *5745:RESET_B 0
19 *5393:B *713:20 0
20 *5393:B *1030:30 0
21 *5409:B *5408:S 0
22 *5439:B *5405:B 0
23 *5439:B *5438:A1 0.00063066
24 *5439:B *5775:RESET_B 0
25 *5439:B *5791:RESET_B 0
26 *5439:B *6042:A 8.00842e-05
27 *5439:B *1029:57 0
28 *712:16 *713:14 0.000630335
29 *712:16 *1029:21 0
30 *712:16 *1030:30 0
31 *712:36 *5440:A0 0.000181192
32 *712:42 *5408:S 0
33 *712:42 *5424:A0 0
34 *712:42 *5440:A1 4.77425e-05
35 *712:42 *6041:A 0
36 *712:42 *1029:70 0
37 *712:64 *5440:A1 3.23694e-05
38 *712:64 *5793:RESET_B 0
39 *712:64 *713:54 0.000145135
40 *712:64 *1029:66 0
41 *712:64 *1074:8 0
42 *712:71 *5406:A1 0
43 *712:71 *5759:RESET_B 0
44 *712:71 *1029:57 0
45 *712:71 *1029:66 0
46 *712:96 *1029:10 0
47 *712:96 *1030:52 0
48 *712:96 *1030:56 0
49 *5320:A1 *712:16 0
50 *5391:A *5393:B 8.0216e-05
51 *5391:A *712:16 0
52 *5391:A *712:18 3.23417e-05
53 *5393:A *5393:B 0
54 *5407:A *712:64 8.02102e-05
55 *5407:A *712:71 0.000226753
56 *5409:A *5409:B 0.00024205
57 *5423:A *5439:B 0.000274638
58 *5425:A *5425:B 0
59 *5425:A *712:42 0.000145151
60 *5439:A *5439:B 0
61 *5691:CLK *712:16 0.000630252
62 *5741:D *712:96 1.54008e-05
63 *5743:D *712:16 0.000242138
64 *5743:CLK *712:36 0.000595257
65 *5745:D *5393:B 0
66 *5759:D *712:71 0
67 *5761:D *5409:B 0
68 *5775:D *5439:B 0
69 *5777:D *712:42 0
70 *5791:D *5439:B 0
71 *5893:A *712:42 0
72 *5929:A *712:36 0.000608768
73 *539:10 *5439:B 0.000598543
74 *540:10 *712:64 0.000177092
75 *605:186 *712:36 0
76 *605:186 *712:42 0
77 *616:12 *712:36 0.00188735
78 *617:6 *5409:B 0
79 *617:6 *5425:B 0.000218998
80 *617:6 *712:42 0
81 *619:16 *5439:B 0
82 *652:41 *712:36 0.000291502
83 *687:20 *712:16 0.000209763
84 *687:52 *712:16 0.000242089
85 *687:52 *712:96 0.000144849
86 *690:35 *712:16 0.000533821
87 *690:35 *712:96 0.000209664
*RES
1 *5991:X *712:16 34.5848 
2 *712:16 *712:18 0.3193 
3 *712:18 *5393:B 26.8186 
4 *712:18 *5391:B 20 
5 *712:16 *712:36 34.4406 
6 *712:36 *712:38 20 
7 *712:38 *712:42 7.6529 
8 *712:42 *5409:B 24.7998 
9 *712:42 *5425:B 22.3072 
10 *712:38 *712:64 4.2333 
11 *712:64 *5407:B 20 
12 *712:64 *712:71 6.1594 
13 *712:71 *5423:B 20 
14 *712:71 *5439:B 29.9704 
15 *5991:X *712:96 42.4926 
16 *712:96 *5389:B 40 
*END

*D_NET *713 0.0211009
*CONN
*I *5991:A I *D sg13g2_buf_1
*I *5441:B I *D sg13g2_and2_1
*I *5447:B I *D sg13g2_and2_1
*I *5990:A I *D sg13g2_buf_1
*I *5992:X O *D sg13g2_buf_1
*CAP
1 *5991:A 0
2 *5441:B 0
3 *5447:B 0
4 *5990:A 3.41251e-05
5 *5992:X 0.000379148
6 *713:54 0.00139009
7 *713:39 0.0030943
8 *713:24 0.00352509
9 *713:20 0.00244079
10 *713:14 0.00430762
11 *713:10 0.00125255
12 *713:10 *722:10 0
13 *713:10 *1030:18 1.54008e-05
14 *713:10 *1030:30 0
15 *713:14 *1030:30 0
16 *713:20 *5319:B 0
17 *713:20 *5392:A1 0.000112695
18 *713:20 *5693:RESET_B 0.000274507
19 *713:20 *5745:RESET_B 0
20 *713:20 *6050:A 0
21 *713:20 *1029:21 0.000291667
22 *713:20 *1029:31 0.000242138
23 *713:20 *1030:30 0
24 *713:20 *1079:8 0
25 *713:20 *1079:14 0.000400239
26 *713:24 *1028:72 0
27 *713:39 *5442:A1 0
28 *713:39 *5442:S 0
29 *713:39 *5446:A1 0
30 *713:39 *5779:RESET_B 0
31 *713:39 *1027:92 0
32 *713:39 *1028:72 0
33 *713:39 *1067:15 0.000468346
34 *713:39 *1075:10 0
35 *713:54 *1029:66 0
36 *5324:A *713:20 0
37 *5324:C *713:20 0
38 *5391:A *713:20 0
39 *5393:A *713:20 0
40 *5393:B *713:20 0
41 *5407:A *713:54 0.000112552
42 *5427:B *713:39 0
43 *5441:A *713:54 8.0342e-05
44 *5447:A *713:39 0.000242313
45 *5693:D *713:20 0
46 *5745:D *713:20 0
47 *5763:CLK *713:39 0.000395896
48 *5795:D *713:39 0
49 *5899:A *713:39 1.54008e-05
50 *533:10 *713:39 0
51 *623:8 *713:39 0.000106566
52 *623:23 *713:39 0
53 *653:65 *713:54 7.61954e-05
54 *671:12 *713:20 0
55 *673:76 *713:10 0.000112486
56 *690:35 *713:10 0.000356263
57 *690:35 *713:14 0.000598734
58 *696:43 *713:20 0
59 *711:10 *5990:A 0
60 *711:75 *713:24 0
61 *711:75 *713:39 0
62 *711:90 *713:39 0
63 *712:16 *713:14 0.000630335
64 *712:64 *713:54 0.000145135
*RES
1 *5992:X *713:10 24.2642 
2 *713:10 *713:14 29.6202 
3 *713:14 *713:20 42.3613 
4 *713:20 *713:24 23.5638 
5 *713:24 *5990:A 40.3193 
6 *713:24 *713:39 49.1284 
7 *713:39 *5447:B 20 
8 *713:14 *713:54 36.6963 
9 *713:54 *5441:B 20 
10 *713:10 *5991:A 20 
*END

*D_NET *714 0.0247773
*CONN
*I *5486:B I *D sg13g2_nand3_1
*I *5471:D I *D sg13g2_and4_1
*I *5485:B I *D sg13g2_nand3_1
*I *5535:D I *D sg13g2_and4_1
*I *5464:B I *D sg13g2_nand2_1
*I *5413:B I *D sg13g2_and2_1
*I *5429:B I *D sg13g2_and2_1
*I *5397:B I *D sg13g2_and2_1
*I *5993:X O *D sg13g2_buf_1
*CAP
1 *5486:B 0.000302737
2 *5471:D 0.000228751
3 *5485:B 0.000193907
4 *5535:D 3.10612e-05
5 *5464:B 6.28095e-05
6 *5413:B 0
7 *5429:B 4.59677e-05
8 *5397:B 8.82108e-05
9 *5993:X 0
10 *714:99 0.00116271
11 *714:84 0.000771111
12 *714:82 0.00138445
13 *714:69 0.00118532
14 *714:51 0.00129931
15 *714:45 0.00229261
16 *714:28 0.00112748
17 *714:26 0.0033427
18 *714:4 0.00338349
19 *5429:B *975:27 7.99179e-05
20 *5485:B *1007:32 7.61961e-05
21 *5486:B *5855:RESET_B 0
22 *5486:B *1011:33 0
23 *5535:D *6007:A 4.77425e-05
24 *714:26 *5472:A 8.02763e-05
25 *714:26 *5505:B 0
26 *714:26 *5749:RESET_B 0
27 *714:26 *1001:101 0.000209736
28 *714:26 *1006:62 0
29 *714:26 *1024:54 4.77425e-05
30 *714:26 *1024:73 0.000144768
31 *714:26 *1118:8 0.0001448
32 *714:45 *949:8 0.000455234
33 *714:45 *1028:54 0.000996718
34 *714:51 *5412:A0 0
35 *714:51 *1028:37 0
36 *714:51 *1059:16 0
37 *714:82 *1008:10 0
38 *714:82 *1009:14 0
39 *714:99 *6007:A 0.000274266
40 *714:99 *1011:18 0.000361785
41 *5413:A *714:45 6.47768e-05
42 *5413:A *714:51 8.02431e-05
43 *5429:A *5429:B 1.54008e-05
44 *5458:A_N *5471:D 0.00061561
45 *5458:A_N *5485:B 0.000345382
46 *5482:B1 *5464:B 0
47 *5482:B1 *714:82 0.000395482
48 *5487:A1 *714:99 0
49 *5487:A2 *714:99 0.000436823
50 *5502:D *714:26 0.00014496
51 *5535:A *714:99 0
52 *5535:C *5535:D 1.54008e-05
53 *5749:D *714:26 0
54 *5765:CLK *714:51 0
55 *5811:CLK *714:99 0
56 *5924:A *714:26 0.000872701
57 *5926:A *5486:B 0.000266492
58 *5926:A *714:82 0.000393736
59 *5999:A *714:26 0.000242423
60 *69:22 *714:26 0
61 *199:8 *714:51 0
62 *518:10 *5397:B 0.000130859
63 *518:10 *714:45 0.00048593
64 *551:18 *714:26 4.7856e-05
65 *551:18 *714:69 6.48204e-05
66 *552:10 *5485:B 4.77534e-05
67 *556:25 *714:82 0
68 *556:36 *714:82 0
69 *556:53 *5486:B 0
70 *556:72 *5486:B 0
71 *571:8 *5486:B 0
72 *583:10 *714:26 0
73 *605:43 *714:26 0
74 *605:43 *714:69 0
75 *615:10 *714:82 0.000235055
76 *648:6 *714:26 0
77 *648:17 *714:26 0
78 *648:63 *714:26 0
79 *650:10 *5486:B 0
80 *680:42 *714:26 0
81 *682:16 *5471:D 5.38157e-05
82 *693:35 *714:26 0
*RES
1 *5993:X *714:4 20 
2 *714:4 *714:26 34.3511 
3 *714:26 *714:28 20 
4 *714:28 *5397:B 41.1639 
5 *714:28 *714:45 34.7599 
6 *714:45 *714:51 32.1334 
7 *714:51 *5429:B 40.5356 
8 *714:45 *5413:B 20 
9 *714:4 *714:69 20.5356 
10 *714:69 *5464:B 40.5974 
11 *714:69 *714:82 11.5463 
12 *714:82 *714:84 20 
13 *714:84 *5535:D 20.3193 
14 *714:84 *714:99 27.9104 
15 *714:99 *5485:B 42.6471 
16 *714:99 *5471:D 43.3887 
17 *714:82 *5486:B 43.3887 
*END

*D_NET *715 0.0188274
*CONN
*I *5029:C I *D sg13g2_nand3_1
*I *5387:B I *D sg13g2_and2_1
*I *5284:B1 I *D sg13g2_o21ai_1
*I *5280:B1 I *D sg13g2_o21ai_1
*I *5036:A I *D sg13g2_and3_1
*I *5069:A I *D sg13g2_and3_1
*I *5033:A I *D sg13g2_and3_1
*I *5067:A1 I *D sg13g2_a22oi_1
*I *5994:X O *D sg13g2_buf_1
*CAP
1 *5029:C 2.97526e-05
2 *5387:B 0.00117567
3 *5284:B1 3.84491e-05
4 *5280:B1 0.000599486
5 *5036:A 0
6 *5069:A 0
7 *5033:A 0
8 *5067:A1 0.000486419
9 *5994:X 2.60565e-05
10 *715:118 0.00138387
11 *715:112 0.000759589
12 *715:97 0.000691419
13 *715:78 0.00160785
14 *715:49 0.000520261
15 *715:39 0.00108126
16 *715:27 0.000828109
17 *715:21 0.00156796
18 *715:8 0.000936292
19 *5029:C *1043:8 1.54008e-05
20 *5280:B1 *5064:A 0.000339398
21 *5280:B1 *5279:B 0
22 *5280:B1 *5280:A1 0
23 *5280:B1 *1014:16 0.00085661
24 *5284:B1 *5284:A2 1.54008e-05
25 *5387:B *5739:RESET_B 0
26 *5387:B *5877:RESET_B 0
27 *5387:B *1020:34 0
28 *5387:B *1043:8 0
29 *5387:B *1044:56 4.77425e-05
30 *715:8 *5067:A2 4.77425e-05
31 *715:21 *1051:12 0
32 *715:27 *5036:C 0
33 *715:27 *1051:29 0.000371833
34 *715:39 *5036:C 0.000468395
35 *715:39 *5070:A1 0
36 *715:39 *1032:26 0
37 *715:39 *1047:14 0.000145091
38 *715:39 *1051:29 0
39 *715:49 *5069:C 0
40 *715:49 *1047:34 0
41 *715:49 *1048:29 0.000290236
42 *715:49 *1052:19 0
43 *715:78 *5064:A 7.51285e-05
44 *715:78 *1051:12 0
45 *715:78 *1051:29 8.73578e-06
46 *715:97 *5064:A 0.000341206
47 *715:97 *1044:12 0.000265903
48 *715:112 *1044:10 0.00079963
49 *715:112 *1044:12 0.00012816
50 *715:118 *956:8 0.000288589
51 *715:118 *1043:12 7.51285e-05
52 *715:118 *1044:10 0
53 *5037:A2 *715:21 0
54 *5037:A2 *715:78 1.81233e-05
55 *5037:B1 *715:27 0
56 *5065:A1 *715:78 0
57 *5070:A2 *715:39 1.69409e-05
58 *5070:B1 *715:39 0.000144058
59 *5070:B1 *715:49 0
60 *5280:A2 *5280:B1 7.7492e-05
61 *5387:A *5387:B 0.000658084
62 *5667:CLK *715:112 0
63 *5733:CLK *5067:A1 0
64 *5739:D *5387:B 0
65 *5863:D *715:39 0.000242313
66 *5865:CLK *5067:A1 0
67 *5875:CLK *5067:A1 0
68 *5877:D *715:112 0
69 *79:12 *5387:B 0
70 *84:8 *715:21 0.000234726
71 *266:14 *715:27 0
72 *293:10 *5280:B1 0.000241847
73 *295:10 *5067:A1 0.00012816
74 *295:10 *715:8 4.77425e-05
75 *446:8 *715:97 0.000446855
76 *605:227 *715:39 0
77 *605:227 *715:49 0
78 *605:231 *715:21 0
79 *605:292 *715:78 0
80 *638:16 *715:78 0
81 *638:47 *715:97 0
82 *638:47 *715:112 0
83 *638:51 *715:112 0
84 *638:59 *715:118 0
85 *664:28 *5280:B1 0
86 *672:27 *5280:B1 0
87 *686:34 *715:21 0
88 *686:60 *715:78 8.00842e-05
89 *690:10 *715:39 0.000178206
*RES
1 *5994:X *715:8 40.3193 
2 *715:8 *5067:A1 44.6247 
3 *715:8 *715:21 4.7998 
4 *715:21 *715:27 22.8325 
5 *715:27 *715:39 46.1594 
6 *715:39 *715:49 44.8204 
7 *715:49 *5033:A 20 
8 *715:39 *5069:A 20 
9 *715:27 *5036:A 20 
10 *715:21 *715:78 49.9086 
11 *715:78 *5280:B1 47.0349 
12 *715:78 *715:97 2.8222 
13 *715:97 *5284:B1 40.3193 
14 *715:97 *715:112 26.5714 
15 *715:112 *715:118 42.575 
16 *715:118 *5387:B 31.9995 
17 *715:112 *5029:C 20.3193 
*END

*D_NET *716 0.0153929
*CONN
*I *5075:B1 I *D sg13g2_o21ai_1
*I *5094:B1 I *D sg13g2_o21ai_1
*I *5027:A I *D sg13g2_inv_1
*I *5091:B1 I *D sg13g2_o21ai_1
*I *5088:B1 I *D sg13g2_o21ai_1
*I *5450:C I *D sg13g2_nand3_1
*I *5995:X O *D sg13g2_buf_1
*CAP
1 *5075:B1 0
2 *5094:B1 0
3 *5027:A 0
4 *5091:B1 3.71181e-05
5 *5088:B1 0
6 *5450:C 0.00120987
7 *5995:X 0.000410147
8 *716:73 0.00156655
9 *716:58 0.00213685
10 *716:34 0.00159911
11 *716:28 0.00167762
12 *716:20 0.00155259
13 *716:18 0.00105228
14 *716:10 0.000665026
15 *5091:B1 *5091:A2 1.54556e-05
16 *5450:C *5088:A2 1.54556e-05
17 *5450:C *5449:B 0
18 *5450:C *5801:RESET_B 0
19 *5450:C *718:20 0
20 *716:10 *5541:RESET_B 0
21 *716:10 *5995:A 0
22 *716:10 *798:18 0
23 *716:18 *798:18 0.000341119
24 *716:20 *5094:A2 0.00037208
25 *716:20 *864:36 0
26 *716:20 *887:27 0
27 *716:20 *997:28 0
28 *716:28 *5094:A2 1.54008e-05
29 *716:28 *718:20 0
30 *716:28 *864:36 0.000329402
31 *716:28 *997:28 0
32 *716:34 *5088:A2 0.000176595
33 *716:34 *864:8 0.000715953
34 *716:73 *972:27 0
35 *5087:B_N *716:34 0
36 *5089:B *5450:C 0
37 *5091:A1 *5091:B1 0
38 *5450:B *5450:C 4.77425e-05
39 *5541:D *716:10 0
40 *5553:CLK *716:28 0
41 *5871:D *5450:C 0
42 *5919:A *5450:C 0
43 *79:32 *716:73 0.000825514
44 *291:29 *5450:C 0.000631054
45 *310:8 *716:34 0
46 *310:8 *716:58 0
47 *311:8 *716:58 0
48 *611:27 *716:73 0
49 *642:10 *716:73 0
50 *642:12 *716:73 0
51 *642:18 *716:58 0
52 *642:24 *716:28 0
53 *642:24 *716:58 0
54 *642:57 *5091:B1 0
55 *665:30 *716:58 0
56 *665:30 *716:73 0
57 *665:40 *5450:C 0
58 *665:40 *716:34 0
59 *665:68 *716:34 0
60 *665:87 *716:10 0
61 *665:87 *716:18 0
62 *700:12 *5450:C 0
*RES
1 *5995:X *716:10 24.0479 
2 *716:10 *716:18 43.1415 
3 *716:18 *716:20 7.6735 
4 *716:20 *716:28 27.2615 
5 *716:28 *716:34 24.9955 
6 *716:34 *5450:C 32.9368 
7 *716:34 *5088:B1 20 
8 *716:28 *716:58 5.5826 
9 *716:58 *5091:B1 40.3193 
10 *716:58 *716:73 38.6533 
11 *716:73 *5027:A 20 
12 *716:20 *5094:B1 20 
13 *716:10 *5075:B1 20 
*END

*D_NET *717 0.0175967
*CONN
*I *5433:B I *D sg13g2_and2_1
*I *5417:B I *D sg13g2_and2_1
*I *5437:B I *D sg13g2_and2_1
*I *5421:B I *D sg13g2_and2_1
*I *5405:B I *D sg13g2_and2_1
*I *5403:B I *D sg13g2_and2_1
*I *5401:B I *D sg13g2_and2_1
*I *5385:B I *D sg13g2_and2_1
*I *5996:X O *D sg13g2_buf_1
*CAP
1 *5433:B 0.000772141
2 *5417:B 0
3 *5437:B 0
4 *5421:B 0
5 *5405:B 0.00087137
6 *5403:B 0.000172055
7 *5401:B 0
8 *5385:B 0.000902808
9 *5996:X 0
10 *717:85 0.00015611
11 *717:61 0.00126989
12 *717:59 0.0010931
13 *717:57 0.000564594
14 *717:55 0.00270172
15 *717:31 0.000528634
16 *717:16 0.00162417
17 *717:12 0.00114359
18 *717:6 0.00268226
19 *5385:B *5310:A 0
20 *5385:B *5384:A1 0
21 *5385:B *5685:RESET_B 0
22 *5385:B *1023:114 0
23 *5385:B *1054:19 0
24 *5403:B *1023:114 0.000339722
25 *5405:B *5757:RESET_B 0
26 *5405:B *5773:RESET_B 0
27 *5433:B *5432:A1 0
28 *5433:B *5769:RESET_B 0
29 *5433:B *5785:RESET_B 0
30 *5433:B *6037:A 0
31 *717:12 *5402:A1 0
32 *717:12 *718:36 0
33 *717:12 *718:51 0
34 *717:12 *1023:114 0
35 *717:16 *1023:114 0
36 *717:31 *946:10 0
37 *717:31 *1023:114 0
38 *717:31 *1084:8 0
39 *717:31 *1084:21 0
40 *717:55 *5416:A0 0.000395481
41 *717:55 *5416:A1 0
42 *717:55 *718:51 0.00055508
43 *717:55 *945:8 0
44 *717:55 *1061:10 0
45 *717:59 *5436:A1 0.000112179
46 *717:59 *1072:12 0
47 *717:59 *1072:24 0
48 *717:61 *5773:RESET_B 0
49 *717:61 *913:10 0
50 *717:85 *993:32 0
51 *717:85 *1072:24 0
52 *5385:A *5385:B 0
53 *5403:A *5403:B 8.03692e-05
54 *5403:A *717:12 0.000307226
55 *5405:A *5405:B 0
56 *5417:A *5433:B 3.24351e-05
57 *5417:A *717:57 3.23417e-05
58 *5417:A *717:59 8.02431e-05
59 *5421:A *5405:B 4.79124e-05
60 *5421:A *717:61 6.49135e-05
61 *5432:S *5433:B 0
62 *5433:A *5433:B 0.000274507
63 *5437:A *717:59 0
64 *5439:B *5405:B 0
65 *5737:D *5385:B 8.0276e-05
66 *5757:D *5405:B 0
67 *5769:D *5433:B 0
68 *5773:D *5405:B 0
69 *5789:D *717:59 0
70 *6062:A *5385:B 8.00842e-05
71 *211:10 *717:85 0
72 *619:16 *5405:B 0
73 *619:16 *717:61 0
74 *663:16 *717:12 0
75 *663:18 *717:12 0
76 *663:18 *717:16 0
77 *663:34 *5385:B 0
78 *663:51 *717:31 0
79 *663:63 *717:55 0
80 *663:97 *5433:B 0
81 *663:97 *717:55 0
82 *663:103 *717:59 0
83 *663:103 *717:61 0
84 *664:14 *717:12 0.000394248
85 *664:61 *717:12 0.000237204
86 *664:61 *717:55 0
87 *664:61 *717:59 0
88 *668:25 *717:55 0
89 *673:10 *717:31 0
90 *673:14 *5385:B 0
91 *673:26 *5385:B 0
*RES
1 *5996:X *717:6 40 
2 *717:6 *717:12 28.549 
3 *717:12 *717:16 2.1836 
4 *717:16 *5385:B 28.4872 
5 *717:16 *717:31 45.7886 
6 *717:31 *5401:B 20 
7 *717:12 *5403:B 22.8634 
8 *717:6 *717:55 40.0953 
9 *717:55 *717:57 0.3193 
10 *717:57 *717:59 5.7268 
11 *717:59 *717:61 3.9964 
12 *717:61 *5405:B 28.7556 
13 *717:61 *5421:B 20 
14 *717:59 *717:85 41.8334 
15 *717:85 *5437:B 20 
16 *717:57 *5417:B 20 
17 *717:55 *5433:B 27.6735 
*END

*D_NET *718 0.0313213
*CONN
*I *5995:A I *D sg13g2_buf_1
*I *5994:A I *D sg13g2_buf_1
*I *5419:B I *D sg13g2_and2_1
*I *5538:B I *D sg13g2_and2_1
*I *5435:B I *D sg13g2_and2_1
*I *5996:A I *D sg13g2_buf_1
*I *5997:X O *D sg13g2_buf_1
*CAP
1 *5995:A 0.000362437
2 *5994:A 0.00083151
3 *5419:B 1.61162e-05
4 *5538:B 0.000323516
5 *5435:B 0
6 *5996:A 0
7 *5997:X 0.00296611
8 *718:92 0.00120037
9 *718:72 0.000835114
10 *718:59 0.000741836
11 *718:57 0.00091148
12 *718:51 0.0016159
13 *718:36 0.0014293
14 *718:34 0.00320323
15 *718:22 0.0040289
16 *718:20 0.00357123
17 *5538:B *5735:RESET_B 0
18 *5994:A *5067:A2 0
19 *5995:A *5541:RESET_B 0
20 *5995:A *6093:A 0
21 *5995:A *798:18 0
22 *718:20 *5090:A 0
23 *718:20 *5553:RESET_B 0.000274638
24 *718:20 *5871:RESET_B 0.000339552
25 *718:20 *5997:A 0.000404561
26 *718:20 *719:77 0
27 *718:20 *864:36 0
28 *718:22 *5867:RESET_B 0
29 *718:34 *5313:B 0
30 *718:34 *5337:A 0
31 *718:34 *928:8 0
32 *718:34 *1020:38 0.00140715
33 *718:36 *5337:A 0
34 *718:36 *6045:A 0
35 *718:36 *928:8 0
36 *718:51 *5418:A1 0
37 *718:51 *5719:RESET_B 0
38 *718:51 *6073:A 0
39 *718:57 *5418:A0 0
40 *718:57 *5434:A0 0
41 *718:57 *969:23 0
42 *718:59 *5434:A0 0
43 *718:72 *969:23 0
44 spi_cs_n *5995:A 4.79124e-05
45 *5062:B1 *718:20 0
46 *5065:B1 *718:34 0
47 *5066:A2 *718:22 6.48152e-05
48 *5066:A2 *718:34 0.000208747
49 *5363:C *718:51 0
50 *5419:A *5419:B 3.16813e-05
51 *5419:A *718:51 0
52 *5434:S *718:59 0
53 *5435:A *718:59 0.000241847
54 *5435:A *718:72 3.23529e-05
55 *5450:C *718:20 0
56 *5553:D *718:20 0
57 *5719:D *718:51 0.000533563
58 *5771:D *718:51 0
59 *5867:D *718:22 0
60 *5871:D *718:20 0
61 *5873:CLK *718:34 0
62 *5915:A *718:34 0
63 *5916:A *718:51 0
64 *5919:A *718:20 0
65 *5921:A *718:20 0
66 *5921:A *718:22 0
67 *5980:A *718:20 4.77863e-05
68 *160:10 *718:34 0.000180682
69 *292:12 *718:22 0
70 *293:10 *718:34 0
71 *294:8 *718:34 0
72 *466:8 *718:34 0
73 *605:292 *718:34 0
74 *610:12 *718:57 0.000181192
75 *639:10 *718:92 0
76 *641:12 *718:57 0.000287758
77 *641:30 *718:72 0
78 *641:41 *718:72 0
79 *643:64 *718:20 0
80 *643:68 *718:20 0
81 *645:12 *718:22 4.77537e-05
82 *645:21 *718:20 0
83 *645:21 *718:22 0.000226765
84 *663:75 *718:57 0
85 *665:30 *718:20 0
86 *665:87 *718:20 0
87 *667:23 *5538:B 0.000566273
88 *667:23 *718:72 0.00167646
89 *668:25 *718:36 0.000235556
90 *668:25 *718:51 0.000661472
91 *668:46 *718:34 0
92 *668:46 *718:92 0
93 *700:6 *718:20 0
94 *700:12 *718:20 0
95 *700:12 *718:22 0.000792692
96 *700:20 *718:92 0.000237976
97 *700:24 *5994:A 0
98 *702:39 *718:34 0
99 *702:73 *718:51 0
100 *716:10 *5995:A 0
101 *716:28 *718:20 0
102 *717:12 *718:36 0
103 *717:12 *718:51 0
104 *717:55 *718:51 0.00055508
*RES
1 *5997:X *718:20 46.5019 
2 *718:20 *718:22 10.4854 
3 *718:22 *718:34 49.5919 
4 *718:34 *718:36 4.7998 
5 *718:36 *5996:A 40 
6 *718:36 *718:51 30.4192 
7 *718:51 *718:57 48.3686 
8 *718:57 *718:59 2.4823 
9 *718:59 *5435:B 20 
10 *718:59 *718:72 48.3327 
11 *718:72 *5538:B 23.7801 
12 *718:51 *5419:B 20.2111 
13 *718:22 *718:92 43.0694 
14 *718:92 *5994:A 27.9109 
15 *5997:X *5995:A 43.3475 
*END

*D_NET *719 0.0384207
*CONN
*I *5997:A I *D sg13g2_buf_1
*I *5992:A I *D sg13g2_buf_1
*I *5993:A I *D sg13g2_buf_1
*I *5989:A I *D sg13g2_buf_1
*I *5998:X O *D sg13g2_buf_1
*CAP
1 *5997:A 0.00041931
2 *5992:A 0.00101437
3 *5993:A 0.00172355
4 *5989:A 0.000300838
5 *5998:X 3.30546e-05
6 *719:77 0.00123344
7 *719:58 0.00376614
8 *719:43 0.00237798
9 *719:29 0.00702047
10 *719:27 0.00442841
11 *719:25 0.00574099
12 *719:8 0.00607489
13 *5992:A *5293:B1 0
14 *5992:A *5316:A 0
15 *5992:A *1023:49 0
16 *5992:A *1030:52 0
17 *5992:A *1030:56 0
18 *5993:A *5472:A 0
19 *5993:A *5481:A 0
20 *5993:A *5805:RESET_B 0.000339426
21 *5993:A *1007:18 0
22 *5993:A *1007:24 0
23 *719:25 *5093:A 0
24 *719:25 *1005:19 0
25 *719:25 *1111:31 0
26 *719:25 *1114:12 0
27 *719:43 *1007:16 0
28 *719:43 *1007:18 0
29 *719:43 *1030:56 0
30 *719:58 *1023:34 0
31 *719:58 *1030:56 0
32 *719:77 *5553:RESET_B 0.000177164
33 *5481:C *5993:A 0.000112289
34 *5482:B1 *5993:A 0
35 *5609:CLK *719:25 0
36 *5819:D *5993:A 0.000176482
37 *5901:A *5992:A 0
38 *6004:A *719:58 0.0012997
39 *98:8 *719:25 0.000720992
40 *221:10 *719:43 0
41 *313:8 *719:77 0
42 *349:10 *719:25 0
43 *349:25 *719:25 0
44 *357:8 *719:25 0.000882874
45 *548:8 *719:43 0
46 *551:18 *5993:A 0
47 *556:10 *5993:A 0
48 *568:10 *5993:A 0
49 *605:35 *5993:A 0
50 *605:35 *719:43 0
51 *625:21 *5992:A 0
52 *625:21 *719:58 0
53 *642:24 *719:25 0
54 *643:68 *5997:A 0
55 *643:68 *719:77 0
56 *651:31 *719:43 0.000126441
57 *662:38 *719:25 0
58 *665:87 *5997:A 0
59 *676:8 *5993:A 0
60 *676:28 *5993:A 0
61 *706:43 *5989:A 0
62 *706:43 *719:8 4.73096e-05
63 *706:45 *719:25 0
64 *706:64 *719:25 0
65 *709:14 *5989:A 0
66 *709:18 *5989:A 0
67 *709:103 *5989:A 0
68 *709:103 *719:25 0
69 *718:20 *5997:A 0.000404561
70 *718:20 *719:77 0
*RES
1 *5998:X *719:8 40.3193 
2 *719:8 *5989:A 43.2239 
3 *719:8 *719:25 61.903 
4 *719:25 *719:27 20 
5 *719:27 *719:29 46.3912 
6 *719:29 *719:43 47.0885 
7 *719:43 *5993:A 36.892 
8 *719:29 *719:58 47.1199 
9 *719:58 *5992:A 49.991 
10 *719:27 *719:77 49.7026 
11 *719:77 *5997:A 24.5268 
*END

*D_NET *720 0.0106389
*CONN
*I *5133:A2 I *D sg13g2_o21ai_1
*I *6086:A I *D sg13g2_buf_1
*I *5583:Q O *D sg13g2_dfrbpq_1
*CAP
1 *5133:A2 0
2 *6086:A 0.00218155
3 *5583:Q 0.000172187
4 *720:27 0.00017245
5 *720:12 0.00467022
6 *720:8 0.00283331
7 *6086:A *998:6 0
8 *6086:A *998:12 0
9 *720:8 *1026:16 0
10 *720:12 *5815:RESET_B 0
11 *720:12 *5821:RESET_B 0
12 *720:27 *1025:16 0
13 *5477:B *720:12 0
14 *649:30 *720:12 0
15 *704:68 *720:8 0
16 *704:68 *720:12 0
17 *704:68 *720:27 0.000609155
*RES
1 *5583:Q *720:8 21.9055 
2 *720:8 *720:12 27.31 
3 *720:12 *6086:A 44.6067 
4 *720:8 *720:27 42.8222 
5 *720:27 *5133:A2 20 
*END

*D_NET *721 0.000568219
*CONN
*I *5619:RESET_B I *D sg13g2_dfrbpq_1
*I *5620:L_HI O *D sg13g2_tiehi
*CAP
1 *5619:RESET_B 0.00023641
2 *5620:L_HI 0.00023641
3 *5619:RESET_B *1087:10 2.43395e-05
4 *5619:RESET_B *1117:78 0
5 *5557:CLK *5619:RESET_B 7.10607e-05
*RES
1 *5620:L_HI *5619:RESET_B 42.2866 
*END

*D_NET *722 0.00093364
*CONN
*I *5741:RESET_B I *D sg13g2_dfrbpq_1
*I *5742:L_HI O *D sg13g2_tiehi
*CAP
1 *5741:RESET_B 0
2 *5742:L_HI 0.000281821
3 *722:10 0.000281821
4 *722:10 *1030:18 8.00842e-05
5 *5317:A1 *722:10 0
6 *673:76 *722:10 0.000144882
7 *673:80 *722:10 0.000145031
8 *713:10 *722:10 0
*RES
1 *5742:L_HI *722:10 42.678 
2 *722:10 *5741:RESET_B 40 
*END

*D_NET *723 0.00115852
*CONN
*I *5617:RESET_B I *D sg13g2_dfrbpq_1
*I *5618:L_HI O *D sg13g2_tiehi
*CAP
1 *5617:RESET_B 0
2 *5618:L_HI 0.000539107
3 *723:10 0.000539107
4 *723:10 *1117:8 0
5 *5617:CLK *723:10 0
6 *125:10 *723:10 0
7 *348:18 *723:10 0
8 *636:32 *723:10 8.03091e-05
*RES
1 *5618:L_HI *723:10 45.3972 
2 *723:10 *5617:RESET_B 40 
*END

*D_NET *724 0.000394683
*CONN
*I *5831:RESET_B I *D sg13g2_dfrbpq_1
*I *5832:L_HI O *D sg13g2_tiehi
*CAP
1 *5831:RESET_B 0.000197341
2 *5832:L_HI 0.000197341
3 *5831:CLK *5831:RESET_B 0
4 *69:22 *5831:RESET_B 0
5 *648:67 *5831:RESET_B 0
*RES
1 *5832:L_HI *5831:RESET_B 42.1836 
*END

*D_NET *725 0.00107407
*CONN
*I *5615:RESET_B I *D sg13g2_dfrbpq_1
*I *5616:L_HI O *D sg13g2_tiehi
*CAP
1 *5615:RESET_B 0.000230117
2 *5616:L_HI 0.000137208
3 *725:8 0.000367325
4 *5615:RESET_B *5158:A1 0
5 *725:8 *1113:8 0
6 *661:20 *725:8 0
7 *661:59 *5615:RESET_B 0.00033942
*RES
1 *5616:L_HI *725:8 41.5862 
2 *725:8 *5615:RESET_B 42.266 
*END

*D_NET *726 0.000306754
*CONN
*I *5739:RESET_B I *D sg13g2_dfrbpq_1
*I *5740:L_HI O *D sg13g2_tiehi
*CAP
1 *5739:RESET_B 0.000153377
2 *5740:L_HI 0.000153377
3 *5387:B *5739:RESET_B 0
4 *5739:D *5739:RESET_B 0
*RES
1 *5740:L_HI *5739:RESET_B 41.6325 
*END

*D_NET *727 0.000468777
*CONN
*I *5613:RESET_B I *D sg13g2_dfrbpq_1
*I *5614:L_HI O *D sg13g2_tiehi
*CAP
1 *5613:RESET_B 0.000234389
2 *5614:L_HI 0.000234389
3 *5613:RESET_B *5158:A1 0
4 *5613:CLK *5613:RESET_B 0
*RES
1 *5614:L_HI *5613:RESET_B 42.4308 
*END

*D_NET *728 0.000545143
*CONN
*I *5799:RESET_B I *D sg13g2_dfrbpq_1
*I *5800:L_HI O *D sg13g2_tiehi
*CAP
1 *5799:RESET_B 0.000272571
2 *5800:L_HI 0.000272571
3 *5799:RESET_B *5446:A1 0
4 *5799:CLK *5799:RESET_B 0
*RES
1 *5800:L_HI *5799:RESET_B 43.1724 
*END

*D_NET *729 0.000831818
*CONN
*I *5611:RESET_B I *D sg13g2_dfrbpq_1
*I *5612:L_HI O *D sg13g2_tiehi
*CAP
1 *5611:RESET_B 0.000246262
2 *5612:L_HI 0.000246262
3 *662:36 *5611:RESET_B 0.000339294
*RES
1 *5612:L_HI *5611:RESET_B 42.8634 
*END

*D_NET *730 0.00102685
*CONN
*I *5737:RESET_B I *D sg13g2_dfrbpq_1
*I *5738:L_HI O *D sg13g2_tiehi
*CAP
1 *5737:RESET_B 0.00023129
2 *5738:L_HI 0.00023129
3 *5293:A2 *5737:RESET_B 8.0216e-05
4 *5685:CLK *5737:RESET_B 0.000339525
5 *673:26 *5737:RESET_B 0.00014453
6 *701:41 *5737:RESET_B 0
*RES
1 *5738:L_HI *5737:RESET_B 42.6162 
*END

*D_NET *731 0.0104025
*CONN
*I *6087:A I *D sg13g2_buf_1
*I *5135:A2 I *D sg13g2_o21ai_1
*I *5585:Q O *D sg13g2_dfrbpq_1
*CAP
1 *6087:A 0
2 *5135:A2 0.000325572
3 *5585:Q 0.000106269
4 *731:27 0.00431756
5 *731:21 0.00431756
6 *731:8 0.000431841
7 *5135:A2 *5135:A1 0.00037174
8 *5135:B1 *5135:A2 1.54008e-05
9 *5136:A2 *731:27 0.000241847
10 *5136:B1 *5135:A2 0.000274742
11 *109:10 *731:27 0
*RES
1 *5585:Q *731:8 41.339 
2 *731:8 *5135:A2 43.8213 
3 *731:8 *731:21 20 
4 *731:21 *731:27 49.3164 
5 *731:27 *6087:A 20 
*END

*D_NET *732 0.00133037
*CONN
*I *5609:RESET_B I *D sg13g2_dfrbpq_1
*I *5610:L_HI O *D sg13g2_tiehi
*CAP
1 *5609:RESET_B 0.00018801
2 *5610:L_HI 0.000109673
3 *732:8 0.000297683
4 *5609:RESET_B *5096:A 0.000339524
5 *732:8 *5093:A 0.000106894
6 *732:8 *1112:12 0
7 *732:8 *1114:12 0.000288588
8 *5613:CLK *5609:RESET_B 0
*RES
1 *5610:L_HI *732:8 41.8334 
2 *732:8 *5609:RESET_B 42.266 
*END

*D_NET *733 0.000487923
*CONN
*I *5735:RESET_B I *D sg13g2_dfrbpq_1
*I *5736:L_HI O *D sg13g2_tiehi
*CAP
1 *5735:RESET_B 0.000243962
2 *5736:L_HI 0.000243962
3 *5538:B *5735:RESET_B 0
4 *5735:CLK *5735:RESET_B 0
*RES
1 *5736:L_HI *5735:RESET_B 42.8634 
*END

*D_NET *734 0.000533146
*CONN
*I *5607:RESET_B I *D sg13g2_dfrbpq_1
*I *5608:L_HI O *D sg13g2_tiehi
*CAP
1 *5607:RESET_B 0.000266573
2 *5608:L_HI 0.000266573
3 *5607:D *5607:RESET_B 0
4 *5988:A *5607:RESET_B 0
5 *637:32 *5607:RESET_B 0
*RES
1 *5608:L_HI *5607:RESET_B 42.8634 
*END

*D_NET *735 0.00159021
*CONN
*I *5733:RESET_B I *D sg13g2_dfrbpq_1
*I *5734:L_HI O *D sg13g2_tiehi
*CAP
1 *5733:RESET_B 0
2 *5734:L_HI 0.000410509
3 *735:10 0.000410509
4 *735:10 *1041:12 0
5 *555:10 *735:10 0
6 *700:82 *735:10 0.000769196
*RES
1 *5734:L_HI *735:10 45.8298 
2 *735:10 *5733:RESET_B 40 
*END

*D_NET *736 0.000648062
*CONN
*I *5605:RESET_B I *D sg13g2_dfrbpq_1
*I *5606:L_HI O *D sg13g2_tiehi
*CAP
1 *5605:RESET_B 0.000186646
2 *5606:L_HI 0.000186646
3 *5605:D *5605:RESET_B 0.000274769
4 *5605:CLK *5605:RESET_B 0
*RES
1 *5606:L_HI *5605:RESET_B 42.1836 
*END

*D_NET *737 0.000662119
*CONN
*I *5845:RESET_B I *D sg13g2_dfrbpq_1
*I *5846:L_HI O *D sg13g2_tiehi
*CAP
1 *5845:RESET_B 0.000194798
2 *5846:L_HI 0.000194798
3 *586:94 *5845:RESET_B 0.000272522
*RES
1 *5846:L_HI *5845:RESET_B 42.1836 
*END

*D_NET *738 0.000491939
*CONN
*I *5603:RESET_B I *D sg13g2_dfrbpq_1
*I *5604:L_HI O *D sg13g2_tiehi
*CAP
1 *5603:RESET_B 0.00024597
2 *5604:L_HI 0.00024597
*RES
1 *5604:L_HI *5603:RESET_B 42.6162 
*END

*D_NET *739 0.000432369
*CONN
*I *5731:RESET_B I *D sg13g2_dfrbpq_1
*I *5732:L_HI O *D sg13g2_tiehi
*CAP
1 *5731:RESET_B 0.000216184
2 *5732:L_HI 0.000216184
3 *5783:CLK *5731:RESET_B 0
*RES
1 *5732:L_HI *5731:RESET_B 42.2866 
*END

*D_NET *740 0.000568644
*CONN
*I *5601:RESET_B I *D sg13g2_dfrbpq_1
*I *5602:L_HI O *D sg13g2_tiehi
*CAP
1 *5601:RESET_B 0.00024428
2 *5602:L_HI 0.00024428
3 *5158:A2 *5601:RESET_B 8.00842e-05
4 *5601:D *5601:RESET_B 0
5 *646:20 *5601:RESET_B 0
6 *708:14 *5601:RESET_B 0
*RES
1 *5602:L_HI *5601:RESET_B 41.6042 
*END

*D_NET *741 0.000422701
*CONN
*I *5797:RESET_B I *D sg13g2_dfrbpq_1
*I *5798:L_HI O *D sg13g2_tiehi
*CAP
1 *5797:RESET_B 0.00021135
2 *5798:L_HI 0.00021135
3 *5445:A *5797:RESET_B 0
4 *5797:D *5797:RESET_B 0
*RES
1 *5798:L_HI *5797:RESET_B 42.2866 
*END

*D_NET *742 0.00574091
*CONN
*I *5137:A2 I *D sg13g2_o21ai_1
*I *6088:A I *D sg13g2_buf_1
*I *5587:Q O *D sg13g2_dfrbpq_1
*CAP
1 *5137:A2 0
2 *6088:A 0
3 *5587:Q 0
4 *742:29 0.00061284
5 *742:10 0.00224222
6 *742:4 0.00285506
7 *742:10 *753:18 0
8 *742:10 *756:10 0
9 *742:29 *1025:89 1.54008e-05
10 *5137:B1 *742:29 1.54008e-05
11 *5138:B1 *742:29 0
*RES
1 *5587:Q *742:4 20 
2 *742:4 *742:10 48.6649 
3 *742:10 *6088:A 40 
4 *742:4 *742:29 45.974 
5 *742:29 *5137:A2 20 
*END

*D_NET *743 0.00161742
*CONN
*I *5599:RESET_B I *D sg13g2_dfrbpq_1
*I *5600:L_HI O *D sg13g2_tiehi
*CAP
1 *5599:RESET_B 0
2 *5600:L_HI 0.000576424
3 *743:10 0.000576424
4 *5151:B1 *743:10 0
5 *5599:CLK *743:10 0
6 *260:8 *743:10 0
7 *630:57 *743:10 0.000127744
8 *705:39 *743:10 0
9 *709:47 *743:10 0.00033683
*RES
1 *5600:L_HI *743:10 45.8298 
2 *743:10 *5599:RESET_B 40 
*END

*D_NET *744 0.000479492
*CONN
*I *5729:RESET_B I *D sg13g2_dfrbpq_1
*I *5730:L_HI O *D sg13g2_tiehi
*CAP
1 *5729:RESET_B 0.000239746
2 *5730:L_HI 0.000239746
*RES
1 *5730:L_HI *5729:RESET_B 42.6162 
*END

*D_NET *745 0.000455982
*CONN
*I *5597:RESET_B I *D sg13g2_dfrbpq_1
*I *5598:L_HI O *D sg13g2_tiehi
*CAP
1 *5597:RESET_B 0.000227991
2 *5598:L_HI 0.000227991
3 *5149:A *5597:RESET_B 0
4 *5577:CLK *5597:RESET_B 0
5 *5595:CLK *5597:RESET_B 0
6 *630:27 *5597:RESET_B 0
7 *705:49 *5597:RESET_B 0
*RES
1 *5598:L_HI *5597:RESET_B 42.6162 
*END

*D_NET *746 0.000421979
*CONN
*I *5829:RESET_B I *D sg13g2_dfrbpq_1
*I *5830:L_HI O *D sg13g2_tiehi
*CAP
1 *5829:RESET_B 0.00021099
2 *5830:L_HI 0.00021099
3 *5496:C *5829:RESET_B 0
4 *5496:D *5829:RESET_B 0
5 *5829:D *5829:RESET_B 0
6 *650:59 *5829:RESET_B 0
*RES
1 *5830:L_HI *5829:RESET_B 42.0956 
*END

*D_NET *747 0.00038922
*CONN
*I *5595:RESET_B I *D sg13g2_dfrbpq_1
*I *5596:L_HI O *D sg13g2_tiehi
*CAP
1 *5595:RESET_B 0.00019461
2 *5596:L_HI 0.00019461
3 *5595:RESET_B *6092:A 0
4 *5146:B1 *5595:RESET_B 0
5 *5595:D *5595:RESET_B 0
*RES
1 *5596:L_HI *5595:RESET_B 42.2248 
*END

*D_NET *748 0.000483679
*CONN
*I *5727:RESET_B I *D sg13g2_dfrbpq_1
*I *5728:L_HI O *D sg13g2_tiehi
*CAP
1 *5727:RESET_B 0.00024184
2 *5728:L_HI 0.00024184
3 *5727:RESET_B *1019:71 0
4 *505:10 *5727:RESET_B 0
5 *623:27 *5727:RESET_B 0
*RES
1 *5728:L_HI *5727:RESET_B 41.1378 
*END

*D_NET *749 0.00150793
*CONN
*I *5593:RESET_B I *D sg13g2_dfrbpq_1
*I *5594:L_HI O *D sg13g2_tiehi
*CAP
1 *5593:RESET_B 0.000192062
2 *5594:L_HI 0.000283852
3 *749:8 0.000475914
4 *5593:RESET_B *1025:60 0
5 *749:8 *1025:37 0
6 *5593:D *5593:RESET_B 0
7 *113:8 *749:8 0.000556104
*RES
1 *5594:L_HI *749:8 43.3166 
2 *749:8 *5593:RESET_B 41.8334 
*END

*D_NET *750 0.000413241
*CONN
*I *5795:RESET_B I *D sg13g2_dfrbpq_1
*I *5796:L_HI O *D sg13g2_tiehi
*CAP
1 *5795:RESET_B 0.00020662
2 *5796:L_HI 0.00020662
3 *5443:A *5795:RESET_B 0
4 *5899:A *5795:RESET_B 0
5 *624:6 *5795:RESET_B 0
6 *711:90 *5795:RESET_B 0
*RES
1 *5796:L_HI *5795:RESET_B 42.1836 
*END

*D_NET *751 0.000422739
*CONN
*I *5591:RESET_B I *D sg13g2_dfrbpq_1
*I *5592:L_HI O *D sg13g2_tiehi
*CAP
1 *5591:RESET_B 0.00021137
2 *5592:L_HI 0.00021137
3 *5591:D *5591:RESET_B 0
4 *5591:CLK *5591:RESET_B 0
*RES
1 *5592:L_HI *5591:RESET_B 42.1836 
*END

*D_NET *752 0.000792321
*CONN
*I *5725:RESET_B I *D sg13g2_dfrbpq_1
*I *5726:L_HI O *D sg13g2_tiehi
*CAP
1 *5725:RESET_B 0.000226363
2 *5726:L_HI 0.000226363
3 *5707:CLK *5725:RESET_B 0.000339596
4 *605:154 *5725:RESET_B 0
*RES
1 *5726:L_HI *5725:RESET_B 42.266 
*END

*D_NET *753 0.00370555
*CONN
*I *5139:A0 I *D sg13g2_mux2_1
*I *6089:A I *D sg13g2_buf_1
*I *5589:Q O *D sg13g2_dfrbpq_1
*CAP
1 *5139:A0 0
2 *6089:A 0
3 *5589:Q 0.000252051
4 *753:18 0.0011605
5 *753:12 0.00128479
6 *753:8 0.000376339
7 *753:12 *5139:S 0
8 *753:12 *1102:69 0.000177526
9 *753:18 *765:16 0
10 *704:85 *753:18 0.000454344
11 *742:10 *753:18 0
*RES
1 *5589:Q *753:8 42.3278 
2 *753:8 *753:12 21.4008 
3 *753:12 *753:18 35.5015 
4 *753:18 *6089:A 40 
5 *753:12 *5139:A0 20 
*END

*D_NET *754 0.000410911
*CONN
*I *5589:RESET_B I *D sg13g2_dfrbpq_1
*I *5590:L_HI O *D sg13g2_tiehi
*CAP
1 *5589:RESET_B 0.000205455
2 *5590:L_HI 0.000205455
3 *5589:RESET_B *1102:69 0
4 *5589:D *5589:RESET_B 0
*RES
1 *5590:L_HI *5589:RESET_B 42.1836 
*END

*D_NET *755 0.000386865
*CONN
*I *5875:RESET_B I *D sg13g2_dfrbpq_1
*I *5876:L_HI O *D sg13g2_tiehi
*CAP
1 *5875:RESET_B 0.000193432
2 *5876:L_HI 0.000193432
3 *5733:CLK *5875:RESET_B 0
*RES
1 *5876:L_HI *5875:RESET_B 42.1836 
*END

*D_NET *756 0.00161168
*CONN
*I *5587:RESET_B I *D sg13g2_dfrbpq_1
*I *5588:L_HI O *D sg13g2_tiehi
*CAP
1 *5587:RESET_B 0.000192917
2 *5588:L_HI 0.000238655
3 *756:10 0.000431573
4 *5587:RESET_B *1025:97 0
5 *5587:D *5587:RESET_B 0
6 *110:8 *756:10 0.000455749
7 *255:20 *756:10 0.000292789
8 *742:10 *756:10 0
*RES
1 *5588:L_HI *756:10 43.8831 
2 *756:10 *5587:RESET_B 42.0497 
*END

*D_NET *757 0.000848726
*CONN
*I *5723:RESET_B I *D sg13g2_dfrbpq_1
*I *5724:L_HI O *D sg13g2_tiehi
*CAP
1 *5723:RESET_B 0.000265964
2 *5724:L_HI 0.000158399
3 *757:8 0.000424363
4 *5723:RESET_B *5723:D 0
5 *5369:B *5723:RESET_B 0
6 *5741:CLK *757:8 0
7 *618:10 *5723:RESET_B 0
*RES
1 *5724:L_HI *757:8 41.8334 
2 *757:8 *5723:RESET_B 42.266 
*END

*D_NET *758 0.000405228
*CONN
*I *5585:RESET_B I *D sg13g2_dfrbpq_1
*I *5586:L_HI O *D sg13g2_tiehi
*CAP
1 *5585:RESET_B 0.000202614
2 *5586:L_HI 0.000202614
3 *5585:D *5585:RESET_B 0
4 *255:14 *5585:RESET_B 0
*RES
1 *5586:L_HI *5585:RESET_B 40.802 
*END

*D_NET *759 0.000449747
*CONN
*I *5793:RESET_B I *D sg13g2_dfrbpq_1
*I *5794:L_HI O *D sg13g2_tiehi
*CAP
1 *5793:RESET_B 0.000224873
2 *5794:L_HI 0.000224873
3 *5793:RESET_B *6127:A 0
4 *5793:CLK *5793:RESET_B 0
5 *540:10 *5793:RESET_B 0
6 *712:64 *5793:RESET_B 0
*RES
1 *5794:L_HI *5793:RESET_B 42.4308 
*END

*D_NET *760 0.000559195
*CONN
*I *5583:RESET_B I *D sg13g2_dfrbpq_1
*I *5584:L_HI O *D sg13g2_tiehi
*CAP
1 *5583:RESET_B 0.000279597
2 *5584:L_HI 0.000279597
3 *5583:RESET_B *1026:16 0
4 *337:18 *5583:RESET_B 0
*RES
1 *5584:L_HI *5583:RESET_B 43.0226 
*END

*D_NET *761 0.000747948
*CONN
*I *5721:RESET_B I *D sg13g2_dfrbpq_1
*I *5722:L_HI O *D sg13g2_tiehi
*CAP
1 *5721:RESET_B 0.000241141
2 *5722:L_HI 0.000241141
3 *674:41 *5721:RESET_B 0.000265666
4 *702:107 *5721:RESET_B 0
*RES
1 *5722:L_HI *5721:RESET_B 42.7192 
*END

*D_NET *762 0.000733056
*CONN
*I *5581:RESET_B I *D sg13g2_dfrbpq_1
*I *5582:L_HI O *D sg13g2_tiehi
*CAP
1 *5581:RESET_B 0.000196848
2 *5582:L_HI 0.000196848
3 *5132:A2 *5581:RESET_B 0.00033936
*RES
1 *5582:L_HI *5581:RESET_B 42.266 
*END

*D_NET *763 0.000495837
*CONN
*I *5827:RESET_B I *D sg13g2_dfrbpq_1
*I *5828:L_HI O *D sg13g2_tiehi
*CAP
1 *5827:RESET_B 0.000247918
2 *5828:L_HI 0.000247918
3 *5827:CLK *5827:RESET_B 0
4 *650:59 *5827:RESET_B 0
*RES
1 *5828:L_HI *5827:RESET_B 42.6162 
*END

*D_NET *764 0.00852095
*CONN
*I *5510:B I *D sg13g2_nor4_1
*I *6079:X O *D sg13g2_buf_1
*CAP
1 *5510:B 0
2 *6079:X 8.96767e-05
3 *764:18 0.000911444
4 *764:10 0.00400003
5 *764:8 0.00317826
6 *764:10 *5440:A0 0
7 *764:18 *1035:28 0
8 *764:18 *1049:20 0
9 *504:8 *764:10 0
10 *605:124 *764:10 0
11 *605:186 *764:10 0
12 *684:10 *764:10 0.000341535
*RES
1 *6079:X *764:8 40.7519 
2 *764:8 *764:10 34.711 
3 *764:10 *764:18 49.3215 
4 *764:18 *5510:B 40 
*END

*D_NET *765 0.00755683
*CONN
*I *5141:A2 I *D sg13g2_o21ai_1
*I *6090:A I *D sg13g2_buf_1
*I *5591:Q O *D sg13g2_dfrbpq_1
*CAP
1 *5141:A2 5.74212e-05
2 *6090:A 0.000195843
3 *5591:Q 0.000883643
4 *765:16 0.00202545
5 *765:10 0.00188702
6 *765:8 0.000883643
7 *5141:A2 *5139:S 0
8 *5141:A2 *5141:A1 4.78359e-05
9 *765:8 *1025:18 0
10 *765:8 *1025:20 0
11 *765:16 *5139:S 0
12 *5141:B1 *5141:A2 0.000112519
13 *5141:B1 *765:16 0.000194258
14 *649:38 *765:16 0.00067038
15 *704:79 *765:8 0
16 *704:85 *765:16 0.000598822
17 *753:18 *765:16 0
*RES
1 *5591:Q *765:8 48.5078 
2 *765:8 *765:10 20 
3 *765:10 *765:16 43.69 
4 *765:16 *6090:A 42.266 
5 *765:10 *5141:A2 20.7519 
*END

*D_NET *766 0.000543793
*CONN
*I *5579:RESET_B I *D sg13g2_dfrbpq_1
*I *5580:L_HI O *D sg13g2_tiehi
*CAP
1 *5579:RESET_B 0.000271896
2 *5580:L_HI 0.000271896
3 *5579:RESET_B *6022:A 0
4 *631:79 *5579:RESET_B 0
5 *632:66 *5579:RESET_B 0
*RES
1 *5580:L_HI *5579:RESET_B 42.9252 
*END

*D_NET *767 0.000911693
*CONN
*I *5719:RESET_B I *D sg13g2_dfrbpq_1
*I *5720:L_HI O *D sg13g2_tiehi
*CAP
1 *5719:RESET_B 0.000455846
2 *5720:L_HI 0.000455846
3 *5362:A1 *5719:RESET_B 0
4 *5362:A2 *5719:RESET_B 0
5 *5719:D *5719:RESET_B 0
6 *5719:CLK *5719:RESET_B 0
7 *5916:A *5719:RESET_B 0
8 *498:10 *5719:RESET_B 0
9 *674:33 *5719:RESET_B 0
10 *718:51 *5719:RESET_B 0
*RES
1 *5720:L_HI *5719:RESET_B 44.7942 
*END

*D_NET *768 0.000402066
*CONN
*I *5577:RESET_B I *D sg13g2_dfrbpq_1
*I *5578:L_HI O *D sg13g2_tiehi
*CAP
1 *5577:RESET_B 0.000201033
2 *5578:L_HI 0.000201033
3 *5577:D *5577:RESET_B 0
4 *6083:A *5577:RESET_B 0
*RES
1 *5578:L_HI *5577:RESET_B 42.2248 
*END

*D_NET *769 0.000516411
*CONN
*I *5791:RESET_B I *D sg13g2_dfrbpq_1
*I *5792:L_HI O *D sg13g2_tiehi
*CAP
1 *5791:RESET_B 0.000250505
2 *5792:L_HI 0.000250505
3 *5439:B *5791:RESET_B 0
4 *5757:CLK *5791:RESET_B 0
5 *5791:D *5791:RESET_B 0
6 *627:8 *5791:RESET_B 1.54008e-05
*RES
1 *5792:L_HI *5791:RESET_B 42.2272 
*END

*D_NET *770 0.000482054
*CONN
*I *5575:RESET_B I *D sg13g2_dfrbpq_1
*I *5576:L_HI O *D sg13g2_tiehi
*CAP
1 *5575:RESET_B 0.000241027
2 *5576:L_HI 0.000241027
3 *5126:A1 *5575:RESET_B 0
4 *5575:D *5575:RESET_B 0
5 *646:6 *5575:RESET_B 0
*RES
1 *5576:L_HI *5575:RESET_B 42.6162 
*END

*D_NET *771 0.000390473
*CONN
*I *5717:RESET_B I *D sg13g2_dfrbpq_1
*I *5718:L_HI O *D sg13g2_tiehi
*CAP
1 *5717:RESET_B 0.000195236
2 *5718:L_HI 0.000195236
3 *5360:B *5717:RESET_B 0
*RES
1 *5718:L_HI *5717:RESET_B 42.1836 
*END

*D_NET *772 0.000463184
*CONN
*I *5573:RESET_B I *D sg13g2_dfrbpq_1
*I *5574:L_HI O *D sg13g2_tiehi
*CAP
1 *5573:RESET_B 0.000231592
2 *5574:L_HI 0.000231592
3 *5573:D *5573:RESET_B 0
4 *662:23 *5573:RESET_B 0
*RES
1 *5574:L_HI *5573:RESET_B 42.4308 
*END

*D_NET *773 0.000507015
*CONN
*I *5843:RESET_B I *D sg13g2_dfrbpq_1
*I *5844:L_HI O *D sg13g2_tiehi
*CAP
1 *5843:RESET_B 0.000253508
2 *5844:L_HI 0.000253508
3 *5843:CLK *5843:RESET_B 0
4 *6016:A *5843:RESET_B 0
5 *586:111 *5843:RESET_B 0
*RES
1 *5844:L_HI *5843:RESET_B 42.6162 
*END

*D_NET *774 0.000633165
*CONN
*I *5571:RESET_B I *D sg13g2_dfrbpq_1
*I *5572:L_HI O *D sg13g2_tiehi
*CAP
1 *5571:RESET_B 0.000195492
2 *5572:L_HI 0.000195492
3 *5120:A1 *5571:RESET_B 0
4 *5120:A2 *5571:RESET_B 0
5 *5121:B1 *5571:RESET_B 0
6 *5571:D *5571:RESET_B 0.000242181
7 *656:44 *5571:RESET_B 0
*RES
1 *5572:L_HI *5571:RESET_B 42.1836 
*END

*D_NET *775 0.000568014
*CONN
*I *5715:RESET_B I *D sg13g2_dfrbpq_1
*I *5716:L_HI O *D sg13g2_tiehi
*CAP
1 *5715:RESET_B 0.000284007
2 *5716:L_HI 0.000284007
3 *647:42 *5715:RESET_B 0
4 *683:51 *5715:RESET_B 0
*RES
1 *5716:L_HI *5715:RESET_B 42.6162 
*END

*D_NET *776 0.00256642
*CONN
*I *5143:A2 I *D sg13g2_o21ai_1
*I *6091:A I *D sg13g2_buf_1
*I *5593:Q O *D sg13g2_dfrbpq_1
*CAP
1 *5143:A2 4.79943e-05
2 *6091:A 0.000320882
3 *5593:Q 0.000906648
4 *776:32 0.000409853
5 *776:8 0.000865672
6 *776:32 *1025:60 0
7 *5143:B1 *5143:A2 1.53666e-05
8 *5144:B1 *776:32 0
9 *5593:CLK *5143:A2 0
10 *252:12 *776:8 0
11 *709:51 *776:32 0
*RES
1 *5593:Q *776:8 46.5302 
2 *776:8 *6091:A 43.5638 
3 *5593:Q *776:32 43.9964 
4 *776:32 *5143:A2 40.5356 
*END

*D_NET *777 0.000644215
*CONN
*I *5569:RESET_B I *D sg13g2_dfrbpq_1
*I *5570:L_HI O *D sg13g2_tiehi
*CAP
1 *5569:RESET_B 0.000322108
2 *5570:L_HI 0.000322108
3 *5569:RESET_B *1021:12 0
4 *5118:B1 *5569:RESET_B 0
5 *5569:CLK *5569:RESET_B 0
6 *656:53 *5569:RESET_B 0
*RES
1 *5570:L_HI *5569:RESET_B 43.3578 
*END

*D_NET *778 0.000563774
*CONN
*I *5789:RESET_B I *D sg13g2_dfrbpq_1
*I *5790:L_HI O *D sg13g2_tiehi
*CAP
1 *5789:RESET_B 0.000281887
2 *5790:L_HI 0.000281887
3 *5789:RESET_B *1072:24 0
4 *5437:A *5789:RESET_B 0
5 *5789:CLK *5789:RESET_B 0
6 *211:10 *5789:RESET_B 0
*RES
1 *5790:L_HI *5789:RESET_B 43.1106 
*END

*D_NET *779 0.000703481
*CONN
*I *5567:RESET_B I *D sg13g2_dfrbpq_1
*I *5568:L_HI O *D sg13g2_tiehi
*CAP
1 *5567:RESET_B 0.00035174
2 *5568:L_HI 0.00035174
3 *5567:RESET_B *6146:A 0
4 *5116:A *5567:RESET_B 0
5 *709:14 *5567:RESET_B 0
6 *709:30 *5567:RESET_B 0
*RES
1 *5568:L_HI *5567:RESET_B 43.4608 
*END

*D_NET *780 0.000412853
*CONN
*I *5713:RESET_B I *D sg13g2_dfrbpq_1
*I *5714:L_HI O *D sg13g2_tiehi
*CAP
1 *5713:RESET_B 0.000206427
2 *5714:L_HI 0.000206427
3 *5713:D *5713:RESET_B 0
4 *644:8 *5713:RESET_B 0
5 *644:12 *5713:RESET_B 0
*RES
1 *5714:L_HI *5713:RESET_B 42.1836 
*END

*D_NET *781 0.000399868
*CONN
*I *5565:RESET_B I *D sg13g2_dfrbpq_1
*I *5566:L_HI O *D sg13g2_tiehi
*CAP
1 *5565:RESET_B 0.000199934
2 *5566:L_HI 0.000199934
3 *5565:D *5565:RESET_B 0
*RES
1 *5566:L_HI *5565:RESET_B 42.3278 
*END

*D_NET *782 0.000488904
*CONN
*I *5825:RESET_B I *D sg13g2_dfrbpq_1
*I *5826:L_HI O *D sg13g2_tiehi
*CAP
1 *5825:RESET_B 0.000244452
2 *5826:L_HI 0.000244452
3 *69:34 *5825:RESET_B 0
*RES
1 *5826:L_HI *5825:RESET_B 42.6162 
*END

*D_NET *783 0.000991055
*CONN
*I *5563:RESET_B I *D sg13g2_dfrbpq_1
*I *5564:L_HI O *D sg13g2_tiehi
*CAP
1 *5563:RESET_B 0.000187528
2 *5564:L_HI 0.000284128
3 *783:8 0.000471656
4 *5943:A *5563:RESET_B 4.77425e-05
5 *320:8 *783:8 0
6 *658:16 *783:8 0
7 *706:64 *5563:RESET_B 0
*RES
1 *5564:L_HI *783:8 43.5638 
2 *783:8 *5563:RESET_B 41.8334 
*END

*D_NET *784 0.000462285
*CONN
*I *5711:RESET_B I *D sg13g2_dfrbpq_1
*I *5712:L_HI O *D sg13g2_tiehi
*CAP
1 *5711:RESET_B 0.000231142
2 *5712:L_HI 0.000231142
3 *5711:RESET_B *5711:D 0
4 *623:27 *5711:RESET_B 0
5 *623:31 *5711:RESET_B 0
*RES
1 *5712:L_HI *5711:RESET_B 42.678 
*END

*D_NET *785 0.000458973
*CONN
*I *5561:RESET_B I *D sg13g2_dfrbpq_1
*I *5562:L_HI O *D sg13g2_tiehi
*CAP
1 *5561:RESET_B 0.000229487
2 *5562:L_HI 0.000229487
*RES
1 *5562:L_HI *5561:RESET_B 42.6162 
*END

*D_NET *786 0.000513897
*CONN
*I *5787:RESET_B I *D sg13g2_dfrbpq_1
*I *5788:L_HI O *D sg13g2_tiehi
*CAP
1 *5787:RESET_B 0.000256949
2 *5788:L_HI 0.000256949
3 *5435:A *5787:RESET_B 0
4 *5787:D *5787:RESET_B 0
*RES
1 *5788:L_HI *5787:RESET_B 42.6162 
*END

*D_NET *787 0.00202294
*CONN
*I *5145:A2 I *D sg13g2_o21ai_1
*I *6092:A I *D sg13g2_buf_1
*I *5595:Q O *D sg13g2_dfrbpq_1
*CAP
1 *5145:A2 0.000168954
2 *6092:A 0.000387784
3 *5595:Q 0.000439278
4 *787:8 0.000996017
5 *5145:A2 *5145:A1 1.54556e-05
6 boot_addr[29] *6092:A 0
7 *5145:B1 *5145:A2 1.54556e-05
8 *5146:B1 *5145:A2 0
9 *5146:B1 *6092:A 0
10 *5595:RESET_B *6092:A 0
11 *5595:D *6092:A 0
12 *252:12 *787:8 0
*RES
1 *5595:Q *787:8 45.2942 
2 *787:8 *6092:A 44.532 
3 *787:8 *5145:A2 41.6171 
*END

*D_NET *788 0.00038028
*CONN
*I *5559:RESET_B I *D sg13g2_dfrbpq_1
*I *5560:L_HI O *D sg13g2_tiehi
*CAP
1 *5559:RESET_B 0.00019014
2 *5560:L_HI 0.00019014
3 *5559:RESET_B *6100:A 0
*RES
1 *5560:L_HI *5559:RESET_B 42.1836 
*END

*D_NET *789 0.000492466
*CONN
*I *5709:RESET_B I *D sg13g2_dfrbpq_1
*I *5710:L_HI O *D sg13g2_tiehi
*CAP
1 *5709:RESET_B 0.000246233
2 *5710:L_HI 0.000246233
3 *5709:RESET_B *5370:B 0
4 *5371:A2 *5709:RESET_B 0
5 *5372:B *5709:RESET_B 0
6 *5709:D *5709:RESET_B 0
*RES
1 *5710:L_HI *5709:RESET_B 42.6162 
*END

*D_NET *790 0.000670275
*CONN
*I *5557:RESET_B I *D sg13g2_dfrbpq_1
*I *5558:L_HI O *D sg13g2_tiehi
*CAP
1 *5557:RESET_B 0.000230256
2 *5558:L_HI 0.000230256
3 *5557:RESET_B *6100:A 0
4 *5103:B1 *5557:RESET_B 0.000209763
5 *658:92 *5557:RESET_B 0
*RES
1 *5558:L_HI *5557:RESET_B 42.1836 
*END

*D_NET *791 0.00040542
*CONN
*I *5851:RESET_B I *D sg13g2_dfrbpq_1
*I *5852:L_HI O *D sg13g2_tiehi
*CAP
1 *5851:RESET_B 0.00020271
2 *5852:L_HI 0.00020271
3 *5851:D *5851:RESET_B 0
4 *694:45 *5851:RESET_B 0
*RES
1 *5852:L_HI *5851:RESET_B 42.178 
*END

*D_NET *792 0.000716449
*CONN
*I *5555:RESET_B I *D sg13g2_dfrbpq_1
*I *5556:L_HI O *D sg13g2_tiehi
*CAP
1 *5555:RESET_B 0.000285649
2 *5556:L_HI 0.000285649
3 *261:31 *5555:RESET_B 0.000145151
4 *646:6 *5555:RESET_B 0
*RES
1 *5556:L_HI *5555:RESET_B 42.6162 
*END

*D_NET *793 0.000767321
*CONN
*I *5707:RESET_B I *D sg13g2_dfrbpq_1
*I *5708:L_HI O *D sg13g2_tiehi
*CAP
1 *5707:RESET_B 0.000235235
2 *5708:L_HI 0.000235235
3 *5707:RESET_B *5343:B 0
4 *5344:A1 *5707:RESET_B 0.000296852
5 *605:154 *5707:RESET_B 0
*RES
1 *5708:L_HI *5707:RESET_B 42.6162 
*END

*D_NET *794 0.000868286
*CONN
*I *5553:RESET_B I *D sg13g2_dfrbpq_1
*I *5554:L_HI O *D sg13g2_tiehi
*CAP
1 *5553:RESET_B 0.000151092
2 *5554:L_HI 5.71502e-05
3 *794:8 0.000208242
4 *643:68 *5553:RESET_B 0
5 *718:20 *5553:RESET_B 0.000274638
6 *719:77 *5553:RESET_B 0.000177164
*RES
1 *5554:L_HI *794:8 40.5974 
2 *794:8 *5553:RESET_B 41.8334 
*END

*D_NET *795 0.000514084
*CONN
*I *5785:RESET_B I *D sg13g2_dfrbpq_1
*I *5786:L_HI O *D sg13g2_tiehi
*CAP
1 *5785:RESET_B 0.000257042
2 *5786:L_HI 0.000257042
3 *5785:RESET_B *5432:A1 0
4 *5433:B *5785:RESET_B 0
5 *5785:CLK *5785:RESET_B 0
*RES
1 *5786:L_HI *5785:RESET_B 42.8634 
*END

*D_NET *796 0.000655317
*CONN
*I *5551:RESET_B I *D sg13g2_dfrbpq_1
*I *5552:L_HI O *D sg13g2_tiehi
*CAP
1 *5551:RESET_B 0.000190614
2 *5552:L_HI 0.000190614
3 *5551:RESET_B *6104:A 0
4 *667:44 *5551:RESET_B 0.000274088
*RES
1 *5552:L_HI *5551:RESET_B 42.1836 
*END

*D_NET *797 0.000740514
*CONN
*I *5705:RESET_B I *D sg13g2_dfrbpq_1
*I *5706:L_HI O *D sg13g2_tiehi
*CAP
1 *5705:RESET_B 0.000265375
2 *5706:L_HI 0.000265375
3 *5705:RESET_B *5341:B1 0.000209763
4 *5341:A1 *5705:RESET_B 0
5 *5369:B *5705:RESET_B 0
6 *5970:A *5705:RESET_B 0
*RES
1 *5706:L_HI *5705:RESET_B 42.8634 
*END

*D_NET *798 0.002209
*CONN
*I *6093:A I *D sg13g2_buf_1
*I *5075:A2 I *D sg13g2_o21ai_1
*I *5541:Q O *D sg13g2_dfrbpq_1
*CAP
1 *6093:A 0.000235082
2 *5075:A2 0
3 *5541:Q 0.00027675
4 *798:18 0.000284817
5 *798:10 0.000519899
6 *798:8 0.00027675
7 *6093:A *864:36 0
8 boot_addr[6] *6093:A 0
9 spi_cs_n *6093:A 0
10 *5995:A *6093:A 0
11 *5995:A *798:18 0
12 *72:8 *798:8 0
13 *643:68 *798:18 0.000274583
14 *716:10 *798:18 0
15 *716:18 *798:18 0.000341119
*RES
1 *5541:Q *798:8 43.3166 
2 *798:8 *798:10 20 
3 *798:10 *798:18 43.6359 
4 *798:18 *5075:A2 20 
5 *798:10 *6093:A 22.1836 
*END

*D_NET *799 0.000676249
*CONN
*I *5549:RESET_B I *D sg13g2_dfrbpq_1
*I *5550:L_HI O *D sg13g2_tiehi
*CAP
1 *5549:RESET_B 0.000201143
2 *5550:L_HI 0.000201143
3 *5549:RESET_B *5093:A 0
4 *5549:D *5549:RESET_B 0
5 *665:68 *5549:RESET_B 0.000273962
6 *666:28 *5549:RESET_B 0
*RES
1 *5550:L_HI *5549:RESET_B 42.1836 
*END

*D_NET *800 0.00116429
*CONN
*I *5823:RESET_B I *D sg13g2_dfrbpq_1
*I *5824:L_HI O *D sg13g2_tiehi
*CAP
1 *5823:RESET_B 0.000185444
2 *5824:L_HI 0.000167494
3 *800:8 0.000352938
4 *5927:A *5823:RESET_B 0.000274583
5 *551:50 *800:8 0.000183828
6 *552:10 *5823:RESET_B 0
*RES
1 *5824:L_HI *800:8 42.0806 
2 *800:8 *5823:RESET_B 41.8334 
*END

*D_NET *801 0.000464688
*CONN
*I *5547:RESET_B I *D sg13g2_dfrbpq_1
*I *5548:L_HI O *D sg13g2_tiehi
*CAP
1 *5547:RESET_B 0.000232344
2 *5548:L_HI 0.000232344
3 *5086:A *5547:RESET_B 0
4 *5547:D *5547:RESET_B 0
*RES
1 *5548:L_HI *5547:RESET_B 42.6162 
*END

*D_NET *802 0.00038487
*CONN
*I *5703:RESET_B I *D sg13g2_dfrbpq_1
*I *5704:L_HI O *D sg13g2_tiehi
*CAP
1 *5703:RESET_B 0.000192435
2 *5704:L_HI 0.000192435
3 *703:47 *5703:RESET_B 0
*RES
1 *5704:L_HI *5703:RESET_B 42.1785 
*END

*D_NET *803 0.00101441
*CONN
*I *5545:RESET_B I *D sg13g2_dfrbpq_1
*I *5546:L_HI O *D sg13g2_tiehi
*CAP
1 *5545:RESET_B 0.000219501
2 *5546:L_HI 0.000287703
3 *803:8 0.000507204
4 *5988:A *5545:RESET_B 0
5 *89:10 *803:8 0
*RES
1 *5546:L_HI *803:8 43.5638 
2 *803:8 *5545:RESET_B 42.266 
*END

*D_NET *804 0.000469783
*CONN
*I *5783:RESET_B I *D sg13g2_dfrbpq_1
*I *5784:L_HI O *D sg13g2_tiehi
*CAP
1 *5783:RESET_B 0.000234891
2 *5784:L_HI 0.000234891
3 *5783:RESET_B *5430:A0 0
4 *5783:RESET_B *5430:A1 0
5 *5783:CLK *5783:RESET_B 0
*RES
1 *5784:L_HI *5783:RESET_B 42.6162 
*END

*D_NET *805 0.000607926
*CONN
*I *5543:RESET_B I *D sg13g2_dfrbpq_1
*I *5544:L_HI O *D sg13g2_tiehi
*CAP
1 *5543:RESET_B 0.000303963
2 *5544:L_HI 0.000303963
3 *5080:B *5543:RESET_B 0
4 *5543:D *5543:RESET_B 0
5 *646:20 *5543:RESET_B 0
*RES
1 *5544:L_HI *5543:RESET_B 43.3578 
*END

*D_NET *806 0.000613964
*CONN
*I *5701:RESET_B I *D sg13g2_dfrbpq_1
*I *5702:L_HI O *D sg13g2_tiehi
*CAP
1 *5701:RESET_B 0.000266926
2 *5702:L_HI 0.000266926
3 *5336:B *5701:RESET_B 0
4 *5336:C *5701:RESET_B 0
5 *5701:D *5701:RESET_B 0
6 *626:44 *5701:RESET_B 8.01116e-05
7 *689:60 *5701:RESET_B 0
*RES
1 *5702:L_HI *5701:RESET_B 42.4314 
*END

*D_NET *807 0.000399874
*CONN
*I *5541:RESET_B I *D sg13g2_dfrbpq_1
*I *5542:L_HI O *D sg13g2_tiehi
*CAP
1 *5541:RESET_B 0.000199937
2 *5542:L_HI 0.000199937
3 *5995:A *5541:RESET_B 0
4 *6082:A *5541:RESET_B 0
5 *716:10 *5541:RESET_B 0
*RES
1 *5542:L_HI *5541:RESET_B 42.1836 
*END

*D_NET *808 0.000406162
*CONN
*I *5841:RESET_B I *D sg13g2_dfrbpq_1
*I *5842:L_HI O *D sg13g2_tiehi
*CAP
1 *5841:RESET_B 0.000203081
2 *5842:L_HI 0.000203081
3 *5841:RESET_B *1034:14 0
4 *79:12 *5841:RESET_B 0
*RES
1 *5842:L_HI *5841:RESET_B 42.1836 
*END

*D_NET *809 0.00286706
*CONN
*I *6094:A I *D sg13g2_buf_1
*I *5148:A0 I *D sg13g2_mux2_1
*I *5597:Q O *D sg13g2_dfrbpq_1
*CAP
1 *6094:A 0
2 *5148:A0 2.99958e-05
3 *5597:Q 0.000257624
4 *809:25 0.000229441
5 *809:12 0.000380345
6 *809:8 0.000378533
7 *5148:A0 *1106:14 4.77425e-05
8 *809:8 *1031:72 0
9 *809:8 *1031:74 0
10 *809:8 *1106:14 0.00093318
11 *809:12 *1106:14 0.000194368
12 *809:25 *5145:A1 0.000287672
13 *809:25 *1031:74 0.00012816
14 *5595:CLK *809:12 0
15 *115:8 *809:25 0
*RES
1 *5597:Q *809:8 44.3054 
2 *809:8 *809:12 21.4008 
3 *809:12 *5148:A0 20.3193 
4 *809:12 *809:25 43.3166 
5 *809:25 *6094:A 20 
*END

*D_NET *810 0.000530356
*CONN
*I *5699:RESET_B I *D sg13g2_dfrbpq_1
*I *5700:L_HI O *D sg13g2_tiehi
*CAP
1 *5699:RESET_B 0.000265178
2 *5700:L_HI 0.000265178
3 *5699:RESET_B *1027:34 0
4 *5699:RESET_B *1028:18 0
5 *5699:RESET_B *1083:32 0
6 *5333:A *5699:RESET_B 0
*RES
1 *5700:L_HI *5699:RESET_B 42.7192 
*END

*D_NET *811 0.000488703
*CONN
*I *5781:RESET_B I *D sg13g2_dfrbpq_1
*I *5782:L_HI O *D sg13g2_tiehi
*CAP
1 *5781:RESET_B 0.000244352
2 *5782:L_HI 0.000244352
3 *5781:RESET_B *5428:S 0
4 *5781:RESET_B *975:27 0
5 *5781:RESET_B *1028:26 0
*RES
1 *5782:L_HI *5781:RESET_B 42.1586 
*END

*D_NET *812 0.000644126
*CONN
*I *5697:RESET_B I *D sg13g2_dfrbpq_1
*I *5698:L_HI O *D sg13g2_tiehi
*CAP
1 *5697:RESET_B 0.000322063
2 *5698:L_HI 0.000322063
3 *5697:RESET_B *5328:B 0
4 *5697:RESET_B *1082:10 0
5 *5330:C *5697:RESET_B 0
6 *5681:CLK *5697:RESET_B 0
*RES
1 *5698:L_HI *5697:RESET_B 43.3578 
*END

*D_NET *813 0.000473177
*CONN
*I *5821:RESET_B I *D sg13g2_dfrbpq_1
*I *5822:L_HI O *D sg13g2_tiehi
*CAP
1 *5821:RESET_B 0.000236588
2 *5822:L_HI 0.000236588
3 *5821:D *5821:RESET_B 0
4 *720:12 *5821:RESET_B 0
*RES
1 *5822:L_HI *5821:RESET_B 41.6042 
*END

*D_NET *814 0.00080885
*CONN
*I *5695:RESET_B I *D sg13g2_dfrbpq_1
*I *5696:L_HI O *D sg13g2_tiehi
*CAP
1 *5695:RESET_B 0.000235121
2 *5696:L_HI 0.000235121
3 *5695:RESET_B *1027:18 0.000338608
4 *5326:A2 *5695:RESET_B 0
5 *711:18 *5695:RESET_B 0
*RES
1 *5696:L_HI *5695:RESET_B 42.6162 
*END

*D_NET *815 0.000513925
*CONN
*I *5779:RESET_B I *D sg13g2_dfrbpq_1
*I *5780:L_HI O *D sg13g2_tiehi
*CAP
1 *5779:RESET_B 0.000256963
2 *5780:L_HI 0.000256963
3 *5427:B *5779:RESET_B 0
4 *533:10 *5779:RESET_B 0
5 *713:39 *5779:RESET_B 0
*RES
1 *5780:L_HI *5779:RESET_B 42.4308 
*END

*D_NET *816 0.000702978
*CONN
*I *5693:RESET_B I *D sg13g2_dfrbpq_1
*I *5694:L_HI O *D sg13g2_tiehi
*CAP
1 *5693:RESET_B 0.000214236
2 *5694:L_HI 0.000214236
3 *5693:RESET_B *1030:30 0
4 *713:20 *5693:RESET_B 0.000274507
*RES
1 *5694:L_HI *5693:RESET_B 42.1836 
*END

*D_NET *817 0.000826504
*CONN
*I *5855:RESET_B I *D sg13g2_dfrbpq_1
*I *5856:L_HI O *D sg13g2_tiehi
*CAP
1 *5855:RESET_B 0.000413252
2 *5856:L_HI 0.000413252
3 *5486:B *5855:RESET_B 0
4 *5855:D *5855:RESET_B 0
5 *650:10 *5855:RESET_B 0
6 *650:35 *5855:RESET_B 0
*RES
1 *5856:L_HI *5855:RESET_B 44.5114 
*END

*D_NET *818 0.000448205
*CONN
*I *5691:RESET_B I *D sg13g2_dfrbpq_1
*I *5692:L_HI O *D sg13g2_tiehi
*CAP
1 *5691:RESET_B 0.000224102
2 *5692:L_HI 0.000224102
3 *5691:RESET_B *1029:21 0
4 *5321:C *5691:RESET_B 0
*RES
1 *5692:L_HI *5691:RESET_B 42.1836 
*END

*D_NET *819 0.00052376
*CONN
*I *5777:RESET_B I *D sg13g2_dfrbpq_1
*I *5778:L_HI O *D sg13g2_tiehi
*CAP
1 *5777:RESET_B 0.00026188
2 *5778:L_HI 0.00026188
3 *5777:CLK *5777:RESET_B 0
4 *617:6 *5777:RESET_B 0
*RES
1 *5778:L_HI *5777:RESET_B 42.8634 
*END

*D_NET *820 0.00362226
*CONN
*I *5150:A2 I *D sg13g2_o21ai_1
*I *6095:A I *D sg13g2_buf_1
*I *5599:Q O *D sg13g2_dfrbpq_1
*CAP
1 *5150:A2 0.000451433
2 *6095:A 0
3 *5599:Q 0
4 *820:14 0.000972705
5 *820:6 0.00142414
6 *5150:A2 *5150:A1 1.53666e-05
7 *820:14 *5127:A1 0
8 boot_addr[31] *820:14 0.000371644
9 *5120:B1 *820:14 0
10 *5127:A2 *820:14 0
11 *5128:B1 *820:14 0
12 *5150:B1 *5150:A2 7.99179e-05
13 *5151:B1 *5150:A2 0
14 *6083:A *820:14 0.000307051
15 *260:8 *820:14 0
16 *705:41 *820:14 0
17 *705:49 *820:14 0
18 *709:47 *5150:A2 0
*RES
1 *5599:Q *820:6 40 
2 *820:6 *820:14 31.1858 
3 *820:14 *6095:A 20 
4 *820:6 *5150:A2 44.6865 
*END

*D_NET *821 0.000585745
*CONN
*I *5689:RESET_B I *D sg13g2_dfrbpq_1
*I *5690:L_HI O *D sg13g2_tiehi
*CAP
1 *5689:RESET_B 0.000285172
2 *5690:L_HI 0.000285172
3 *626:14 *5689:RESET_B 1.54008e-05
4 *673:66 *5689:RESET_B 0
5 *673:76 *5689:RESET_B 0
6 *690:35 *5689:RESET_B 0
*RES
1 *5690:L_HI *5689:RESET_B 42.6162 
*END

*D_NET *822 0.000444838
*CONN
*I *5819:RESET_B I *D sg13g2_dfrbpq_1
*I *5820:L_HI O *D sg13g2_tiehi
*CAP
1 *5819:RESET_B 0.000222419
2 *5820:L_HI 0.000222419
3 *69:34 *5819:RESET_B 0
4 *605:35 *5819:RESET_B 0
*RES
1 *5820:L_HI *5819:RESET_B 42.1836 
*END

*D_NET *823 0.000532043
*CONN
*I *5687:RESET_B I *D sg13g2_dfrbpq_1
*I *5688:L_HI O *D sg13g2_tiehi
*CAP
1 *5687:RESET_B 0.000266022
2 *5688:L_HI 0.000266022
3 *5687:RESET_B *1065:25 0
4 *5315:C *5687:RESET_B 0
*RES
1 *5688:L_HI *5687:RESET_B 42.1836 
*END

*D_NET *824 0.000429616
*CONN
*I *5775:RESET_B I *D sg13g2_dfrbpq_1
*I *5776:L_HI O *D sg13g2_tiehi
*CAP
1 *5775:RESET_B 0.000214808
2 *5776:L_HI 0.000214808
3 *5439:B *5775:RESET_B 0
4 *5775:CLK *5775:RESET_B 0
5 *539:10 *5775:RESET_B 0
*RES
1 *5776:L_HI *5775:RESET_B 42.4308 
*END

*D_NET *825 0.000851242
*CONN
*I *5685:RESET_B I *D sg13g2_dfrbpq_1
*I *5686:L_HI O *D sg13g2_tiehi
*CAP
1 *5685:RESET_B 0.000425621
2 *5686:L_HI 0.000425621
3 *5385:B *5685:RESET_B 0
4 *663:18 *5685:RESET_B 0
5 *663:34 *5685:RESET_B 0
*RES
1 *5686:L_HI *5685:RESET_B 43.914 
*END

*D_NET *826 0.000781803
*CONN
*I *5839:RESET_B I *D sg13g2_dfrbpq_1
*I *5840:L_HI O *D sg13g2_tiehi
*CAP
1 *5839:RESET_B 0.00022257
2 *5840:L_HI 0.00022257
3 *5288:B *5839:RESET_B 0.000336663
*RES
1 *5840:L_HI *5839:RESET_B 42.6162 
*END

*D_NET *827 0.000422426
*CONN
*I *5683:RESET_B I *D sg13g2_dfrbpq_1
*I *5684:L_HI O *D sg13g2_tiehi
*CAP
1 *5683:RESET_B 0.000203513
2 *5684:L_HI 0.000203513
3 *5308:A1 *5683:RESET_B 0
4 *5683:D *5683:RESET_B 0
5 *462:12 *5683:RESET_B 0
6 *695:18 *5683:RESET_B 1.54008e-05
*RES
1 *5684:L_HI *5683:RESET_B 42.1836 
*END

*D_NET *828 0.000441379
*CONN
*I *5773:RESET_B I *D sg13g2_dfrbpq_1
*I *5774:L_HI O *D sg13g2_tiehi
*CAP
1 *5773:RESET_B 0.00022069
2 *5774:L_HI 0.00022069
3 *5405:B *5773:RESET_B 0
4 *5773:CLK *5773:RESET_B 0
5 *717:61 *5773:RESET_B 0
*RES
1 *5774:L_HI *5773:RESET_B 42.4308 
*END

*D_NET *829 0.000968899
*CONN
*I *5681:RESET_B I *D sg13g2_dfrbpq_1
*I *5682:L_HI O *D sg13g2_tiehi
*CAP
1 *5681:RESET_B 0.000204172
2 *5682:L_HI 0.000280278
3 *829:8 0.000484449
4 *829:8 *1082:36 0
5 *694:55 *5681:RESET_B 0
*RES
1 *5682:L_HI *829:8 43.5638 
2 *829:8 *5681:RESET_B 41.8334 
*END

*D_NET *830 0.000680206
*CONN
*I *5817:RESET_B I *D sg13g2_dfrbpq_1
*I *5818:L_HI O *D sg13g2_tiehi
*CAP
1 *5817:RESET_B 8.1779e-05
2 *5818:L_HI 0.000258324
3 *830:10 0.000340103
4 *5817:RESET_B *1001:111 0
5 *830:10 *1001:111 0
6 *5817:D *5817:RESET_B 0
7 *5817:CLK *5817:RESET_B 0
8 *557:18 *830:10 0
9 *566:8 *830:10 0
*RES
1 *5818:L_HI *830:10 42.8016 
2 *830:10 *5817:RESET_B 40.9682 
*END

*D_NET *831 0.00193494
*CONN
*I *6096:A I *D sg13g2_buf_1
*I *5079:A2 I *D sg13g2_o21ai_1
*I *5543:Q O *D sg13g2_dfrbpq_1
*CAP
1 *6096:A 0.000439178
2 *5079:A2 0.000512834
3 *5543:Q 0
4 *831:6 0.000952012
5 *6096:A *898:27 0
6 *5079:B1 *5079:A2 1.54556e-05
7 *5079:A1 *5079:A2 1.54556e-05
8 *6081:A *6096:A 0
9 *646:12 *5079:A2 0
10 *646:12 *6096:A 0
11 *646:20 *5079:A2 0
*RES
1 *5543:Q *831:6 40 
2 *831:6 *5079:A2 45.0882 
3 *831:6 *6096:A 44.4393 
*END

*D_NET *832 0.000961579
*CONN
*I *5679:RESET_B I *D sg13g2_dfrbpq_1
*I *5680:L_HI O *D sg13g2_tiehi
*CAP
1 *5679:RESET_B 0.00048079
2 *5680:L_HI 0.00048079
3 *5679:RESET_B *6035:A 0
4 *622:10 *5679:RESET_B 0
5 *622:56 *5679:RESET_B 0
6 *685:22 *5679:RESET_B 0
7 *695:10 *5679:RESET_B 0
8 *695:18 *5679:RESET_B 0
*RES
1 *5680:L_HI *5679:RESET_B 44.7792 
*END

*D_NET *833 0.000877974
*CONN
*I *5771:RESET_B I *D sg13g2_dfrbpq_1
*I *5772:L_HI O *D sg13g2_tiehi
*CAP
1 *5771:RESET_B 0.000350287
2 *5772:L_HI 0.000350287
3 *5771:D *5771:RESET_B 0
4 *5917:A *5771:RESET_B 0
5 *641:8 *5771:RESET_B 0.000177399
6 *641:26 *5771:RESET_B 0
*RES
1 *5772:L_HI *5771:RESET_B 43.914 
*END

*D_NET *834 0.000437372
*CONN
*I *5677:RESET_B I *D sg13g2_dfrbpq_1
*I *5678:L_HI O *D sg13g2_tiehi
*CAP
1 *5677:RESET_B 0.000218686
2 *5678:L_HI 0.000218686
3 *5677:D *5677:RESET_B 0
4 *696:33 *5677:RESET_B 0
*RES
1 *5678:L_HI *5677:RESET_B 42.2866 
*END

*D_NET *835 0.000802778
*CONN
*I *5849:RESET_B I *D sg13g2_dfrbpq_1
*I *5850:L_HI O *D sg13g2_tiehi
*CAP
1 *5849:RESET_B 0.000248865
2 *5850:L_HI 0.000248865
3 *5909:A *5849:RESET_B 0.000305048
4 *605:120 *5849:RESET_B 0
*RES
1 *5850:L_HI *5849:RESET_B 42.7192 
*END

*D_NET *836 0.000648064
*CONN
*I *5675:RESET_B I *D sg13g2_dfrbpq_1
*I *5676:L_HI O *D sg13g2_tiehi
*CAP
1 *5675:RESET_B 0.00018674
2 *5676:L_HI 0.00018674
3 *5675:RESET_B *1019:87 0.000274583
4 *670:6 *5675:RESET_B 0
*RES
1 *5676:L_HI *5675:RESET_B 42.1836 
*END

*D_NET *837 0.000419423
*CONN
*I *5769:RESET_B I *D sg13g2_dfrbpq_1
*I *5770:L_HI O *D sg13g2_tiehi
*CAP
1 *5769:RESET_B 0.000209711
2 *5770:L_HI 0.000209711
3 *5433:B *5769:RESET_B 0
4 *5769:D *5769:RESET_B 0
5 *5769:CLK *5769:RESET_B 0
*RES
1 *5770:L_HI *5769:RESET_B 42.4308 
*END

*D_NET *838 0.000406915
*CONN
*I *5673:RESET_B I *D sg13g2_dfrbpq_1
*I *5674:L_HI O *D sg13g2_tiehi
*CAP
1 *5673:RESET_B 0.000203457
2 *5674:L_HI 0.000203457
3 *5673:RESET_B *5292:B 0
4 *6016:A *5673:RESET_B 0
*RES
1 *5674:L_HI *5673:RESET_B 41.8334 
*END

*D_NET *839 0.000485396
*CONN
*I *5815:RESET_B I *D sg13g2_dfrbpq_1
*I *5816:L_HI O *D sg13g2_tiehi
*CAP
1 *5815:RESET_B 0.000242698
2 *5816:L_HI 0.000242698
3 *5815:D *5815:RESET_B 0
4 *720:12 *5815:RESET_B 0
*RES
1 *5816:L_HI *5815:RESET_B 41.6042 
*END

*D_NET *840 0.000434807
*CONN
*I *5671:RESET_B I *D sg13g2_dfrbpq_1
*I *5672:L_HI O *D sg13g2_tiehi
*CAP
1 *5671:RESET_B 0.000217403
2 *5672:L_HI 0.000217403
*RES
1 *5672:L_HI *5671:RESET_B 42.4308 
*END

*D_NET *841 0.0011208
*CONN
*I *5767:RESET_B I *D sg13g2_dfrbpq_1
*I *5768:L_HI O *D sg13g2_tiehi
*CAP
1 *5767:RESET_B 0.000118415
2 *5768:L_HI 0.000243003
3 *841:10 0.000361419
4 *5767:RESET_B *992:21 0
5 *841:10 *5414:A1 0
6 *5431:B *841:10 0.000397963
7 *5767:D *5767:RESET_B 0
8 *647:44 *5767:RESET_B 0
9 *647:44 *841:10 0
10 *647:50 *841:10 0
*RES
1 *5768:L_HI *841:10 43.0179 
2 *841:10 *5767:RESET_B 41.1845 
*END

*D_NET *842 0.00164121
*CONN
*I *6097:A I *D sg13g2_buf_1
*I *5082:A2 I *D sg13g2_o21ai_1
*I *5545:Q O *D sg13g2_dfrbpq_1
*CAP
1 *6097:A 0.000312289
2 *5082:A2 0.000178126
3 *5545:Q 0.000322461
4 *842:26 0.000462383
5 *842:8 0.000350493
6 *6097:A *6111:A 0
7 *842:26 *966:8 0
8 *5082:B1 *5082:A2 1.54556e-05
9 *5082:B1 *842:8 0
10 *5083:A *5082:A2 0
11 *5083:B *5082:A2 0
12 *5545:CLK *5082:A2 0
13 *5559:CLK *6097:A 0
*RES
1 *5545:Q *842:8 42.0806 
2 *842:8 *5082:A2 41.6171 
3 *5545:Q *842:26 41.8334 
4 *842:26 *6097:A 43.3475 
*END

*D_NET *843 0.000413868
*CONN
*I *5669:RESET_B I *D sg13g2_dfrbpq_1
*I *5670:L_HI O *D sg13g2_tiehi
*CAP
1 *5669:RESET_B 0.000206934
2 *5670:L_HI 0.000206934
*RES
1 *5670:L_HI *5669:RESET_B 42.1836 
*END

*D_NET *844 0.00121037
*CONN
*I *5837:RESET_B I *D sg13g2_dfrbpq_1
*I *5838:L_HI O *D sg13g2_tiehi
*CAP
1 *5837:RESET_B 0.000232469
2 *5838:L_HI 0.000372718
3 *844:8 0.000605187
4 *844:8 *998:25 0
5 *6084:A *5837:RESET_B 0
6 *584:10 *5837:RESET_B 0
*RES
1 *5838:L_HI *844:8 43.5638 
2 *844:8 *5837:RESET_B 42.266 
*END

*D_NET *845 0.000758155
*CONN
*I *5667:RESET_B I *D sg13g2_dfrbpq_1
*I *5668:L_HI O *D sg13g2_tiehi
*CAP
1 *5667:RESET_B 0.000246455
2 *5668:L_HI 0.000246455
3 *5667:RESET_B *5283:A1 0
4 *5667:CLK *5667:RESET_B 0
5 *638:51 *5667:RESET_B 0.000265245
*RES
1 *5668:L_HI *5667:RESET_B 42.7192 
*END

*D_NET *846 0.00135335
*CONN
*I *5765:RESET_B I *D sg13g2_dfrbpq_1
*I *5766:L_HI O *D sg13g2_tiehi
*CAP
1 *5765:RESET_B 0.000233697
2 *5766:L_HI 0.000161656
3 *846:8 0.000395353
4 *846:8 *1028:37 0.00056264
5 *5765:D *5765:RESET_B 0
*RES
1 *5766:L_HI *846:8 42.575 
2 *846:8 *5765:RESET_B 42.266 
*END

*D_NET *847 0.000457962
*CONN
*I *5665:RESET_B I *D sg13g2_dfrbpq_1
*I *5666:L_HI O *D sg13g2_tiehi
*CAP
1 *5665:RESET_B 0.000228981
2 *5666:L_HI 0.000228981
3 *5665:RESET_B *5281:A1 0
4 *5665:CLK *5665:RESET_B 0
5 *609:8 *5665:RESET_B 0
*RES
1 *5666:L_HI *5665:RESET_B 42.1836 
*END

*D_NET *848 0.000449302
*CONN
*I *5813:RESET_B I *D sg13g2_dfrbpq_1
*I *5814:L_HI O *D sg13g2_tiehi
*CAP
1 *5813:RESET_B 0.000224651
2 *5814:L_HI 0.000224651
3 *5813:D *5813:RESET_B 0
4 *633:36 *5813:RESET_B 0
*RES
1 *5814:L_HI *5813:RESET_B 42.6162 
*END

*D_NET *849 0.000564826
*CONN
*I *5663:RESET_B I *D sg13g2_dfrbpq_1
*I *5664:L_HI O *D sg13g2_tiehi
*CAP
1 *5663:RESET_B 0.000282413
2 *5664:L_HI 0.000282413
3 *5237:A *5663:RESET_B 0
4 *387:14 *5663:RESET_B 0
*RES
1 *5664:L_HI *5663:RESET_B 42.7192 
*END

*D_NET *850 0.000507208
*CONN
*I *5763:RESET_B I *D sg13g2_dfrbpq_1
*I *5764:L_HI O *D sg13g2_tiehi
*CAP
1 *5763:RESET_B 0.000253604
2 *5764:L_HI 0.000253604
3 *5763:RESET_B *1019:71 0
*RES
1 *5764:L_HI *5763:RESET_B 42.7754 
*END

*D_NET *851 0.00045079
*CONN
*I *5661:RESET_B I *D sg13g2_dfrbpq_1
*I *5662:L_HI O *D sg13g2_tiehi
*CAP
1 *5661:RESET_B 0.000225395
2 *5662:L_HI 0.000225395
3 *5661:RESET_B *5259:B 0
4 *5661:D *5661:RESET_B 0
*RES
1 *5662:L_HI *5661:RESET_B 42.1836 
*END

*D_NET *852 0.000479958
*CONN
*I *5877:RESET_B I *D sg13g2_dfrbpq_1
*I *5878:L_HI O *D sg13g2_tiehi
*CAP
1 *5877:RESET_B 0.000239979
2 *5878:L_HI 0.000239979
3 *5877:RESET_B *1043:8 0
4 *5387:B *5877:RESET_B 0
*RES
1 *5878:L_HI *5877:RESET_B 42.1836 
*END

*D_NET *853 0.00195922
*CONN
*I *6098:A I *D sg13g2_buf_1
*I *5085:A2 I *D sg13g2_o21ai_1
*I *5547:Q O *D sg13g2_dfrbpq_1
*CAP
1 *6098:A 0.000167426
2 *5085:A2 0.000189691
3 *5547:Q 0.00057475
4 *853:28 0.000458209
5 *853:8 0.000473658
6 *643:27 *5085:A2 0
7 *707:72 *5085:A2 1.54008e-05
8 *707:87 *5085:A2 8.00842e-05
*RES
1 *5547:Q *853:8 43.3166 
2 *853:8 *5085:A2 41.6171 
3 *5547:Q *853:28 43.2033 
4 *853:28 *6098:A 41.8334 
*END

*D_NET *854 0.000406282
*CONN
*I *5659:RESET_B I *D sg13g2_dfrbpq_1
*I *5660:L_HI O *D sg13g2_tiehi
*CAP
1 *5659:RESET_B 0.000203141
2 *5660:L_HI 0.000203141
3 *5659:D *5659:RESET_B 0
*RES
1 *5660:L_HI *5659:RESET_B 42.1836 
*END

*D_NET *855 0.000440389
*CONN
*I *5761:RESET_B I *D sg13g2_dfrbpq_1
*I *5762:L_HI O *D sg13g2_tiehi
*CAP
1 *5761:RESET_B 0.000220194
2 *5762:L_HI 0.000220194
3 *617:6 *5761:RESET_B 0
4 *624:32 *5761:RESET_B 0
*RES
1 *5762:L_HI *5761:RESET_B 42.4308 
*END

*D_NET *856 0.00131532
*CONN
*I *5657:RESET_B I *D sg13g2_dfrbpq_1
*I *5658:L_HI O *D sg13g2_tiehi
*CAP
1 *5657:RESET_B 0
2 *5658:L_HI 0.000487896
3 *856:10 0.000487896
4 *856:10 *5015:A 0
5 *856:10 *1012:57 0
6 *856:10 *1106:8 0
7 *421:10 *856:10 0
8 *620:25 *856:10 0.00033953
*RES
1 *5658:L_HI *856:10 45.8298 
2 *856:10 *5657:RESET_B 40 
*END

*D_NET *857 0.000492249
*CONN
*I *5811:RESET_B I *D sg13g2_dfrbpq_1
*I *5812:L_HI O *D sg13g2_tiehi
*CAP
1 *5811:RESET_B 0.000246124
2 *5812:L_HI 0.000246124
3 *5811:RESET_B *1049:16 0
4 *5811:D *5811:RESET_B 0
5 *5811:CLK *5811:RESET_B 0
*RES
1 *5812:L_HI *5811:RESET_B 42.6162 
*END

*D_NET *858 0.000460108
*CONN
*I *5655:RESET_B I *D sg13g2_dfrbpq_1
*I *5656:L_HI O *D sg13g2_tiehi
*CAP
1 *5655:RESET_B 0.000230054
2 *5656:L_HI 0.000230054
3 *5655:RESET_B *1031:72 0
4 *709:47 *5655:RESET_B 0
*RES
1 *5656:L_HI *5655:RESET_B 42.1836 
*END

*D_NET *859 0.000494052
*CONN
*I *5759:RESET_B I *D sg13g2_dfrbpq_1
*I *5760:L_HI O *D sg13g2_tiehi
*CAP
1 *5759:RESET_B 0.000247026
2 *5760:L_HI 0.000247026
3 *712:71 *5759:RESET_B 0
*RES
1 *5760:L_HI *5759:RESET_B 42.8634 
*END

*D_NET *860 0.000547124
*CONN
*I *5653:RESET_B I *D sg13g2_dfrbpq_1
*I *5654:L_HI O *D sg13g2_tiehi
*CAP
1 *5653:RESET_B 0.000273562
2 *5654:L_HI 0.000273562
3 *5653:RESET_B *1102:69 0
4 *5593:D *5653:RESET_B 0
5 *252:12 *5653:RESET_B 0
*RES
1 *5654:L_HI *5653:RESET_B 42.9664 
*END

*D_NET *861 0.000514512
*CONN
*I *5835:RESET_B I *D sg13g2_dfrbpq_1
*I *5836:L_HI O *D sg13g2_tiehi
*CAP
1 *5835:RESET_B 0.000257256
2 *5836:L_HI 0.000257256
3 *5835:D *5835:RESET_B 0
4 *699:30 *5835:RESET_B 0
*RES
1 *5836:L_HI *5835:RESET_B 42.6162 
*END

*D_NET *862 0.000638553
*CONN
*I *5651:RESET_B I *D sg13g2_dfrbpq_1
*I *5652:L_HI O *D sg13g2_tiehi
*CAP
1 *5651:RESET_B 0.000239418
2 *5652:L_HI 0.000239418
3 *5249:A1 *5651:RESET_B 0
4 *5591:CLK *5651:RESET_B 1.54556e-05
5 *5651:D *5651:RESET_B 0
6 *629:52 *5651:RESET_B 0.000144261
*RES
1 *5652:L_HI *5651:RESET_B 42.781 
*END

*D_NET *863 0.000501755
*CONN
*I *5757:RESET_B I *D sg13g2_dfrbpq_1
*I *5758:L_HI O *D sg13g2_tiehi
*CAP
1 *5757:RESET_B 0.000250877
2 *5758:L_HI 0.000250877
3 *5405:B *5757:RESET_B 0
4 *5757:D *5757:RESET_B 0
5 *5757:CLK *5757:RESET_B 0
*RES
1 *5758:L_HI *5757:RESET_B 42.8634 
*END

*D_NET *864 0.0080029
*CONN
*I *6099:A I *D sg13g2_buf_1
*I *5088:A2 I *D sg13g2_o21ai_1
*I *5549:Q O *D sg13g2_dfrbpq_1
*CAP
1 *6099:A 0
2 *5088:A2 0.000135841
3 *5549:Q 0.00221575
4 *864:36 0.00192202
5 *864:8 0.000429574
6 *864:36 *6102:A 0
7 *864:36 *6142:A 0.000128618
8 *864:36 *997:28 1.54556e-05
9 boot_addr[6] *864:36 0.00023506
10 spi_cs_n *864:36 0
11 *5450:C *5088:A2 1.54556e-05
12 *5609:CLK *864:8 0
13 *5919:A *5088:A2 0
14 *6093:A *864:36 0
15 *642:24 *864:8 0
16 *643:68 *864:36 0.00160297
17 *665:40 *5088:A2 1.54556e-05
18 *665:51 *5088:A2 6.47546e-05
19 *665:68 *5088:A2 0
20 *716:20 *864:36 0
21 *716:28 *864:36 0.000329402
22 *716:34 *5088:A2 0.000176595
23 *716:34 *864:8 0.000715953
24 *718:20 *864:36 0
*RES
1 *5549:Q *864:8 43.3166 
2 *864:8 *5088:A2 41.4008 
3 *5549:Q *864:36 40.6824 
4 *864:36 *6099:A 20 
*END

*D_NET *865 0.000776474
*CONN
*I *5649:RESET_B I *D sg13g2_dfrbpq_1
*I *5650:L_HI O *D sg13g2_tiehi
*CAP
1 *5649:RESET_B 0.000218461
2 *5650:L_HI 0.000218461
3 *704:27 *5649:RESET_B 0.000339552
*RES
1 *5650:L_HI *5649:RESET_B 42.6162 
*END

*D_NET *866 0.000645716
*CONN
*I *5809:RESET_B I *D sg13g2_dfrbpq_1
*I *5810:L_HI O *D sg13g2_tiehi
*CAP
1 *5809:RESET_B 0.00020212
2 *5810:L_HI 0.00020212
3 *5809:RESET_B *1007:16 0.000241477
4 *555:10 *5809:RESET_B 0
5 *605:35 *5809:RESET_B 0
*RES
1 *5810:L_HI *5809:RESET_B 42.1836 
*END

*D_NET *867 0.000851195
*CONN
*I *5647:RESET_B I *D sg13g2_dfrbpq_1
*I *5648:L_HI O *D sg13g2_tiehi
*CAP
1 *5647:RESET_B 0.000184073
2 *5648:L_HI 0.000184073
3 *5235:A2 *5647:RESET_B 0.000209147
4 *255:14 *5647:RESET_B 0.000273902
*RES
1 *5648:L_HI *5647:RESET_B 42.1836 
*END

*D_NET *868 0.000720195
*CONN
*I *5755:RESET_B I *D sg13g2_dfrbpq_1
*I *5756:L_HI O *D sg13g2_tiehi
*CAP
1 *5755:RESET_B 0.000360097
2 *5756:L_HI 0.000360097
3 *5956:A *5755:RESET_B 0
4 *702:73 *5755:RESET_B 0
*RES
1 *5756:L_HI *5755:RESET_B 43.8522 
*END

*D_NET *869 0.000724807
*CONN
*I *5645:RESET_B I *D sg13g2_dfrbpq_1
*I *5646:L_HI O *D sg13g2_tiehi
*CAP
1 *5645:RESET_B 0.000225066
2 *5646:L_HI 0.000225066
3 *5645:RESET_B *5020:A 0.000274676
4 *5136:A2 *5645:RESET_B 0
*RES
1 *5646:L_HI *5645:RESET_B 42.6162 
*END

*D_NET *870 0.000545529
*CONN
*I *5847:RESET_B I *D sg13g2_dfrbpq_1
*I *5848:L_HI O *D sg13g2_tiehi
*CAP
1 *5847:RESET_B 0.000272765
2 *5848:L_HI 0.000272765
3 *5524:B *5847:RESET_B 0
*RES
1 *5848:L_HI *5847:RESET_B 42.6162 
*END

*D_NET *871 0.000534213
*CONN
*I *5643:RESET_B I *D sg13g2_dfrbpq_1
*I *5644:L_HI O *D sg13g2_tiehi
*CAP
1 *5643:RESET_B 0.000267107
2 *5644:L_HI 0.000267107
3 *259:10 *5643:RESET_B 0
*RES
1 *5644:L_HI *5643:RESET_B 42.8634 
*END

*D_NET *872 0.000514625
*CONN
*I *5753:RESET_B I *D sg13g2_dfrbpq_1
*I *5754:L_HI O *D sg13g2_tiehi
*CAP
1 *5753:RESET_B 0.000257313
2 *5754:L_HI 0.000257313
3 *6026:A *5753:RESET_B 0
4 *673:66 *5753:RESET_B 0
*RES
1 *5754:L_HI *5753:RESET_B 42.6162 
*END

*D_NET *873 0.000654263
*CONN
*I *5641:RESET_B I *D sg13g2_dfrbpq_1
*I *5642:L_HI O *D sg13g2_tiehi
*CAP
1 *5641:RESET_B 0.000189892
2 *5642:L_HI 0.000189892
3 *5134:A2 *5641:RESET_B 0
4 *631:66 *5641:RESET_B 0.000274479
*RES
1 *5642:L_HI *5641:RESET_B 42.1836 
*END

*D_NET *874 0.000485557
*CONN
*I *5807:RESET_B I *D sg13g2_dfrbpq_1
*I *5808:L_HI O *D sg13g2_tiehi
*CAP
1 *5807:RESET_B 0.000242779
2 *5808:L_HI 0.000242779
3 *5807:RESET_B *1049:16 0
4 *5539:CLK *5807:RESET_B 0
*RES
1 *5808:L_HI *5807:RESET_B 42.1836 
*END

*D_NET *875 0.00415569
*CONN
*I *5100:A2 I *D sg13g2_o21ai_1
*I *6100:A I *D sg13g2_buf_1
*I *5557:Q O *D sg13g2_dfrbpq_1
*CAP
1 *5100:A2 0.000115571
2 *6100:A 0.00110022
3 *5557:Q 0.000426274
4 *875:10 0.00121579
5 *875:8 0.000426274
6 *6100:A *5103:A2 0
7 *6100:A *6111:A 0
8 *5100:B1 *5100:A2 1.54556e-05
9 *5101:A *6100:A 0
10 *5103:B1 *6100:A 0.000274583
11 *5104:B *6100:A 0
12 *5557:RESET_B *6100:A 0
13 *5557:D *5100:A2 0
14 *5557:D *6100:A 0
15 *5559:RESET_B *6100:A 0
16 *5559:D *6100:A 0
17 *658:92 *5100:A2 0.000209697
18 *658:92 *6100:A 0.000112769
19 *658:107 *6100:A 0.000259051
20 *706:98 *875:8 0
*RES
1 *5557:Q *875:8 44.7998 
2 *875:8 *875:10 20 
3 *875:10 *6100:A 31.4639 
4 *875:10 *5100:A2 21.4008 
*END

*D_NET *876 0.00372848
*CONN
*I *6101:A I *D sg13g2_buf_1
*I *5091:A2 I *D sg13g2_o21ai_1
*I *5551:Q O *D sg13g2_dfrbpq_1
*CAP
1 *6101:A 0
2 *5091:A2 0.000156142
3 *5551:Q 0.00165279
4 *876:28 0.00135102
5 *876:8 0.000457916
6 *5091:B1 *5091:A2 1.54556e-05
7 *5091:A1 *5091:A2 1.54556e-05
8 *5551:CLK *5091:A2 7.9703e-05
9 *642:12 *876:8 0
10 *642:57 *5091:A2 0
*RES
1 *5551:Q *876:8 42.8222 
2 *876:8 *5091:A2 41.6171 
3 *5551:Q *876:28 35.4809 
4 *876:28 *6101:A 20 
*END

*D_NET *877 0.000407726
*CONN
*I *5639:RESET_B I *D sg13g2_dfrbpq_1
*I *5640:L_HI O *D sg13g2_tiehi
*CAP
1 *5639:RESET_B 0.000203863
2 *5640:L_HI 0.000203863
3 *632:58 *5639:RESET_B 0
*RES
1 *5640:L_HI *5639:RESET_B 42.1836 
*END

*D_NET *878 0.000853223
*CONN
*I *5751:RESET_B I *D sg13g2_dfrbpq_1
*I *5752:L_HI O *D sg13g2_tiehi
*CAP
1 *5751:RESET_B 0.000354115
2 *5752:L_HI 0.000354115
3 *5751:RESET_B *1083:32 0
4 *5751:D *5751:RESET_B 0
5 *519:10 *5751:RESET_B 0.000144993
*RES
1 *5752:L_HI *5751:RESET_B 43.5638 
*END

*D_NET *879 0.000497378
*CONN
*I *5637:RESET_B I *D sg13g2_dfrbpq_1
*I *5638:L_HI O *D sg13g2_tiehi
*CAP
1 *5637:RESET_B 0.000248689
2 *5638:L_HI 0.000248689
3 *5637:RESET_B *1094:44 0
4 *286:41 *5637:RESET_B 0
*RES
1 *5638:L_HI *5637:RESET_B 42.6312 
*END

*D_NET *880 0.000793756
*CONN
*I *5805:RESET_B I *D sg13g2_dfrbpq_1
*I *5806:L_HI O *D sg13g2_tiehi
*CAP
1 *5805:RESET_B 0.000227165
2 *5806:L_HI 0.000227165
3 *5805:D *5805:RESET_B 0
4 *5993:A *5805:RESET_B 0.000339426
5 *556:10 *5805:RESET_B 0
*RES
1 *5806:L_HI *5805:RESET_B 42.6162 
*END

*D_NET *881 0.000481638
*CONN
*I *5635:RESET_B I *D sg13g2_dfrbpq_1
*I *5636:L_HI O *D sg13g2_tiehi
*CAP
1 *5635:RESET_B 0.000240819
2 *5636:L_HI 0.000240819
3 *390:18 *5635:RESET_B 0
4 *639:53 *5635:RESET_B 0
*RES
1 *5636:L_HI *5635:RESET_B 42.6162 
*END

*D_NET *882 0.000532161
*CONN
*I *5749:RESET_B I *D sg13g2_dfrbpq_1
*I *5750:L_HI O *D sg13g2_tiehi
*CAP
1 *5749:RESET_B 0.000262989
2 *5750:L_HI 0.000262989
3 *5749:D *5749:RESET_B 6.18224e-06
4 *714:26 *5749:RESET_B 0
*RES
1 *5750:L_HI *5749:RESET_B 42.6162 
*END

*D_NET *883 0.000434095
*CONN
*I *5633:RESET_B I *D sg13g2_dfrbpq_1
*I *5634:L_HI O *D sg13g2_tiehi
*CAP
1 *5633:RESET_B 0.000217048
2 *5634:L_HI 0.000217048
3 *5633:RESET_B *5158:A1 0
4 *352:25 *5633:RESET_B 0
*RES
1 *5634:L_HI *5633:RESET_B 42.1836 
*END

*D_NET *884 0.000618271
*CONN
*I *5833:RESET_B I *D sg13g2_dfrbpq_1
*I *5834:L_HI O *D sg13g2_tiehi
*CAP
1 *5833:RESET_B 0.000269028
2 *5834:L_HI 0.000269028
3 *5833:RESET_B *1006:77 0
4 *5833:D *5833:RESET_B 0
5 *6084:A *5833:RESET_B 0
6 *648:17 *5833:RESET_B 0
7 *648:32 *5833:RESET_B 8.0216e-05
*RES
1 *5834:L_HI *5833:RESET_B 42.8634 
*END

*D_NET *885 0.000390473
*CONN
*I *5631:RESET_B I *D sg13g2_dfrbpq_1
*I *5632:L_HI O *D sg13g2_tiehi
*CAP
1 *5631:RESET_B 0.000195236
2 *5632:L_HI 0.000195236
3 *5625:CLK *5631:RESET_B 0
4 *348:38 *5631:RESET_B 0
*RES
1 *5632:L_HI *5631:RESET_B 42.1836 
*END

*D_NET *886 0.00046422
*CONN
*I *5747:RESET_B I *D sg13g2_dfrbpq_1
*I *5748:L_HI O *D sg13g2_tiehi
*CAP
1 *5747:RESET_B 0.00023211
2 *5748:L_HI 0.00023211
3 *5695:CLK *5747:RESET_B 0
*RES
1 *5748:L_HI *5747:RESET_B 42.1836 
*END

*D_NET *887 0.0035361
*CONN
*I *6102:A I *D sg13g2_buf_1
*I *5094:A2 I *D sg13g2_o21ai_1
*I *5553:Q O *D sg13g2_dfrbpq_1
*CAP
1 *6102:A 0.000553546
2 *5094:A2 0.000315376
3 *5553:Q 0.000225766
4 *887:27 0.00103317
5 *887:8 0.00102076
6 *5094:A2 *997:28 0
7 *6102:A *6104:A 0
8 *6102:A *997:28 0
9 *887:27 *997:28 0
10 *5553:CLK *5094:A2 0
11 *667:48 *5094:A2 0
12 *667:48 *887:8 0
13 *716:20 *5094:A2 0.00037208
14 *716:20 *887:27 0
15 *716:28 *5094:A2 1.54008e-05
16 *864:36 *6102:A 0
*RES
1 *5553:Q *887:8 42.8222 
2 *887:8 *5094:A2 43.3269 
3 *887:8 *887:27 44.7174 
4 *887:27 *6102:A 44.7778 
*END

*D_NET *888 0.00039383
*CONN
*I *5629:RESET_B I *D sg13g2_dfrbpq_1
*I *5630:L_HI O *D sg13g2_tiehi
*CAP
1 *5629:RESET_B 0.000196915
2 *5630:L_HI 0.000196915
*RES
1 *5630:L_HI *5629:RESET_B 42.1836 
*END

*D_NET *889 0.00115013
*CONN
*I *5803:RESET_B I *D sg13g2_dfrbpq_1
*I *5804:L_HI O *D sg13g2_tiehi
*CAP
1 *5803:RESET_B 0.000200204
2 *5804:L_HI 0.000140501
3 *889:8 0.000340705
4 *889:8 *909:12 0
5 *5803:CLK *5803:RESET_B 0
6 *5983:A *889:8 0.000129163
7 *611:27 *889:8 0
8 *665:22 *5803:RESET_B 0.000339552
9 *703:8 *5803:RESET_B 0
*RES
1 *5804:L_HI *889:8 41.8334 
2 *889:8 *5803:RESET_B 42.266 
*END

*D_NET *890 0.000423483
*CONN
*I *5627:RESET_B I *D sg13g2_dfrbpq_1
*I *5628:L_HI O *D sg13g2_tiehi
*CAP
1 *5627:RESET_B 0.000211741
2 *5628:L_HI 0.000211741
3 *5627:RESET_B *1090:67 0
*RES
1 *5628:L_HI *5627:RESET_B 42.178 
*END

*D_NET *891 0.000384403
*CONN
*I *5745:RESET_B I *D sg13g2_dfrbpq_1
*I *5746:L_HI O *D sg13g2_tiehi
*CAP
1 *5745:RESET_B 0.000192202
2 *5746:L_HI 0.000192202
3 *5393:B *5745:RESET_B 0
4 *713:20 *5745:RESET_B 0
*RES
1 *5746:L_HI *5745:RESET_B 42.1836 
*END

*D_NET *892 0.000481268
*CONN
*I *5625:RESET_B I *D sg13g2_dfrbpq_1
*I *5626:L_HI O *D sg13g2_tiehi
*CAP
1 *5625:RESET_B 0.000240634
2 *5626:L_HI 0.000240634
3 *5192:A1 *5625:RESET_B 0
4 *5193:B1 *5625:RESET_B 0
5 *5625:D *5625:RESET_B 0
6 *5625:CLK *5625:RESET_B 0
7 *348:38 *5625:RESET_B 0
*RES
1 *5626:L_HI *5625:RESET_B 41.4194 
*END

*D_NET *893 0.00113442
*CONN
*I *5853:RESET_B I *D sg13g2_dfrbpq_1
*I *5854:L_HI O *D sg13g2_tiehi
*CAP
1 *5853:RESET_B 5.87609e-05
2 *5854:L_HI 0.000404568
3 *893:12 0.000463329
4 *893:12 *1019:18 0
5 *602:12 *5853:RESET_B 0
6 *605:78 *5853:RESET_B 0
7 *606:6 *893:12 0.000207762
8 *622:12 *893:12 0
*RES
1 *5854:L_HI *893:12 43.8316 
2 *893:12 *5853:RESET_B 40.5356 
*END

*D_NET *894 0.000459929
*CONN
*I *5623:RESET_B I *D sg13g2_dfrbpq_1
*I *5624:L_HI O *D sg13g2_tiehi
*CAP
1 *5623:RESET_B 0.000229965
2 *5624:L_HI 0.000229965
3 *5623:RESET_B *5108:A 0
4 *5563:CLK *5623:RESET_B 0
5 *5623:CLK *5623:RESET_B 0
*RES
1 *5624:L_HI *5623:RESET_B 42.2866 
*END

*D_NET *895 0.000485262
*CONN
*I *5743:RESET_B I *D sg13g2_dfrbpq_1
*I *5744:L_HI O *D sg13g2_tiehi
*CAP
1 *5743:RESET_B 0.000242631
2 *5744:L_HI 0.000242631
3 *5743:RESET_B *1030:30 0
4 *5743:CLK *5743:RESET_B 0
*RES
1 *5744:L_HI *5743:RESET_B 42.6162 
*END

*D_NET *896 0.000428382
*CONN
*I *5621:RESET_B I *D sg13g2_dfrbpq_1
*I *5622:L_HI O *D sg13g2_tiehi
*CAP
1 *5621:RESET_B 0.000214191
2 *5622:L_HI 0.000214191
3 *5621:RESET_B *5105:A 0
4 *5621:CLK *5621:RESET_B 0
*RES
1 *5622:L_HI *5621:RESET_B 42.1836 
*END

*D_NET *897 0.000449403
*CONN
*I *5801:RESET_B I *D sg13g2_dfrbpq_1
*I *5802:L_HI O *D sg13g2_tiehi
*CAP
1 *5801:RESET_B 0.000224701
2 *5802:L_HI 0.000224701
3 *5450:C *5801:RESET_B 0
4 *700:12 *5801:RESET_B 0
*RES
1 *5802:L_HI *5801:RESET_B 42.1836 
*END

*D_NET *898 0.00517505
*CONN
*I *6103:A I *D sg13g2_buf_1
*I *5097:A2 I *D sg13g2_o21ai_1
*I *5555:Q O *D sg13g2_dfrbpq_1
*CAP
1 *6103:A 0
2 *5097:A2 0.00026079
3 *5555:Q 0.000281012
4 *898:27 0.000940187
5 *898:8 0.00148199
6 *5097:B1 *5097:A2 0.000372009
7 *5125:A1 *5097:A2 0.000356476
8 *5125:A1 *898:27 0.000695924
9 *5125:A2 *898:27 0
10 *6081:A *898:27 0.000696158
11 *6096:A *898:27 0
12 *312:10 *898:8 0
13 *643:17 *5097:A2 0
14 *643:17 *898:8 0
15 *643:19 *5097:A2 0
16 *646:6 *898:27 0
17 *665:87 *898:8 0
18 *666:28 *898:27 7.50503e-05
19 *667:56 *5097:A2 1.54556e-05
*RES
1 *5555:Q *898:8 43.0694 
2 *898:8 *5097:A2 43.0797 
3 *898:8 *898:27 30.1352 
4 *898:27 *6103:A 20 
*END

*D_NET *899 0.00143033
*CONN
*I *5539:RESET_B I *D sg13g2_dfrbpq_1
*I *5540:L_HI O *D sg13g2_tiehi
*CAP
1 *5539:RESET_B 0
2 *5540:L_HI 0.000410736
3 *899:10 0.000410736
4 *899:10 *912:10 0.000608855
5 *899:10 *1049:16 0
6 *5539:CLK *899:10 0
7 *672:47 *899:10 0
8 *672:61 *899:10 0
*RES
1 *5540:L_HI *899:10 45.0882 
2 *899:10 *5539:RESET_B 40 
*END

*D_NET *900 0.000479061
*CONN
*I *5857:RESET_B I *D sg13g2_dfrbpq_1
*I *5858:L_HI O *D sg13g2_tiehi
*CAP
1 *5857:RESET_B 0.00023953
2 *5858:L_HI 0.00023953
3 *5857:RESET_B *1025:14 0
4 *5857:D *5857:RESET_B 0
5 *699:20 *5857:RESET_B 0
*RES
1 *5858:L_HI *5857:RESET_B 42.6162 
*END

*D_NET *901 0.000534575
*CONN
*I *5859:RESET_B I *D sg13g2_dfrbpq_1
*I *5860:L_HI O *D sg13g2_tiehi
*CAP
1 *5859:RESET_B 0.000267288
2 *5860:L_HI 0.000267288
3 *5859:D *5859:RESET_B 0
4 *605:296 *5859:RESET_B 0
5 *645:31 *5859:RESET_B 0
*RES
1 *5860:L_HI *5859:RESET_B 42.6162 
*END

*D_NET *902 0.000726299
*CONN
*I *5861:RESET_B I *D sg13g2_dfrbpq_1
*I *5862:L_HI O *D sg13g2_tiehi
*CAP
1 *5861:RESET_B 0.000225877
2 *5862:L_HI 0.000225877
3 *5031:A *5861:RESET_B 0
4 *5861:CLK *5861:RESET_B 0
5 *5946:A *5861:RESET_B 0
6 *261:31 *5861:RESET_B 0.000274545
7 *639:16 *5861:RESET_B 0
*RES
1 *5862:L_HI *5861:RESET_B 42.6162 
*END

*D_NET *903 0.000557541
*CONN
*I *5863:RESET_B I *D sg13g2_dfrbpq_1
*I *5864:L_HI O *D sg13g2_tiehi
*CAP
1 *5863:RESET_B 0.000278771
2 *5864:L_HI 0.000278771
3 *5863:CLK *5863:RESET_B 0
4 *638:16 *5863:RESET_B 0
5 *686:30 *5863:RESET_B 0
6 *686:60 *5863:RESET_B 0
*RES
1 *5864:L_HI *5863:RESET_B 42.6162 
*END

*D_NET *904 0.00045772
*CONN
*I *5865:RESET_B I *D sg13g2_dfrbpq_1
*I *5866:L_HI O *D sg13g2_tiehi
*CAP
1 *5865:RESET_B 0.00022886
2 *5866:L_HI 0.00022886
3 *5733:CLK *5865:RESET_B 0
4 *5865:D *5865:RESET_B 0
*RES
1 *5866:L_HI *5865:RESET_B 42.6162 
*END

*D_NET *905 0.000558974
*CONN
*I *5867:RESET_B I *D sg13g2_dfrbpq_1
*I *5868:L_HI O *D sg13g2_tiehi
*CAP
1 *5867:RESET_B 0.000279487
2 *5868:L_HI 0.000279487
3 *5873:CLK *5867:RESET_B 0
4 *718:22 *5867:RESET_B 0
*RES
1 *5868:L_HI *5867:RESET_B 42.6162 
*END

*D_NET *906 0.000383287
*CONN
*I *5869:RESET_B I *D sg13g2_dfrbpq_1
*I *5870:L_HI O *D sg13g2_tiehi
*CAP
1 *5869:RESET_B 0.000191643
2 *5870:L_HI 0.000191643
3 *5733:CLK *5869:RESET_B 0
*RES
1 *5870:L_HI *5869:RESET_B 42.1836 
*END

*D_NET *907 0.000777407
*CONN
*I *5871:RESET_B I *D sg13g2_dfrbpq_1
*I *5872:L_HI O *D sg13g2_tiehi
*CAP
1 *5871:RESET_B 0.000218927
2 *5872:L_HI 0.000218927
3 *5871:RESET_B *5090:A 0
4 *718:20 *5871:RESET_B 0.000339552
*RES
1 *5872:L_HI *5871:RESET_B 42.6162 
*END

*D_NET *908 0.000402869
*CONN
*I *5873:RESET_B I *D sg13g2_dfrbpq_1
*I *5874:L_HI O *D sg13g2_tiehi
*CAP
1 *5873:RESET_B 0.000201435
2 *5874:L_HI 0.000201435
3 *5873:CLK *5873:RESET_B 0
4 *605:292 *5873:RESET_B 0
*RES
1 *5874:L_HI *5873:RESET_B 42.1836 
*END

*D_NET *909 0.0053001
*CONN
*I *6104:A I *D sg13g2_buf_1
*I *6069:A I *D sg13g2_dlygate4sd3_1
*I *5871:Q O *D sg13g2_dfrbpq_1
*CAP
1 *6104:A 0.00208552
2 *6069:A 0
3 *5871:Q 0.000126473
4 *909:12 0.000231291
5 *909:6 0.00244329
6 *6104:A *997:28 0
7 *909:6 *5011:A 0
8 *5551:RESET_B *6104:A 0
9 *5551:CLK *6104:A 0
10 *6102:A *6104:A 0
11 *611:27 *909:12 0
12 *642:57 *6104:A 0
13 *642:57 *909:6 0
14 *667:44 *6104:A 0.000203674
15 *667:44 *909:6 0.000209856
16 *889:8 *909:12 0
*RES
1 *5871:Q *909:6 21.4008 
2 *909:6 *909:12 42.575 
3 *909:12 *6069:A 20 
4 *909:6 *6104:A 43.1647 
*END

*D_NET *910 0.00101512
*CONN
*I *6079:A I *D sg13g2_buf_1
*I *6028:X O *D sg13g2_dlygate4sd3_1
*CAP
1 *6079:A 0.000387458
2 *6028:X 0.000387458
3 *6079:A *982:12 0
4 boot_wdata[28] *6079:A 0
5 boot_wdata[3] *6079:A 0.000240202
*RES
1 *6028:X *6079:A 44.0479 
*END

*D_NET *911 0.000388037
*CONN
*I *5074:C I *D sg13g2_nor4_1
*I *6029:X O *D sg13g2_dlygate4sd3_1
*CAP
1 *5074:C 0.000170062
2 *6029:X 0.000170062
3 *5074:D *5074:C 4.79124e-05
*RES
1 *6029:X *5074:C 42.1527 
*END

*D_NET *912 0.00150968
*CONN
*I *5539:D I *D sg13g2_dfrbpq_1
*I *6030:X O *D sg13g2_dlygate4sd3_1
*CAP
1 *5539:D 0
2 *6030:X 0.000450413
3 *912:10 0.000450413
4 *912:10 *1049:16 0
5 *672:47 *912:10 0
6 *899:10 *912:10 0.000608855
*RES
1 *6030:X *912:10 45.2451 
2 *912:10 *5539:D 40 
*END

*D_NET *913 0.00123747
*CONN
*I *5365:B1 I *D sg13g2_a21oi_1
*I *6031:X O *D sg13g2_dlygate4sd3_1
*CAP
1 *5365:B1 0
2 *6031:X 0.000611033
3 *913:10 0.000611033
4 *913:10 *962:8 0
5 *913:10 *993:32 0
6 *619:16 *913:10 1.54008e-05
7 *628:36 *913:10 0
8 *663:103 *913:10 0
9 *717:61 *913:10 0
*RES
1 *6031:X *913:10 46.4169 
2 *913:10 *5365:B1 40 
*END

*D_NET *914 0.0010309
*CONN
*I *5377:B1 I *D sg13g2_a21oi_1
*I *6032:X O *D sg13g2_dlygate4sd3_1
*CAP
1 *5377:B1 0.00023199
2 *6032:X 0.000283459
3 *914:8 0.000515449
4 *5377:B1 *5444:A1 0
5 *914:8 *1077:25 0
6 *685:22 *914:8 0
7 *685:26 *5377:B1 0
*RES
1 *6032:X *914:8 43.0694 
2 *914:8 *5377:B1 42.0497 
*END

*D_NET *915 0.000504616
*CONN
*I *5729:D I *D sg13g2_dfrbpq_1
*I *6033:X O *D sg13g2_dlygate4sd3_1
*CAP
1 *5729:D 0.000241309
2 *6033:X 0.000241309
3 *5729:D *1017:6 0
4 *694:87 *5729:D 2.19969e-05
*RES
1 *6033:X *5729:D 42.8119 
*END

*D_NET *916 0.00101664
*CONN
*I *5374:B1 I *D sg13g2_a21oi_1
*I *6034:X O *D sg13g2_dlygate4sd3_1
*CAP
1 *5374:B1 0.000166552
2 *6034:X 0.000341767
3 *916:8 0.000508319
4 *5374:B1 *1019:71 0
5 *916:8 *1018:8 0
6 *916:8 *1027:78 0
7 *5374:A1 *5374:B1 0
8 *5374:A2 *5374:B1 0
9 *5375:A *5374:B1 0
10 *5727:D *5374:B1 0
*RES
1 *6034:X *916:8 43.811 
2 *916:8 *5374:B1 41.4008 
*END

*D_NET *917 0.00196463
*CONN
*I *5307:A I *D sg13g2_nor2_1
*I *5532:A I *D sg13g2_nor2_1
*I *6035:X O *D sg13g2_dlygate4sd3_1
*CAP
1 *5307:A 0.000253948
2 *5532:A 0.000572446
3 *6035:X 8.42139e-05
4 *917:8 0.000910608
5 *5307:A *5301:B 0
6 *5307:A *1017:75 0
7 *5307:A *1019:18 0
8 *602:12 *5532:A 0.000143413
9 *606:6 *5532:A 0
10 *606:12 *5532:A 0
11 *606:12 *917:8 0
12 *622:10 *5532:A 0
13 *622:10 *917:8 0
14 *622:12 *5532:A 0
*RES
1 *6035:X *917:8 40.8446 
2 *917:8 *5532:A 45.2118 
3 *917:8 *5307:A 42.6986 
*END

*D_NET *918 0.00102386
*CONN
*I *5362:B1 I *D sg13g2_a21oi_1
*I *6036:X O *D sg13g2_dlygate4sd3_1
*CAP
1 *5362:B1 0.000390885
2 *6036:X 0.000390885
3 *5719:CLK *5362:B1 0.000242089
4 *663:71 *5362:B1 0
5 *689:60 *5362:B1 0
*RES
1 *6036:X *5362:B1 44.6865 
*END

*D_NET *919 0.000212025
*CONN
*I *5359:B1 I *D sg13g2_a21oi_1
*I *6037:X O *D sg13g2_dlygate4sd3_1
*CAP
1 *5359:B1 0.000106012
2 *6037:X 0.000106012
*RES
1 *6037:X *5359:B1 41.339 
*END

*D_NET *920 0.00741949
*CONN
*I *6105:A I *D sg13g2_buf_1
*I *5384:A0 I *D sg13g2_mux2_1
*I *5737:Q O *D sg13g2_dfrbpq_1
*CAP
1 *6105:A 0
2 *5384:A0 5.69052e-05
3 *5737:Q 0.000884832
4 *920:32 0.00163836
5 *920:28 0.00177875
6 *920:10 0.000801343
7 *5384:A0 *5384:A1 1.54008e-05
8 *920:32 *5404:A0 0
9 *920:32 *5404:A1 0
10 *920:32 *970:23 0
11 *920:32 *1020:113 0
12 *920:32 *1063:14 0
13 *5385:A *5384:A0 0
14 *5689:D *920:10 0.000144849
15 *5689:CLK *920:32 0.00145861
16 *6026:A *920:28 0
17 *185:8 *920:10 0
18 *484:8 *920:32 0
19 *626:14 *920:10 0
20 *626:14 *920:32 0
21 *628:12 *920:32 0.000640446
22 *663:34 *5384:A0 0
23 *673:26 *920:10 0
24 *673:43 *920:10 0
25 *701:109 *920:10 0
*RES
1 *5737:Q *920:10 47.9928 
2 *920:10 *5384:A0 40.5356 
3 *5737:Q *920:28 41.4008 
4 *920:28 *920:32 42.351 
5 *920:32 *6105:A 20 
*END

*D_NET *921 0.000276021
*CONN
*I *5717:D I *D sg13g2_dfrbpq_1
*I *6038:X O *D sg13g2_dlygate4sd3_1
*CAP
1 *5717:D 0.000138011
2 *6038:X 0.000138011
3 *5360:A *5717:D 0
4 *6038:A *5717:D 0
*RES
1 *6038:X *5717:D 41.1845 
*END

*D_NET *922 0.000559121
*CONN
*I *5380:B1 I *D sg13g2_a21oi_1
*I *6039:X O *D sg13g2_dlygate4sd3_1
*CAP
1 *5380:B1 0
2 *6039:X 0.00027956
3 *922:8 0.00027956
*RES
1 *6039:X *922:8 43.5638 
2 *922:8 *5380:B1 40 
*END

*D_NET *923 0.000624675
*CONN
*I *5731:D I *D sg13g2_dfrbpq_1
*I *6040:X O *D sg13g2_dlygate4sd3_1
*CAP
1 *5731:D 0
2 *6040:X 0.000220402
3 *923:10 0.000220402
4 *623:31 *923:10 0
5 *623:44 *923:10 0.00018387
*RES
1 *6040:X *923:10 42.5235 
2 *923:10 *5731:D 40 
*END

*D_NET *924 0.000407884
*CONN
*I *5371:B1 I *D sg13g2_a21oi_1
*I *6041:X O *D sg13g2_dlygate4sd3_1
*CAP
1 *5371:B1 0.000203942
2 *6041:X 0.000203942
3 *5709:CLK *5371:B1 0
*RES
1 *6041:X *5371:B1 42.575 
*END

*D_NET *925 0.000978388
*CONN
*I *5368:B1 I *D sg13g2_a21oi_1
*I *6042:X O *D sg13g2_dlygate4sd3_1
*CAP
1 *5368:B1 0.000198166
2 *6042:X 0.000291028
3 *925:8 0.000489194
4 *925:8 *984:30 0
5 *6043:A *5368:B1 0
6 *627:10 *925:8 0
*RES
1 *6042:X *925:8 43.0694 
2 *925:8 *5368:B1 41.9673 
*END

*D_NET *926 0.000350397
*CONN
*I *5723:D I *D sg13g2_dfrbpq_1
*I *6043:X O *D sg13g2_dlygate4sd3_1
*CAP
1 *5723:D 0.000175199
2 *6043:X 0.000175199
3 *5369:B *5723:D 0
4 *5723:RESET_B *5723:D 0
5 *618:10 *5723:D 0
*RES
1 *6043:X *5723:D 41.7819 
*END

*D_NET *927 0.0013578
*CONN
*I *5469:B1 I *D sg13g2_a21oi_1
*I *6044:X O *D sg13g2_dlygate4sd3_1
*CAP
1 *5469:B1 0
2 *6044:X 0.000348161
3 *927:8 0.000348161
4 *927:8 *1123:10 0.000661472
5 *927:8 *1123:14 0
6 *676:68 *927:8 0
*RES
1 *6044:X *927:8 44.5526 
2 *927:8 *5469:B1 40 
*END

*D_NET *928 0.00105645
*CONN
*I *5314:B1 I *D sg13g2_a21oi_1
*I *6045:X O *D sg13g2_dlygate4sd3_1
*CAP
1 *5314:B1 0.000145422
2 *6045:X 0.000382805
3 *928:8 0.000528226
4 *5314:A2 *5314:B1 0
5 *702:39 *928:8 0
6 *718:34 *928:8 0
7 *718:36 *928:8 0
*RES
1 *6045:X *928:8 43.811 
2 *928:8 *5314:B1 41.4008 
*END

*D_NET *929 0.000689384
*CONN
*I *5347:B1 I *D sg13g2_a21oi_1
*I *6046:X O *D sg13g2_dlygate4sd3_1
*CAP
1 *5347:B1 0
2 *6046:X 0.000200355
3 *929:8 0.000200355
4 *929:8 *989:23 0
5 *929:8 *1057:36 0
6 *5371:A1 *929:8 0
7 *5371:A2 *929:8 0.000288675
*RES
1 *6046:X *929:8 42.8222 
2 *929:8 *5347:B1 40 
*END

*D_NET *930 9.45957e-05
*CONN
*I *5076:A I *D sg13g2_nor2b_1
*I *6047:X O *D sg13g2_dlygate4sd3_1
*CAP
1 *5076:A 4.72978e-05
2 *6047:X 4.72978e-05
*RES
1 *6047:X *5076:A 40.5974 
*END

*D_NET *931 0.00195794
*CONN
*I *6106:A I *D sg13g2_buf_1
*I *5404:A0 I *D sg13g2_mux2_1
*I *5757:Q O *D sg13g2_dfrbpq_1
*CAP
1 *6106:A 0.000190291
2 *5404:A0 0.000659425
3 *5757:Q 9.13936e-05
4 *931:10 0.00094111
5 *5404:A0 *5404:A1 7.57164e-05
6 boot_wdata[0] *6106:A 0
7 boot_wdata[0] *931:10 0
8 *5757:CLK *6106:A 0
9 *920:32 *5404:A0 0
*RES
1 *5757:Q *931:10 40.9167 
2 *931:10 *5404:A0 48.0134 
3 *931:10 *6106:A 42.0497 
*END

*D_NET *932 0.00104749
*CONN
*I *5287:B1 I *D sg13g2_a21oi_1
*I *6048:X O *D sg13g2_dlygate4sd3_1
*CAP
1 *5287:B1 0.000523745
2 *6048:X 0.000523745
3 *5287:B1 *1023:26 0
4 *5287:A1 *5287:B1 0
5 *5669:CLK *5287:B1 0
*RES
1 *6048:X *5287:B1 45.6753 
*END

*D_NET *933 0.00144511
*CONN
*I *5296:B1 I *D sg13g2_a21oi_1
*I *6049:X O *D sg13g2_dlygate4sd3_1
*CAP
1 *5296:B1 0.000488851
2 *6049:X 0.000488851
3 *5675:CLK *5296:B1 0.000274611
4 *454:10 *5296:B1 4.77425e-05
5 *670:6 *5296:B1 0
6 *671:8 *5296:B1 0
7 *671:75 *5296:B1 0
8 *685:8 *5296:B1 0.000145052
9 *685:10 *5296:B1 0
*RES
1 *6049:X *5296:B1 45.5414 
*END

*D_NET *934 0.0017948
*CONN
*I *5299:B1 I *D sg13g2_a21oi_1
*I *5322:A I *D sg13g2_nor2_1
*I *6050:X O *D sg13g2_dlygate4sd3_1
*CAP
1 *5299:B1 0
2 *5322:A 0
3 *6050:X 0
4 *934:25 0.00021962
5 *934:12 0.000283004
6 *934:4 0.000502625
7 *934:12 *1019:8 0
8 *934:12 *1019:38 0.000447599
9 *934:25 *1019:8 0
10 *5299:A2 *934:25 0.000235556
11 *5677:CLK *934:25 0
12 *456:8 *934:25 0
13 *670:23 *934:25 0.000106392
14 *685:10 *934:12 0
15 *685:10 *934:25 0
16 *696:43 *934:25 0
17 *697:48 *934:12 0
*RES
1 *6050:X *934:4 20 
2 *934:4 *934:12 43.4814 
3 *934:12 *5322:A 20 
4 *934:4 *934:25 42.8634 
5 *934:25 *5299:B1 20 
*END

*D_NET *935 0.000791648
*CONN
*I *5350:B1 I *D sg13g2_a21oi_1
*I *6051:X O *D sg13g2_dlygate4sd3_1
*CAP
1 *5350:B1 0
2 *6051:X 0.000145008
3 *935:8 0.000145008
4 *935:8 *963:8 0
5 *935:8 *1018:20 0
6 *935:8 *1027:78 0.000501632
*RES
1 *6051:X *935:8 42.3278 
2 *935:8 *5350:B1 40 
*END

*D_NET *936 0.000562283
*CONN
*I *5711:D I *D sg13g2_dfrbpq_1
*I *6052:X O *D sg13g2_dlygate4sd3_1
*CAP
1 *5711:D 0.000273414
2 *6052:X 0.000273414
3 *5351:A *5711:D 1.54556e-05
4 *5711:RESET_B *5711:D 0
5 *695:56 *5711:D 0
*RES
1 *6052:X *5711:D 43.2754 
*END

*D_NET *937 0.00288787
*CONN
*I *5316:A I *D sg13g2_nor2_1
*I *5293:B1 I *D sg13g2_a21oi_1
*I *6053:X O *D sg13g2_dlygate4sd3_1
*CAP
1 *5316:A 0.000398455
2 *5293:B1 0.000473357
3 *6053:X 0
4 *937:6 0.000871813
5 *5293:B1 *1030:56 0.000345126
6 *5316:A *6053:A 0.000112454
7 *5316:A *1029:10 1.54008e-05
8 *5316:A *1030:56 0.000429632
9 *5293:A2 *5293:B1 0
10 *5673:CLK *5293:B1 0.000241631
11 *5992:A *5293:B1 0
12 *5992:A *5316:A 0
13 *6026:A *5316:A 0
*RES
1 *6053:X *937:6 40 
2 *937:6 *5293:B1 45.2839 
3 *937:6 *5316:A 44.5629 
*END

*D_NET *938 0.00122299
*CONN
*I *5304:A I *D sg13g2_nor2_1
*I *6054:X O *D sg13g2_dlygate4sd3_1
*CAP
1 *5304:A 0.000490438
2 *6054:X 0.000490438
3 *5304:A *5304:B 0
4 *5304:A *6014:A 0
5 *5304:A *1017:6 0.000209769
6 *5304:A *1017:47 3.23417e-05
7 *694:45 *5304:A 0
*RES
1 *6054:X *5304:A 45.1809 
*END

*D_NET *939 0.000814197
*CONN
*I *5353:B1 I *D sg13g2_a21oi_1
*I *6055:X O *D sg13g2_dlygate4sd3_1
*CAP
1 *5353:B1 2.9987e-05
2 *6055:X 0.000127998
3 *939:8 0.000157985
4 *644:39 *5353:B1 4.77425e-05
5 *644:41 *939:8 7.48842e-05
6 *644:63 *939:8 0.000375601
7 *671:41 *5353:B1 0
*RES
1 *6055:X *939:8 42.0806 
2 *939:8 *5353:B1 40.3193 
*END

*D_NET *940 0.00110778
*CONN
*I *5467:A1 I *D sg13g2_a21oi_1
*I *6056:X O *D sg13g2_dlygate4sd3_1
*CAP
1 *5467:A1 0
2 *6056:X 0.000177094
3 *940:8 0.000177094
4 *5466:A *940:8 0.000605458
5 *5468:B *940:8 2.16263e-05
6 *548:8 *940:8 0.00012651
7 *651:31 *940:8 0
*RES
1 *6056:X *940:8 42.8222 
2 *940:8 *5467:A1 40 
*END

*D_NET *941 0.000777514
*CONN
*I *5317:B1 I *D sg13g2_a21oi_1
*I *6057:X O *D sg13g2_dlygate4sd3_1
*CAP
1 *5317:B1 0
2 *6057:X 0.000137526
3 *941:8 0.000137526
4 *701:124 *941:8 0.000502462
*RES
1 *6057:X *941:8 42.3278 
2 *941:8 *5317:B1 40 
*END

*D_NET *942 0.0018982
*CONN
*I *5406:A0 I *D sg13g2_mux2_1
*I *6107:A I *D sg13g2_buf_1
*I *5759:Q O *D sg13g2_dfrbpq_1
*CAP
1 *5406:A0 0
2 *6107:A 0.000139987
3 *5759:Q 0.000330915
4 *942:25 0.000478199
5 *942:10 0.000618186
6 *942:8 0.000330915
7 boot_wdata[11] *942:8 0
8 *5759:D *6107:A 0
9 *5759:D *942:25 0
10 *5759:CLK *6107:A 0
11 *5759:CLK *942:25 0
*RES
1 *5759:Q *942:8 43.811 
2 *942:8 *942:10 20 
3 *942:10 *6107:A 21.4008 
4 *942:10 *942:25 45.7989 
5 *942:25 *5406:A0 20 
*END

*D_NET *943 0.00121524
*CONN
*I *5338:B1 I *D sg13g2_a21oi_1
*I *6058:X O *D sg13g2_dlygate4sd3_1
*CAP
1 *5338:B1 0
2 *6058:X 0.000367819
3 *943:10 0.000367819
4 *5950:A *943:10 0.000241957
5 *674:8 *943:10 0
6 *675:27 *943:10 0.000237643
*RES
1 *6058:X *943:10 43.4505 
2 *943:10 *5338:B1 40 
*END

*D_NET *944 0.000370218
*CONN
*I *5703:D I *D sg13g2_dfrbpq_1
*I *6059:X O *D sg13g2_dlygate4sd3_1
*CAP
1 *5703:D 0.000185109
2 *6059:X 0.000185109
3 *610:8 *5703:D 0
4 *703:47 *5703:D 0
*RES
1 *6059:X *5703:D 42.0291 
*END

*D_NET *945 0.0020201
*CONN
*I *5335:B1 I *D sg13g2_a21oi_1
*I *6060:X O *D sg13g2_dlygate4sd3_1
*CAP
1 *5335:B1 0.000158236
2 *6060:X 0.000270048
3 *945:8 0.000428284
4 *945:8 *1061:10 0.000128663
5 *5701:CLK *5335:B1 0.000208747
6 *664:61 *945:8 0.000826127
7 *689:60 *5335:B1 0
8 *717:55 *945:8 0
*RES
1 *6060:X *945:8 43.811 
2 *945:8 *5335:B1 41.4008 
*END

*D_NET *946 0.0012747
*CONN
*I *5311:B1 I *D sg13g2_a21oi_1
*I *6061:X O *D sg13g2_dlygate4sd3_1
*CAP
1 *5311:B1 0
2 *6061:X 0.000439568
3 *946:10 0.000439568
4 *946:10 *6061:A 0
5 *5401:A *946:10 0
6 *5685:CLK *946:10 0
7 *663:51 *946:10 0.000395568
8 *673:10 *946:10 0
9 *717:31 *946:10 0
*RES
1 *6061:X *946:10 45.1809 
2 *946:10 *5311:B1 40 
*END

*D_NET *947 0.000329392
*CONN
*I *5685:D I *D sg13g2_dfrbpq_1
*I *6062:X O *D sg13g2_dlygate4sd3_1
*CAP
1 *5685:D 0.000164696
2 *6062:X 0.000164696
3 *5312:C *5685:D 0
4 *663:18 *5685:D 0
5 *663:34 *5685:D 0
*RES
1 *6062:X *5685:D 41.5347 
*END

*D_NET *948 0.000935147
*CONN
*I *5356:B1 I *D sg13g2_a21oi_1
*I *6063:X O *D sg13g2_dlygate4sd3_1
*CAP
1 *5356:B1 0
2 *6063:X 6.59732e-05
3 *948:8 6.59732e-05
4 *5380:A2 *948:8 0.0004016
5 *683:61 *948:8 0.0004016
*RES
1 *6063:X *948:8 41.8334 
2 *948:8 *5356:B1 40 
*END

*D_NET *949 0.000889097
*CONN
*I *5329:B1 I *D sg13g2_a21oi_1
*I *6064:X O *D sg13g2_dlygate4sd3_1
*CAP
1 *5329:B1 0
2 *6064:X 0.000216931
3 *949:8 0.000216931
4 *714:45 *949:8 0.000455234
*RES
1 *6064:X *949:8 43.0694 
2 *949:8 *5329:B1 40 
*END

*D_NET *950 0.00127683
*CONN
*I *5492:A I *D sg13g2_nor2_1
*I *6065:X O *D sg13g2_dlygate4sd3_1
*CAP
1 *5492:A 0
2 *6065:X 0.00022726
3 *950:8 0.00022726
4 *5493:A *950:8 0.000822314
5 *681:43 *950:8 0
*RES
1 *6065:X *950:8 43.811 
2 *950:8 *5492:A 40 
*END

*D_NET *951 0.000224022
*CONN
*I *5302:B1 I *D sg13g2_a21oi_1
*I *6066:X O *D sg13g2_dlygate4sd3_1
*CAP
1 *5302:B1 0.000112011
2 *6066:X 0.000112011
3 *671:12 *5302:B1 0
*RES
1 *6066:X *5302:B1 41.339 
*END

*D_NET *952 0.00185197
*CONN
*I *5341:B1 I *D sg13g2_a21oi_1
*I *6067:X O *D sg13g2_dlygate4sd3_1
*CAP
1 *5341:B1 0.000336358
2 *6067:X 0.000217926
3 *952:8 0.000554284
4 *5341:A1 *5341:B1 0
5 *5369:B *5341:B1 0.000533634
6 *5689:CLK *952:8 0
7 *5705:RESET_B *5341:B1 0.000209763
8 *628:12 *952:8 0
9 *689:26 *952:8 0
*RES
1 *6067:X *952:8 42.575 
2 *952:8 *5341:B1 43.914 
*END

*D_NET *953 0.00229427
*CONN
*I *6108:A I *D sg13g2_buf_1
*I *5408:A0 I *D sg13g2_mux2_1
*I *5761:Q O *D sg13g2_dfrbpq_1
*CAP
1 *6108:A 0.000406085
2 *5408:A0 0
3 *5761:Q 3.24992e-05
4 *953:12 0.000670691
5 *953:6 0.00110927
6 *953:12 *964:25 0
7 *953:12 *1057:36 7.57164e-05
*RES
1 *5761:Q *953:6 20.3193 
2 *953:6 *953:12 48.2606 
3 *953:12 *5408:A0 20 
4 *953:6 *6108:A 24.5835 
*END

*D_NET *954 0.000982352
*CONN
*I *5344:B1 I *D sg13g2_a21oi_1
*I *6068:X O *D sg13g2_dlygate4sd3_1
*CAP
1 *5344:B1 2.91287e-05
2 *6068:X 0.000160831
3 *954:8 0.00018996
4 *954:8 *5406:A1 0.000554579
5 *486:10 *5344:B1 4.78524e-05
*RES
1 *6068:X *954:8 42.575 
2 *954:8 *5344:B1 40.3193 
*END

*D_NET *955 0.00045971
*CONN
*I *5011:A I *D sg13g2_inv_1
*I *6069:X O *D sg13g2_dlygate4sd3_1
*CAP
1 *5011:A 0.000124927
2 *6069:X 0.000124927
3 *642:57 *5011:A 0.000209856
4 *667:44 *5011:A 0
5 *909:6 *5011:A 0
*RES
1 *6069:X *5011:A 41.4008 
*END

*D_NET *956 0.000682532
*CONN
*I *5029:A I *D sg13g2_nand3_1
*I *6070:X O *D sg13g2_dlygate4sd3_1
*CAP
1 *5029:A 0
2 *6070:X 5.26769e-05
3 *956:8 5.26769e-05
4 *638:59 *956:8 0.000288589
5 *715:118 *956:8 0.000288589
*RES
1 *6070:X *956:8 41.339 
2 *956:8 *5029:A 40 
*END

*D_NET *957 0.00115126
*CONN
*I *5490:A1 I *D sg13g2_a21o_1
*I *6071:X O *D sg13g2_dlygate4sd3_1
*CAP
1 *5490:A1 0.000127355
2 *6071:X 0.000141925
3 *957:8 0.000269281
4 *957:8 *1128:12 0.000128248
5 *5490:A2 *5490:A1 0.000242137
6 *573:10 *5490:A1 0.000242313
*RES
1 *6071:X *957:8 41.5862 
2 *957:8 *5490:A1 41.6171 
*END

*D_NET *958 0.00164549
*CONN
*I *5325:A I *D sg13g2_nor2_1
*I *6072:X O *D sg13g2_dlygate4sd3_1
*CAP
1 *5325:A 0.000531949
2 *6072:X 0.000531949
3 *5325:A *5325:B 1.54556e-05
4 *5325:A *6072:A 0
5 *5325:A *1027:108 0.000436805
6 *5325:A *1027:121 0.00012933
7 *5325:A *1028:8 0
8 *5325:A *1030:30 0
*RES
1 *6072:X *5325:A 45.6444 
*END

*D_NET *959 0.00012456
*CONN
*I *5361:A I *D sg13g2_nor2_1
*I *6073:X O *D sg13g2_dlygate4sd3_1
*CAP
1 *5361:A 6.22801e-05
2 *6073:X 6.22801e-05
3 *5361:A *1062:8 0
4 *5363:C *5361:A 0
*RES
1 *6073:X *5361:A 40.5974 
*END

*D_NET *960 0.000471232
*CONN
*I *5334:A I *D sg13g2_nor2_1
*I *6074:X O *D sg13g2_dlygate4sd3_1
*CAP
1 *5334:A 0.000146949
2 *6074:X 0.000146949
3 *5334:A *1020:113 0
4 *5336:C *5334:A 0
5 *6026:A *5334:A 0.000177334
*RES
1 *6074:X *5334:A 41.751 
*END

*D_NET *961 0.000456029
*CONN
*I *5319:A I *D sg13g2_nor2_1
*I *6075:X O *D sg13g2_dlygate4sd3_1
*CAP
1 *5319:A 0.000228014
2 *6075:X 0.000228014
3 *5319:A *5319:B 0
4 *5319:A *1029:21 0
5 *5319:A *1079:8 0
*RES
1 *6075:X *5319:A 42.2145 
*END

*D_NET *962 0.000427273
*CONN
*I *5364:A I *D sg13g2_nor2_1
*I *6076:X O *D sg13g2_dlygate4sd3_1
*CAP
1 *5364:A 0
2 *6076:X 0.000213637
3 *962:8 0.000213637
4 *962:8 *993:32 0
5 *500:8 *962:8 0
6 *689:26 *962:8 0
7 *913:10 *962:8 0
*RES
1 *6076:X *962:8 42.575 
2 *962:8 *5364:A 40 
*END

*D_NET *963 0.000674637
*CONN
*I *5373:A I *D sg13g2_nor2_1
*I *6077:X O *D sg13g2_dlygate4sd3_1
*CAP
1 *5373:A 0.000163629
2 *6077:X 0.000173689
3 *963:8 0.000337319
4 *5373:A *1018:20 0
5 *963:8 *1027:78 0
6 *623:27 *5373:A 0
7 *935:8 *963:8 0
*RES
1 *6077:X *963:8 42.0806 
2 *963:8 *5373:A 41.4008 
*END

*D_NET *964 0.00282003
*CONN
*I *6109:A I *D sg13g2_buf_1
*I *5410:A0 I *D sg13g2_mux2_1
*I *5763:Q O *D sg13g2_dfrbpq_1
*CAP
1 *6109:A 0
2 *5410:A0 0
3 *5763:Q 0
4 *964:25 0.000721223
5 *964:12 0.00068879
6 *964:4 0.00141001
7 *5409:A *964:25 0
8 *5899:A *964:25 0
9 *5900:A *964:25 0
10 *617:6 *964:12 0
11 *617:6 *964:25 0
12 *697:48 *964:12 0
13 *711:75 *964:12 0
14 *711:90 *964:12 0
15 *953:12 *964:25 0
*RES
1 *5763:Q *964:4 20 
2 *964:4 *964:12 48.3018 
3 *964:12 *5410:A0 20 
4 *964:4 *964:25 48.6417 
5 *964:25 *6109:A 20 
*END

*D_NET *965 0.0012257
*CONN
*I *5412:A0 I *D sg13g2_mux2_1
*I *6110:A I *D sg13g2_buf_1
*I *5765:Q O *D sg13g2_dfrbpq_1
*CAP
1 *5412:A0 0.000340154
2 *6110:A 0.000145155
3 *5765:Q 0.00012754
4 *965:8 0.000612849
5 *5412:A0 *5412:S 0
6 *5413:A *5412:A0 0
7 *714:51 *5412:A0 0
*RES
1 *5765:Q *965:8 21.9982 
2 *965:8 *6110:A 21.8334 
3 *965:8 *5412:A0 23.7801 
*END

*D_NET *966 0.00157047
*CONN
*I *5103:A2 I *D sg13g2_o21ai_1
*I *6111:A I *D sg13g2_buf_1
*I *5559:Q O *D sg13g2_dfrbpq_1
*CAP
1 *5103:A2 0.000151487
2 *6111:A 0.000352125
3 *5559:Q 0.000266166
4 *966:10 0.000503613
5 *966:8 0.000266166
6 boot_addr[10] *6111:A 0
7 boot_addr[11] *6111:A 0
8 *5103:B1 *5103:A2 1.54556e-05
9 *5559:CLK *5103:A2 0
10 *5559:CLK *6111:A 0
11 *6097:A *6111:A 0
12 *6100:A *5103:A2 0
13 *6100:A *6111:A 0
14 *658:107 *5103:A2 1.54556e-05
15 *842:26 *966:8 0
*RES
1 *5559:Q *966:8 43.0694 
2 *966:8 *966:10 20 
3 *966:10 *6111:A 23.6771 
4 *966:10 *5103:A2 21.4008 
*END

*D_NET *967 0.00269219
*CONN
*I *6112:A I *D sg13g2_buf_1
*I *5414:A0 I *D sg13g2_mux2_1
*I *5767:Q O *D sg13g2_dfrbpq_1
*CAP
1 *6112:A 0.000325617
2 *5414:A0 0.000254885
3 *5767:Q 0.000203122
4 *967:10 0.000783624
5 *5414:A0 *5430:S 0.000714418
6 *5414:A0 *1027:54 0.000182109
7 *6112:A *6121:A 0
8 *967:10 *5430:A0 0
9 *967:10 *5430:S 0.000212958
10 *967:10 *6121:A 1.54556e-05
11 *5431:A *967:10 0
12 *5431:B *967:10 0
13 *647:44 *6112:A 0
*RES
1 *5767:Q *967:10 43.1415 
2 *967:10 *5414:A0 44.0582 
3 *967:10 *6112:A 43.7801 
*END

*D_NET *968 0.00243901
*CONN
*I *6113:A I *D sg13g2_buf_1
*I *5416:A0 I *D sg13g2_mux2_1
*I *5769:Q O *D sg13g2_dfrbpq_1
*CAP
1 *6113:A 2.93497e-05
2 *5416:A0 0.000553609
3 *5769:Q 0.000259418
4 *968:10 0.000842377
5 *5416:A0 *5416:A1 7.57164e-05
6 *5416:A0 *994:21 0
7 *6113:A *6125:A 0
8 *968:10 *6125:A 4.76034e-05
9 boot_wdata[16] *968:10 0.000235457
10 *717:55 *5416:A0 0.000395481
*RES
1 *5769:Q *968:10 43.2033 
2 *968:10 *5416:A0 47.519 
3 *968:10 *6113:A 40.3193 
*END

*D_NET *969 0.00772159
*CONN
*I *6114:A I *D sg13g2_buf_1
*I *5418:A0 I *D sg13g2_mux2_1
*I *5771:Q O *D sg13g2_dfrbpq_1
*CAP
1 *6114:A 0
2 *5418:A0 0.000522015
3 *5771:Q 0.00015167
4 *969:23 0.00116709
5 *969:8 0.00184078
6 *5418:A0 *5418:A1 4.77425e-05
7 *969:23 *5434:A0 0
8 *969:23 *6124:A 0
9 *5435:A *969:8 0
10 *5950:A *5418:A0 0
11 *641:12 *5418:A0 0
12 *641:41 *969:23 0
13 *667:23 *5418:A0 0.00178211
14 *667:23 *969:23 0.00221019
15 *718:57 *5418:A0 0
16 *718:57 *969:23 0
17 *718:72 *969:23 0
*RES
1 *5771:Q *969:8 41.6171 
2 *969:8 *5418:A0 48.5799 
3 *969:8 *969:23 37.1598 
4 *969:23 *6114:A 20 
*END

*D_NET *970 0.0017383
*CONN
*I *5420:A0 I *D sg13g2_mux2_1
*I *6115:A I *D sg13g2_buf_1
*I *5773:Q O *D sg13g2_dfrbpq_1
*CAP
1 *5420:A0 0
2 *6115:A 2.47139e-05
3 *5773:Q 0.000162646
4 *970:23 0.000657862
5 *970:8 0.000845222
6 *970:23 *1063:14 0
7 *5404:S *970:23 0
8 *619:16 *970:23 4.78521e-05
9 *663:103 *970:23 0
10 *920:32 *970:23 0
*RES
1 *5773:Q *970:8 21.7819 
2 *970:8 *6115:A 20.291 
3 *970:8 *970:23 48.0546 
4 *970:23 *5420:A0 20 
*END

*D_NET *971 0.00194669
*CONN
*I *6116:A I *D sg13g2_buf_1
*I *5422:A0 I *D sg13g2_mux2_1
*I *5775:Q O *D sg13g2_dfrbpq_1
*CAP
1 *6116:A 0.00019484
2 *5422:A0 0.000652573
3 *5775:Q 8.83221e-05
4 *971:10 0.000935736
5 *5422:A0 *981:21 0
6 *5422:A0 *1064:30 7.52149e-05
*RES
1 *5775:Q *971:10 40.9167 
2 *971:10 *5422:A0 48.0134 
3 *971:10 *6116:A 42.0497 
*END

*D_NET *972 0.00732961
*CONN
*I *6117:A I *D sg13g2_buf_1
*I *5386:A0 I *D sg13g2_mux2_1
*I *5739:Q O *D sg13g2_dfrbpq_1
*CAP
1 *6117:A 0.000825812
2 *5386:A0 0.000364456
3 *5739:Q 0.000183859
4 *972:27 0.00311649
5 *972:8 0.00283899
6 *79:12 *5386:A0 0
7 *79:12 *972:27 0
8 *79:32 *972:27 0
9 *716:73 *972:27 0
*RES
1 *5739:Q *972:8 42.0806 
2 *972:8 *5386:A0 43.6771 
3 *972:8 *972:27 45.2041 
4 *972:27 *6117:A 29.0331 
*END

*D_NET *973 0.00204455
*CONN
*I *6118:A I *D sg13g2_buf_1
*I *5424:A0 I *D sg13g2_mux2_1
*I *5777:Q O *D sg13g2_dfrbpq_1
*CAP
1 *6118:A 0.000199226
2 *5424:A0 0.000143149
3 *5777:Q 0.00086803
4 *973:8 0.000811953
5 *5424:A0 *5408:S 0
6 *5424:A0 *1029:70 0
7 *973:8 *989:23 0
8 *973:8 *1066:28 0
9 boot_wdata[12] *973:8 2.21949e-05
10 *205:8 *973:8 0
11 *712:42 *5424:A0 0
*RES
1 *5777:Q *973:8 48.0134 
2 *973:8 *5424:A0 41.4008 
3 *5777:Q *6118:A 42.1012 
*END

*D_NET *974 0.00227615
*CONN
*I *6119:A I *D sg13g2_buf_1
*I *5426:A0 I *D sg13g2_mux2_1
*I *5779:Q O *D sg13g2_dfrbpq_1
*CAP
1 *6119:A 0.000385293
2 *5426:A0 0
3 *5779:Q 0.00110047
4 *974:10 0.000715176
5 *974:10 *1027:92 0
6 *974:10 *1067:23 7.52149e-05
7 *974:10 *1075:10 0
*RES
1 *5779:Q *974:10 48.3018 
2 *974:10 *5426:A0 40 
3 *5779:Q *6119:A 44.2642 
*END

*D_NET *975 0.00332343
*CONN
*I *5428:A0 I *D sg13g2_mux2_1
*I *6120:A I *D sg13g2_buf_1
*I *5781:Q O *D sg13g2_dfrbpq_1
*CAP
1 *5428:A0 0
2 *6120:A 0
3 *5781:Q 0
4 *975:27 0.00072556
5 *975:12 0.000448445
6 *975:4 0.00117401
7 *975:27 *5428:A1 1.53311e-05
8 *5429:A *975:27 0
9 *5429:B *975:27 7.99179e-05
10 *5445:B *975:27 0
11 *5781:RESET_B *975:27 0
12 *5781:CLK *975:27 0.000880173
13 *647:50 *975:12 0
*RES
1 *5781:Q *975:4 20 
2 *975:4 *975:12 45.459 
3 *975:12 *6120:A 20 
4 *975:4 *975:27 49.6099 
5 *975:27 *5428:A0 20 
*END

*D_NET *976 0.00234434
*CONN
*I *5430:A0 I *D sg13g2_mux2_1
*I *6121:A I *D sg13g2_buf_1
*I *5783:Q O *D sg13g2_dfrbpq_1
*CAP
1 *5430:A0 0.000217082
2 *6121:A 0.000304645
3 *5783:Q 0.000537898
4 *976:8 0.00105962
5 *5430:A0 *5430:A1 0
6 *976:8 *5430:S 0
7 *5431:B *5430:A0 0.000209637
8 *5431:B *6121:A 0
9 *5783:RESET_B *5430:A0 0
10 *6112:A *6121:A 0
11 *967:10 *5430:A0 0
12 *967:10 *6121:A 1.54556e-05
*RES
1 *5783:Q *976:8 47.0246 
2 *976:8 *6121:A 43.5226 
3 *976:8 *5430:A0 42.3999 
*END

*D_NET *977 0.00234717
*CONN
*I *6122:A I *D sg13g2_buf_1
*I *5106:A2 I *D sg13g2_o21ai_1
*I *5561:Q O *D sg13g2_dfrbpq_1
*CAP
1 *6122:A 0.000646311
2 *5106:A2 0.000364515
3 *5561:Q 0.000107166
4 *977:8 0.00111799
5 *5106:A1 *5106:A2 1.54556e-05
6 *5559:D *6122:A 0
7 *5561:CLK *5106:A2 0
8 *5561:CLK *977:8 0
9 *97:10 *5106:A2 0
10 *706:64 *5106:A2 1.54556e-05
11 *706:75 *5106:A2 8.0276e-05
*RES
1 *5561:Q *977:8 41.0918 
2 *977:8 *5106:A2 43.7904 
3 *977:8 *6122:A 47.2409 
*END

*D_NET *978 0.00152058
*CONN
*I *5432:A0 I *D sg13g2_mux2_1
*I *6123:A I *D sg13g2_buf_1
*I *5785:Q O *D sg13g2_dfrbpq_1
*CAP
1 *5432:A0 0
2 *6123:A 3.08319e-05
3 *5785:Q 0.000204577
4 *978:23 0.000524881
5 *978:10 0.00076029
6 *978:23 *6124:A 0
7 boot_wdata[17] *978:10 0
8 boot_wdata[25] *6123:A 0
9 boot_wdata[25] *978:10 0
*RES
1 *5785:Q *978:10 22.1012 
2 *978:10 *6123:A 20.3193 
3 *978:10 *978:23 46.0358 
4 *978:23 *5432:A0 20 
*END

*D_NET *979 0.00372675
*CONN
*I *6124:A I *D sg13g2_buf_1
*I *5434:A0 I *D sg13g2_mux2_1
*I *5787:Q O *D sg13g2_dfrbpq_1
*CAP
1 *6124:A 0.000801633
2 *5434:A0 0.000747459
3 *5787:Q 0.000314284
4 *979:8 0.00186338
5 boot_wdata[17] *6124:A 0
6 boot_wdata[25] *6124:A 0
7 *5434:S *5434:A0 0
8 *5785:CLK *6124:A 0
9 *663:75 *5434:A0 0
10 *663:75 *6124:A 0
11 *667:23 *979:8 0
12 *718:57 *5434:A0 0
13 *718:59 *5434:A0 0
14 *969:23 *5434:A0 0
15 *969:23 *6124:A 0
16 *978:23 *6124:A 0
*RES
1 *5787:Q *979:8 42.9149 
2 *979:8 *5434:A0 49.2597 
3 *979:8 *6124:A 49.2288 
*END

*D_NET *980 0.00259925
*CONN
*I *6125:A I *D sg13g2_buf_1
*I *5436:A0 I *D sg13g2_mux2_1
*I *5789:Q O *D sg13g2_dfrbpq_1
*CAP
1 *6125:A 0.0003869
2 *5436:A0 0
3 *5789:Q 0.00111595
4 *980:10 0.000729046
5 *6125:A *993:32 0
6 *980:10 *993:32 0
7 *980:10 *994:21 0
8 *980:10 *1072:24 0
9 boot_wdata[26] *6125:A 0.000240035
10 boot_wdata[9] *6125:A 7.97181e-05
11 *6113:A *6125:A 0
12 *211:10 *980:10 0
13 *968:10 *6125:A 4.76034e-05
*RES
1 *5789:Q *980:10 48.3018 
2 *980:10 *5436:A0 40 
3 *5789:Q *6125:A 44.2642 
*END

*D_NET *981 0.00262839
*CONN
*I *5438:A0 I *D sg13g2_mux2_1
*I *6126:A I *D sg13g2_buf_1
*I *5791:Q O *D sg13g2_dfrbpq_1
*CAP
1 *5438:A0 0
2 *6126:A 0.000278804
3 *5791:Q 2.9025e-05
4 *981:21 0.000926705
5 *981:6 0.00123453
6 *981:21 *984:30 7.99037e-05
7 boot_wdata[2] *981:21 7.94174e-05
8 *5422:A0 *981:21 0
9 *5757:CLK *6126:A 0
*RES
1 *5791:Q *981:6 20.3502 
2 *981:6 *6126:A 23.0488 
3 *981:6 *981:21 30.8665 
4 *981:21 *5438:A0 40 
*END

*D_NET *982 0.00310914
*CONN
*I *6127:A I *D sg13g2_buf_1
*I *5440:A0 I *D sg13g2_mux2_1
*I *5793:Q O *D sg13g2_dfrbpq_1
*CAP
1 *6127:A 0.000387566
2 *5440:A0 0.000469326
3 *5793:Q 0.000438181
4 *982:12 0.00129507
5 *5440:A0 *5440:A1 1.54008e-05
6 *5440:A0 *6041:A 0
7 *5440:A0 *987:25 0
8 *6127:A *987:25 0
9 *982:12 *987:25 0
10 boot_wdata[28] *6127:A 0
11 *5759:CLK *6127:A 4.77537e-05
12 *5793:RESET_B *6127:A 0
13 *5793:CLK *6127:A 0.00027465
14 *6079:A *982:12 0
15 *712:36 *5440:A0 0.000181192
16 *764:10 *5440:A0 0
*RES
1 *5793:Q *982:12 44.5423 
2 *982:12 *5440:A0 45.7577 
3 *982:12 *6127:A 44.2127 
*END

*D_NET *983 0.00324245
*CONN
*I *6128:A I *D sg13g2_buf_1
*I *5442:A0 I *D sg13g2_mux2_1
*I *5795:Q O *D sg13g2_dfrbpq_1
*CAP
1 *6128:A 0.000389418
2 *5442:A0 0
3 *5795:Q 0.000967681
4 *983:10 0.000578263
5 boot_wdata[13] *6128:A 0
6 boot_wdata[29] *6128:A 0.000111491
7 *214:8 *983:10 0
8 *679:35 *983:10 0.0011956
*RES
1 *5795:Q *983:10 47.4366 
2 *983:10 *5442:A0 40 
3 *5795:Q *6128:A 44.2642 
*END

*D_NET *984 0.00641785
*CONN
*I *6129:A I *D sg13g2_buf_1
*I *5388:A0 I *D sg13g2_mux2_1
*I *5741:Q O *D sg13g2_dfrbpq_1
*CAP
1 *6129:A 0
2 *5388:A0 0
3 *5741:Q 0.000651827
4 *984:30 0.00123275
5 *984:24 0.00123275
6 *984:10 0.000651827
7 *984:10 *1023:64 0.000209599
8 *984:10 *1029:47 0
9 *984:10 *1030:41 0.000982896
10 *984:30 *1030:41 0
11 *5317:A1 *984:10 0
12 *5368:A2 *984:30 0.000820983
13 *5741:CLK *984:30 0
14 *502:8 *984:30 0.000555322
15 *605:165 *984:30 0
16 *627:10 *984:30 0
17 *627:32 *984:30 0
18 *687:56 *984:10 0
19 *925:8 *984:30 0
20 *981:21 *984:30 7.99037e-05
*RES
1 *5741:Q *984:10 48.9198 
2 *984:10 *5388:A0 40 
3 *5741:Q *984:24 40 
4 *984:24 *984:30 36.2122 
5 *984:30 *6129:A 20 
*END

*D_NET *985 0.00373689
*CONN
*I *6130:A I *D sg13g2_buf_1
*I *5444:A0 I *D sg13g2_mux2_1
*I *5797:Q O *D sg13g2_dfrbpq_1
*CAP
1 *6130:A 0
2 *5444:A0 0.000858549
3 *5797:Q 0
4 *985:23 0.0010099
5 *985:6 0.00186844
6 *985:23 *6137:A 0
7 *985:23 *992:21 0
8 *985:23 *1027:26 0
9 *985:23 *1027:34 0
10 *985:23 *1028:18 0
11 *5797:D *5444:A0 0
12 *613:21 *5444:A0 0
13 *711:20 *985:23 0
*RES
1 *5797:Q *985:6 40 
2 *985:6 *5444:A0 48.5181 
3 *985:6 *985:23 30.7738 
4 *985:23 *6130:A 20 
*END

*D_NET *986 0.00177123
*CONN
*I *6131:A I *D sg13g2_buf_1
*I *5446:A0 I *D sg13g2_mux2_1
*I *5799:Q O *D sg13g2_dfrbpq_1
*CAP
1 *6131:A 0.000209331
2 *5446:A0 0
3 *5799:Q 0.000186598
4 *986:14 0.000433939
5 *986:8 0.000829868
6 boot_wdata[31] *6131:A 0.000111491
*RES
1 *5799:Q *986:8 21.9673 
2 *986:8 *986:14 45.2942 
3 *986:14 *5446:A0 20 
4 *986:8 *6131:A 22.3999 
*END

*D_NET *987 0.00411501
*CONN
*I *6132:A I *D sg13g2_buf_1
*I *5390:A0 I *D sg13g2_mux2_1
*I *5743:Q O *D sg13g2_dfrbpq_1
*CAP
1 *6132:A 0
2 *5390:A0 0.000766213
3 *5743:Q 0
4 *987:25 0.00129129
5 *987:6 0.00205751
6 *5390:A0 *1029:21 0
7 *5390:A0 *1029:31 0
8 boot_wdata[11] *987:25 0
9 *5440:A0 *987:25 0
10 *5691:CLK *5390:A0 0
11 *6127:A *987:25 0
12 *982:12 *987:25 0
*RES
1 *5743:Q *987:6 40 
2 *987:6 *5390:A0 48.7653 
3 *987:6 *987:25 34.7084 
4 *987:25 *6132:A 20 
*END

*D_NET *988 0.0029757
*CONN
*I *6133:A I *D sg13g2_buf_1
*I *5109:A2 I *D sg13g2_o21ai_1
*I *5563:Q O *D sg13g2_dfrbpq_1
*CAP
1 *6133:A 0
2 *5109:A2 0
3 *5563:Q 0.00148785
4 *988:24 0.00115647
5 *988:10 0.000331383
6 *5110:A *988:10 0
7 *658:16 *988:10 0
8 *706:45 *988:10 0
9 *706:64 *988:10 0
*RES
1 *5563:Q *988:10 43.2342 
2 *988:10 *5109:A2 40 
3 *5563:Q *988:24 33.081 
4 *988:24 *6133:A 20 
*END

*D_NET *989 0.00433609
*CONN
*I *6134:A I *D sg13g2_buf_1
*I *5392:A0 I *D sg13g2_mux2_1
*I *5745:Q O *D sg13g2_dfrbpq_1
*CAP
1 *6134:A 0
2 *5392:A0 0.000603537
3 *5745:Q 0.000149961
4 *989:23 0.00139063
5 *989:8 0.00214413
6 *5392:A0 *5392:A1 4.78359e-05
7 *5392:A0 *1029:31 0
8 *989:23 *1066:28 0
9 *989:23 *1066:41 0
10 *5371:A1 *989:23 0
11 *5372:B *989:8 0
12 *205:8 *989:23 0
13 *671:12 *5392:A0 0
14 *684:29 *5392:A0 0
15 *684:40 *5392:A0 0
16 *684:40 *989:23 0
17 *929:8 *989:23 0
18 *973:8 *989:23 0
*RES
1 *5745:Q *989:8 41.6171 
2 *989:8 *5392:A0 47.3439 
3 *989:8 *989:23 36.171 
4 *989:23 *6134:A 20 
*END

*D_NET *990 0.00729509
*CONN
*I *6135:A I *D sg13g2_buf_1
*I *5394:A0 I *D sg13g2_mux2_1
*I *5747:Q O *D sg13g2_dfrbpq_1
*CAP
1 *6135:A 0
2 *5394:A0 0.00054783
3 *5747:Q 0
4 *990:25 0.000837446
5 *990:6 0.00138528
6 *5394:A0 *6066:A 0
7 *679:35 *5394:A0 0.00172792
8 *679:35 *990:25 0.00279662
*RES
1 *5747:Q *990:6 40 
2 *990:6 *5394:A0 48.549 
3 *990:6 *990:25 33.6269 
4 *990:25 *6135:A 20 
*END

*D_NET *991 0.00203545
*CONN
*I *5396:A0 I *D sg13g2_mux2_1
*I *6136:A I *D sg13g2_buf_1
*I *5749:Q O *D sg13g2_dfrbpq_1
*CAP
1 *5396:A0 0
2 *6136:A 0.00076954
3 *5749:Q 0.000240456
4 *991:10 0.00101
5 *6136:A *5396:A1 1.54556e-05
6 *991:10 *5396:A1 0
*RES
1 *5749:Q *991:10 22.8119 
2 *991:10 *6136:A 28.5181 
3 *991:10 *5396:A0 20 
*END

*D_NET *992 0.00217344
*CONN
*I *5398:A0 I *D sg13g2_mux2_1
*I *6137:A I *D sg13g2_buf_1
*I *5751:Q O *D sg13g2_dfrbpq_1
*CAP
1 *5398:A0 0
2 *6137:A 0.000234019
3 *5751:Q 0
4 *992:21 0.000521799
5 *992:4 0.000755818
6 *992:21 *1027:26 0.000661801
7 *5415:A *992:21 0
8 *5767:RESET_B *992:21 0
9 *5767:D *992:21 0
10 *711:30 *992:21 0
11 *985:23 *6137:A 0
12 *985:23 *992:21 0
*RES
1 *5751:Q *992:4 20 
2 *992:4 *6137:A 22.678 
3 *992:4 *992:21 46.1079 
4 *992:21 *5398:A0 20 
*END

*D_NET *993 0.00525255
*CONN
*I *6138:A I *D sg13g2_buf_1
*I *5400:A0 I *D sg13g2_mux2_1
*I *5753:Q O *D sg13g2_dfrbpq_1
*CAP
1 *6138:A 0
2 *5400:A0 0
3 *5753:Q 0.000740163
4 *993:32 0.00179526
5 *993:24 0.00179526
6 *993:10 0.000740163
7 *993:10 *5364:B 0
8 *993:32 *1072:24 0
9 *5789:CLK *993:32 0
10 *5970:A *993:10 0
11 *6125:A *993:32 0
12 *500:8 *993:32 0
13 *628:36 *993:32 0
14 *628:58 *993:32 0
15 *663:51 *993:10 0.000181694
16 *717:85 *993:32 0
17 *913:10 *993:32 0
18 *962:8 *993:32 0
19 *980:10 *993:32 0
*RES
1 *5753:Q *993:10 48.1782 
2 *993:10 *5400:A0 40 
3 *5753:Q *993:24 40 
4 *993:24 *993:32 40.3322 
5 *993:32 *6138:A 20 
*END

*D_NET *994 0.00755035
*CONN
*I *6139:A I *D sg13g2_buf_1
*I *5402:A0 I *D sg13g2_mux2_1
*I *5755:Q O *D sg13g2_dfrbpq_1
*CAP
1 *6139:A 0
2 *5402:A0 0.000623309
3 *5755:Q 0
4 *994:21 0.00156152
5 *994:6 0.00218483
6 boot_wdata[8] *994:21 0
7 *5416:A0 *994:21 0
8 *5701:CLK *994:21 0.000372556
9 *626:48 *5402:A0 0.000662216
10 *626:48 *994:21 0.000661886
11 *663:16 *5402:A0 0
12 *663:18 *5402:A0 0
13 *664:14 *5402:A0 0
14 *664:61 *5402:A0 0
15 *664:61 *994:21 0
16 *668:31 *5402:A0 0
17 *689:49 *994:21 0.00114158
18 *689:90 *994:21 0.00034245
19 *702:84 *994:21 0
20 *702:107 *994:21 0
21 *980:10 *994:21 0
*RES
1 *5755:Q *994:6 40 
2 *994:6 *5402:A0 48.0855 
3 *994:6 *994:21 41.6094 
4 *994:21 *6139:A 20 
*END

*D_NET *995 0.000398453
*CONN
*I *6140:A I *D sg13g2_buf_1
*I *5735:Q O *D sg13g2_dfrbpq_1
*CAP
1 *6140:A 0.000199226
2 *5735:Q 0.000199226
*RES
1 *5735:Q *6140:A 42.1012 
*END

*D_NET *996 0.00618327
*CONN
*I *6141:A I *D sg13g2_buf_1
*I *5451:B I *D sg13g2_nand2b_1
*I *5803:Q O *D sg13g2_dfrbpq_1
*CAP
1 *6141:A 0.00210446
2 *5451:B 0
3 *5803:Q 0
4 *996:12 0.000389956
5 *996:4 0.00249441
6 *642:10 *6141:A 0.000371297
7 *703:47 *996:12 0.000823144
*RES
1 *5803:Q *996:4 20 
2 *996:4 *996:12 45.6444 
3 *996:12 *5451:B 20 
4 *996:4 *6141:A 44.1329 
*END

*D_NET *997 0.00845203
*CONN
*I *6142:A I *D sg13g2_buf_1
*I *5449:B I *D sg13g2_nand2_1
*I *5801:Q O *D sg13g2_dfrbpq_1
*CAP
1 *6142:A 6.10931e-05
2 *5449:B 0.000156826
3 *5801:Q 0.00313521
4 *997:28 0.00290558
5 *997:8 0.000447551
6 *997:8 *1014:40 0.000923646
7 *997:28 *5090:A 0
8 *5092:B *997:28 0.000209016
9 *5094:A2 *997:28 0
10 *5450:C *5449:B 0
11 *5551:D *997:28 0
12 *5553:CLK *997:28 0
13 *5859:D *997:28 0.000469027
14 *5871:CLK *997:28 0
15 *5921:A *997:28 0
16 *6102:A *997:28 0
17 *6104:A *997:28 0
18 *605:296 *997:28 0
19 *605:300 *997:28 0
20 *605:307 *997:28 0
21 *611:6 *997:28 0
22 *611:27 *997:28 0
23 *642:24 *997:28 0
24 *645:12 *997:8 0
25 *667:44 *997:28 0
26 *700:12 *5449:B 0
27 *716:20 *997:28 0
28 *716:28 *997:28 0
29 *864:36 *6142:A 0.000128618
30 *864:36 *997:28 1.54556e-05
31 *887:27 *997:28 0
*RES
1 *5801:Q *997:8 44.3054 
2 *997:8 *5449:B 41.4008 
3 *5801:Q *997:28 47.3222 
4 *997:28 *6142:A 20.8446 
*END

*D_NET *998 0.00608519
*CONN
*I *5506:A I *D sg13g2_nor2_1
*I *6143:A I *D sg13g2_buf_1
*I *5837:Q O *D sg13g2_dfrbpq_1
*CAP
1 *5506:A 0
2 *6143:A 0
3 *5837:Q 0.00013326
4 *998:25 0.000531817
5 *998:12 0.00237752
6 *998:6 0.00304259
7 *5837:CLK *998:25 0
8 *6086:A *998:6 0
9 *6086:A *998:12 0
10 *844:8 *998:25 0
*RES
1 *5837:Q *998:6 21.4008 
2 *998:6 *998:12 47.5525 
3 *998:12 *6143:A 40 
4 *998:6 *998:25 45.5414 
5 *998:25 *5506:A 20 
*END

*D_NET *999 0.00198275
*CONN
*I *5112:A2 I *D sg13g2_o21ai_1
*I *6144:A I *D sg13g2_buf_1
*I *5565:Q O *D sg13g2_dfrbpq_1
*CAP
1 *5112:A2 0
2 *6144:A 0.000205667
3 *5565:Q 0.00053519
4 *999:10 0.000740857
5 *5111:A *999:10 0
6 *5112:B1 *6144:A 0
7 *658:39 *999:10 0.00050104
*RES
1 *5565:Q *999:10 46.4478 
2 *999:10 *6144:A 42.3999 
3 *999:10 *5112:A2 40 
*END

*D_NET *1000 0.000759534
*CONN
*I *5961:A I *D sg13g2_buf_1
*I *5855:Q O *D sg13g2_dfrbpq_1
*CAP
1 *5961:A 0.000379767
2 *5855:Q 0.000379767
3 *5961:A *5522:D 0
4 *633:36 *5961:A 0
*RES
1 *5855:Q *5961:A 44.1921 
*END

*D_NET *1001 0.0158677
*CONN
*I *5503:B I *D sg13g2_nor2_1
*I *5460:B I *D sg13g2_nand3_1
*I *5494:B I *D sg13g2_nor2_1
*I *5488:C I *D sg13g2_nor3_1
*I *5492:B I *D sg13g2_nor2_1
*I *5497:B I *D sg13g2_nor2_1
*I *5500:B I *D sg13g2_nor2_1
*I *5506:B I *D sg13g2_nor2_1
*I *5999:X O *D sg13g2_buf_1
*CAP
1 *5503:B 0
2 *5460:B 0
3 *5494:B 5.03992e-05
4 *5488:C 0.000563618
5 *5492:B 0
6 *5497:B 9.67994e-05
7 *5500:B 0
8 *5506:B 0
9 *5999:X 0.000260684
10 *1001:111 0.00153246
11 *1001:101 0.00179314
12 *1001:67 0.000257069
13 *1001:61 0.00135545
14 *1001:59 0.000911363
15 *1001:42 0.000907817
16 *1001:28 0.000894704
17 *1001:20 0.0009189
18 *1001:16 0.00103589
19 *1001:6 0.000526874
20 *5488:C *5491:B 0
21 *5488:C *1006:34 0
22 *5488:C *1006:44 0.00027465
23 *5497:B *1131:8 0
24 *5497:B *1131:18 0.00012816
25 *1001:16 *1006:60 0
26 *1001:28 *1132:8 0
27 *1001:28 *1132:27 0
28 *1001:42 *1006:52 0
29 *1001:42 *1006:60 0
30 *1001:42 *1131:18 0.000765875
31 *1001:59 *5494:A 4.78356e-05
32 *1001:59 *5498:B 0
33 *1001:59 *1006:52 0
34 *1001:59 *1131:8 0
35 *1001:61 *5491:A 0
36 *1001:61 *5498:B 0
37 *1001:61 *1006:44 4.77425e-05
38 *1001:61 *1006:50 0.000758693
39 *1001:67 *5495:B 0
40 *1001:67 *1006:44 7.51285e-05
41 *1001:111 *5460:A 0
42 *1001:111 *5475:B 0
43 *1001:111 *5483:A1 0
44 *1001:111 *1118:31 0
45 *5460:C *1001:111 0.00027432
46 *5479:A1 *1001:111 0
47 *5493:A *1001:67 7.52158e-05
48 *5496:C *5494:B 0
49 *5496:C *1001:61 0
50 *5496:D *1001:61 0
51 *5498:C *5488:C 0
52 *5817:RESET_B *1001:111 0
53 *5817:CLK *1001:111 0.000598997
54 *5829:D *5494:B 0
55 *5829:D *1001:61 0
56 *5831:CLK *5497:B 0
57 *5837:CLK *1001:28 0
58 *5891:A *1001:61 0
59 *5924:A *1001:28 0
60 *69:22 *1001:28 0
61 *233:8 *1001:28 0
62 *234:8 *1001:111 0
63 *246:10 *1001:67 0.000232833
64 *551:18 *1001:101 0.000122871
65 *557:12 *1001:111 0
66 *574:10 *1001:67 0
67 *580:8 *1001:16 0.00018128
68 *581:8 *1001:28 0
69 *615:8 *5488:C 0.000792987
70 *648:63 *1001:28 0
71 *680:104 *1001:67 0
72 *693:35 *1001:101 0
73 *693:35 *1001:111 0
74 *693:43 *1001:101 0
75 *693:43 *1001:111 0
76 *693:73 *1001:28 0
77 *693:73 *1001:42 0
78 *693:88 *1001:61 0.000176263
79 *714:26 *1001:101 0.000209736
80 *830:10 *1001:111 0
*RES
1 *5999:X *1001:6 40 
2 *1001:6 *1001:16 46.489 
3 *1001:16 *1001:20 20.3193 
4 *1001:20 *1001:28 49.5996 
5 *1001:28 *5506:B 20 
6 *1001:20 *5500:B 20 
7 *1001:16 *1001:42 5.8298 
8 *1001:42 *5497:B 41.1639 
9 *1001:42 *1001:59 23.3578 
10 *1001:59 *1001:61 5.9431 
11 *1001:61 *1001:67 42.575 
12 *1001:67 *5492:B 20 
13 *1001:61 *5488:C 26.5714 
14 *1001:59 *5494:B 20.6695 
15 *5999:X *1001:101 42.987 
16 *1001:101 *1001:111 36.2328 
17 *1001:111 *5460:B 20 
18 *1001:101 *5503:B 40 
*END

*D_NET *1002 0.0108529
*CONN
*I *5223:B I *D sg13g2_nand4_1
*I *5225:C I *D sg13g2_nand4_1
*I *5230:C I *D sg13g2_nand4_1
*I *5242:C I *D sg13g2_and4_1
*I *5244:C I *D sg13g2_nand4_1
*I *5248:B I *D sg13g2_nand4_1
*I *5256:B I *D sg13g2_and4_1
*I *5258:B I *D sg13g2_nand4_1
*I *6000:X O *D sg13g2_buf_1
*CAP
1 *5223:B 0.000165103
2 *5225:C 0
3 *5230:C 0
4 *5242:C 0
5 *5244:C 4.99552e-05
6 *5248:B 0.000127966
7 *5256:B 0.000188403
8 *5258:B 7.47119e-05
9 *6000:X 1.64015e-05
10 *1002:90 0.000114677
11 *1002:84 0.000973382
12 *1002:69 0.00160049
13 *1002:58 0.0010913
14 *1002:34 0.000239191
15 *1002:32 0.000698957
16 *1002:8 0.000322167
17 *1002:6 0.000528726
18 *5248:B *1102:38 0.000106064
19 *5248:B *1102:40 0.000394981
20 *1002:34 *5038:B 0.000159096
21 *1002:34 *1102:38 0.00012816
22 *1002:58 *5038:B 0.000449257
23 *1002:84 *5039:A 0.000112558
24 *1002:84 *5225:A 0
25 *1002:84 *1098:29 0
26 *1002:84 *1098:31 0
27 *1002:84 *1099:10 0
28 *1002:90 *5225:A 0
29 *1002:90 *1098:31 0
30 *5223:A *5223:B 4.78524e-05
31 *5225:B *1002:90 0.000232848
32 *5225:D *5223:B 0.000240057
33 *5225:D *1002:84 1.54008e-05
34 *5227:A2 *5223:B 0
35 *5227:A2 *1002:84 0
36 *5228:C *1002:84 0
37 *5230:B *1002:69 0
38 *5230:B *1002:84 4.78192e-05
39 *5230:A *1002:84 0
40 *5230:D *1002:84 8.03091e-05
41 *5242:A *1002:32 0
42 *5242:B *1002:69 0
43 *5248:C *5244:C 0
44 *5248:C *5248:B 0
45 *5248:A *5248:B 0.00044363
46 *5258:A *5258:B 3.23965e-05
47 *358:36 *1002:84 0
48 *367:56 *5248:B 7.52149e-05
49 *367:56 *5258:B 1.54556e-05
50 *367:56 *1002:8 0
51 *367:56 *1002:32 0.000435861
52 *367:56 *1002:34 0.000212127
53 *412:8 *1002:69 0.00103228
54 *412:14 *1002:34 0
55 *412:14 *1002:58 0
56 *412:31 *5244:C 1.54556e-05
57 *412:38 *5244:C 6.46888e-05
58 *412:49 *5256:B 1.54556e-05
59 *412:49 *5258:B 0.000144052
60 *412:60 *5256:B 8.03692e-05
61 *425:10 *1002:32 8.00842e-05
62 *700:86 *1002:69 0
*RES
1 *6000:X *1002:6 20.3193 
2 *1002:6 *1002:8 0.5974 
3 *1002:8 *5258:B 20.9682 
4 *1002:8 *5256:B 22.3175 
5 *1002:6 *1002:32 24.9955 
6 *1002:32 *1002:34 1.339 
7 *1002:34 *5248:B 42.6471 
8 *1002:34 *5244:C 40.5356 
9 *1002:32 *1002:58 2.6162 
10 *1002:58 *5242:C 40 
11 *1002:58 *1002:69 29.4966 
12 *1002:69 *5230:C 20 
13 *1002:69 *1002:84 46.4272 
14 *1002:84 *1002:90 41.0918 
15 *1002:90 *5225:C 20 
16 *1002:84 *5223:B 21.6171 
*END

*D_NET *1003 0.00559414
*CONN
*I *5211:B I *D sg13g2_and4_1
*I *5216:C I *D sg13g2_nand4_1
*I *5219:D I *D sg13g2_and4_1
*I *5212:A2 I *D sg13g2_a21o_1
*I *6001:X O *D sg13g2_buf_1
*CAP
1 *5211:B 0
2 *5216:C 0
3 *5219:D 0.000353065
4 *5212:A2 0.000186119
5 *6001:X 0.00045077
6 *1003:31 0.00119745
7 *1003:25 0.00095587
8 *1003:10 0.000748377
9 *5212:A2 *1005:27 5.77065e-05
10 *1003:25 *1015:10 0
11 *1003:31 *5211:A 0.000144542
12 *1003:31 *1015:10 0
13 *1003:31 *1093:58 0
14 *1003:31 *1094:44 0.000401632
15 *269:10 *5219:D 0
16 *283:12 *5219:D 0
17 *284:33 *1003:25 4.76452e-05
18 *284:33 *1003:31 1.54008e-05
19 *286:41 *1003:31 0.000818968
20 *286:53 *1003:31 0
21 *292:12 *5212:A2 0
22 *292:12 *1003:10 0
23 *352:25 *5212:A2 0
24 *352:25 *1003:10 0
25 *358:24 *5219:D 0.000144388
26 *358:36 *5219:D 1.54008e-05
27 *367:42 *5212:A2 5.68051e-05
28 *657:14 *5219:D 0
29 *657:14 *1003:31 0
30 *708:68 *1003:25 0
*RES
1 *6001:X *1003:10 43.3578 
2 *1003:10 *5212:A2 41.4781 
3 *1003:10 *1003:25 20.9682 
4 *1003:25 *1003:31 28.4872 
5 *1003:31 *5219:D 43.6668 
6 *1003:31 *5216:C 40 
7 *1003:25 *5211:B 20 
*END

*D_NET *1004 0.0207926
*CONN
*I *5167:B I *D sg13g2_nor3_1
*I *5185:B I *D sg13g2_nor3_1
*I *5191:B I *D sg13g2_nor3_1
*I *5198:A I *D sg13g2_nor3_1
*I *5210:C1 I *D sg13g2_a221oi_1
*I *5202:A I *D sg13g2_nor3_1
*I *5171:B I *D sg13g2_nor3_1
*I *5164:B I *D sg13g2_nor3_1
*I *6002:X O *D sg13g2_buf_1
*CAP
1 *5167:B 5.49473e-05
2 *5185:B 4.88128e-05
3 *5191:B 4.74775e-05
4 *5198:A 0
5 *5210:C1 0.000836184
6 *5202:A 0.000471571
7 *5171:B 0
8 *5164:B 0.00010485
9 *6002:X 4.9489e-05
10 *1004:82 0.000389344
11 *1004:54 0.00175098
12 *1004:50 0.00150975
13 *1004:44 0.00157359
14 *1004:42 0.00209438
15 *1004:36 0.00164622
16 *1004:25 0.00090523
17 *1004:10 0.00115536
18 *1004:6 0.00058941
19 *5202:A *5200:A 0.000112412
20 *5202:A *1091:20 0
21 *5210:C1 *1091:8 0
22 *5210:C1 *1091:16 0
23 *1004:25 *1013:31 0
24 *1004:36 *1005:19 0
25 *1004:42 *1116:10 0
26 *1004:42 *1116:18 0
27 *1004:42 *1117:8 0.000144817
28 *1004:44 *5108:A 0
29 *1004:44 *1087:20 0
30 *1004:44 *1087:33 0
31 *1004:44 *1088:10 0
32 *1004:44 *1088:36 0
33 *1004:44 *1116:18 0
34 *1004:82 *1090:12 0
35 *5100:B1 *5185:B 0
36 *5164:C *5164:B 0.000144208
37 *5165:B *5164:B 0
38 *5167:A *5167:B 0
39 *5167:A *1004:42 0
40 *5167:C *5167:B 1.54556e-05
41 *5167:C *1004:36 0.000241477
42 *5171:C *1004:25 1.54008e-05
43 *5185:C *5185:B 7.3007e-05
44 *5191:A *5191:B 0
45 *5191:C *5191:B 1.54556e-05
46 *5192:A2 *5210:C1 0
47 *5200:D *5202:A 0
48 *5201:B *5210:C1 0
49 *5202:C *5202:A 0.000112426
50 *5210:B2 *5210:C1 1.54008e-05
51 *5623:CLK *1004:44 0
52 *5623:CLK *1004:50 0
53 *5910:A *5210:C1 0
54 *5912:A *1004:44 0
55 *5913:A *5185:B 4.78521e-05
56 *5988:A *1004:6 8.0057e-05
57 *5988:A *1004:36 0
58 *348:38 *5210:C1 0
59 *349:10 *1004:10 0.000340704
60 *349:25 *1004:10 0.000448515
61 *349:25 *1004:25 0.00218486
62 *370:10 *1004:42 0
63 *370:12 *1004:44 0
64 *374:22 *5202:A 0
65 *374:22 *5210:C1 0
66 *374:26 *5202:A 0
67 *380:8 *5202:A 0.000181601
68 *608:10 *1004:44 0
69 *635:56 *1004:50 0
70 *636:28 *1004:42 0
71 *636:32 *1004:36 0.000403707
72 *636:32 *1004:42 0
73 *662:38 *1004:10 0.000770114
74 *662:38 *1004:25 0.00221749
75 *691:47 *1004:82 0
*RES
1 *6002:X *1004:6 20.5356 
2 *1004:6 *1004:10 23.5638 
3 *1004:10 *5164:B 40.9682 
4 *1004:10 *1004:25 35.0998 
5 *1004:25 *5171:B 20 
6 *1004:6 *1004:36 4.5114 
7 *1004:36 *1004:42 31.1446 
8 *1004:42 *1004:44 8.5078 
9 *1004:44 *1004:50 28.4872 
10 *1004:50 *1004:54 25.5105 
11 *1004:54 *5202:A 45.3045 
12 *1004:54 *5210:C1 47.4675 
13 *1004:50 *1004:82 43.5638 
14 *1004:82 *5198:A 20 
15 *1004:44 *5191:B 40.5356 
16 *1004:42 *5185:B 40.5382 
17 *1004:36 *5167:B 20.5356 
*END

*D_NET *1005 0.0287434
*CONN
*I *5217:C1 I *D sg13g2_a221oi_1
*I *5220:C1 I *D sg13g2_a221oi_1
*I *5224:C1 I *D sg13g2_a221oi_1
*I *5229:C1 I *D sg13g2_a221oi_1
*I *5260:C1 I *D sg13g2_a221oi_1
*I *5251:C1 I *D sg13g2_a221oi_1
*I *5249:C1 I *D sg13g2_a221oi_1
*I *6002:A I *D sg13g2_buf_1
*I *6003:X O *D sg13g2_buf_1
*CAP
1 *5217:C1 0.000572446
2 *5220:C1 0
3 *5224:C1 0.000460084
4 *5229:C1 0
5 *5260:C1 3.21503e-05
6 *5251:C1 0
7 *5249:C1 0.000170637
8 *6002:A 0.000122038
9 *6003:X 0
10 *1005:108 0.000363847
11 *1005:96 0.00162031
12 *1005:78 0.000133971
13 *1005:63 0.000638391
14 *1005:59 0.00101851
15 *1005:49 0.00218418
16 *1005:45 0.00286921
17 *1005:39 0.00143419
18 *1005:31 0.00154214
19 *1005:27 0.00257419
20 *1005:19 0.003521
21 *1005:4 0.00120989
22 *5217:C1 *1012:113 0
23 *5217:C1 *1094:16 0
24 *5224:C1 *5221:C 0
25 *5224:C1 *5221:D 0
26 *1005:19 *1111:10 0
27 *1005:19 *1111:23 0
28 *1005:27 *5056:B 0
29 *1005:27 *1012:8 4.75166e-05
30 *1005:27 *1013:31 0
31 *1005:27 *1015:10 0.000722202
32 *1005:27 *1015:117 0.00143037
33 *1005:27 *1015:125 0
34 *1005:27 *1016:8 0
35 *1005:27 *1093:50 7.99779e-05
36 *1005:27 *1112:33 0
37 *1005:27 *1114:29 0
38 *1005:27 *1115:29 0.000561638
39 *1005:27 *1115:37 8.00842e-05
40 *1005:31 *1012:21 0
41 *1005:31 *1094:18 0
42 *1005:39 *1015:35 0.000552444
43 *1005:59 *5015:A 8.03091e-05
44 *1005:59 *1102:40 0.000768694
45 *1005:78 *1103:29 0
46 *1005:96 *1094:54 0
47 *1005:96 *1096:18 0
48 *5164:C *1005:19 0
49 *5212:A2 *1005:27 5.77065e-05
50 *5224:B2 *5224:C1 0
51 *5225:B *1005:96 0
52 *5249:B1 *5249:C1 0
53 *5251:B2 *5249:C1 0
54 *5251:B2 *1005:78 4.77425e-05
55 *5260:B2 *5260:C1 4.78356e-05
56 *5643:D *1005:108 4.75265e-05
57 *5657:D *5260:C1 0
58 *5657:D *1005:59 0
59 *5657:CLK *1005:63 0
60 *5988:A *6002:A 0
61 *6003:A *6002:A 0
62 *6009:A *1005:27 0.000112618
63 *143:14 *1005:78 0.000122871
64 *251:8 *1005:59 0
65 *286:14 *1005:27 0.000426038
66 *286:41 *1005:39 0
67 *286:53 *1005:39 0.000232421
68 *288:27 *1005:49 0
69 *349:25 *1005:19 0
70 *354:12 *1005:19 0.00028826
71 *357:8 *1005:19 0
72 *367:42 *1005:27 0.000175721
73 *367:46 *1005:49 0
74 *367:46 *1005:96 0
75 *390:12 *5217:C1 4.75265e-05
76 *390:18 *5217:C1 1.53311e-05
77 *390:28 *5224:C1 0
78 *390:28 *1005:108 4.75265e-05
79 *397:8 *5224:C1 0.000143287
80 *404:8 *1005:49 0.000235055
81 *405:18 *1005:49 0
82 *406:10 *1005:49 0.000393407
83 *424:10 *1005:49 0.000181192
84 *425:10 *1005:49 0
85 *620:25 *1005:63 0
86 *621:24 *1005:49 0
87 *629:10 *1005:63 0.000112426
88 *629:10 *1005:78 0.000394981
89 *632:10 *1005:49 0
90 *636:32 *1005:19 0
91 *636:38 *1005:19 0.000823472
92 *708:68 *5224:C1 0
93 *709:62 *1005:59 0
94 *719:25 *1005:19 0
95 *1004:36 *1005:19 0
*RES
1 *6003:X *1005:4 20 
2 *1005:4 *6002:A 21.3493 
3 *1005:4 *1005:19 31.3609 
4 *1005:19 *1005:27 46.1723 
5 *1005:27 *1005:31 21.0918 
6 *1005:31 *1005:39 48.9816 
7 *1005:39 *1005:45 47.2409 
8 *1005:45 *1005:49 14.9762 
9 *1005:49 *1005:59 48.4357 
10 *1005:59 *1005:63 22.9149 
11 *1005:63 *5249:C1 21.6171 
12 *1005:63 *1005:78 42.1527 
13 *1005:78 *5251:C1 20 
14 *1005:49 *5260:C1 40.3193 
15 *1005:45 *1005:96 26.5302 
16 *1005:96 *1005:108 44.2127 
17 *1005:108 *5229:C1 20 
18 *1005:96 *5224:C1 24.6453 
19 *1005:39 *5220:C1 40 
20 *1005:31 *5217:C1 45.9328 
*END

*D_NET *1006 0.0182831
*CONN
*I *5466:C I *D sg13g2_nor4_1
*I *5488:A I *D sg13g2_nor3_1
*I *5493:B I *D sg13g2_nor4_1
*I *5496:B I *D sg13g2_nor4_1
*I *5499:B I *D sg13g2_nor4_1
*I *5505:B I *D sg13g2_nor4_1
*I *5508:B I *D sg13g2_nor4_1
*I *5502:B I *D sg13g2_nor4_1
*I *6004:X O *D sg13g2_buf_1
*CAP
1 *5466:C 0
2 *5488:A 0
3 *5493:B 5.79414e-05
4 *5496:B 0.000221319
5 *5499:B 9.63927e-05
6 *5505:B 0.000520893
7 *5508:B 0
8 *5502:B 5.59133e-05
9 *6004:X 0.000196789
10 *1006:77 0.000533338
11 *1006:62 0.000668925
12 *1006:60 0.00113578
13 *1006:52 0.000951176
14 *1006:50 0.00101562
15 *1006:44 0.000822963
16 *1006:34 0.000756103
17 *1006:28 0.00276959
18 *1006:8 0.00261645
19 *5496:B *1130:8 0
20 *5505:B *5504:D 4.77425e-05
21 *1006:8 *5485:A 0
22 *1006:28 *5465:B 0
23 *1006:28 *5485:A 0
24 *1006:28 *6007:A 0
25 *1006:28 *1049:16 0
26 *1006:34 *5491:B 0
27 *1006:44 *5491:A 0.000306832
28 *1006:50 *5498:B 0
29 *1006:52 *5498:B 0
30 *1006:60 *1008:48 0
31 *5458:B *1006:28 0
32 *5458:A_N *1006:28 0.00033913
33 *5466:B *1006:8 3.24568e-05
34 *5466:B *1006:28 4.78195e-05
35 *5466:D *1006:28 8.01983e-05
36 *5469:A2 *1006:28 0
37 *5470:A *1006:28 0
38 *5470:D *1006:28 0
39 *5487:A1 *1006:28 0
40 *5487:A2 *1006:28 0
41 *5488:C *1006:34 0
42 *5488:C *1006:44 0.00027465
43 *5496:C *5496:B 0.000143861
44 *5496:D *5496:B 0
45 *5499:C *5499:B 4.77425e-05
46 *5499:D *5499:B 0
47 *5502:A *5502:B 1.54556e-05
48 *5502:D *5502:B 0
49 *5505:C *5505:B 4.77534e-05
50 *5505:D *5505:B 0.000177109
51 *5508:A *1006:77 1.54008e-05
52 *5508:D *1006:77 0
53 *5534:B1 *1006:28 1.54556e-05
54 *5534:B1 *1006:34 0.000468144
55 *5535:A *1006:28 0
56 *5535:C *1006:28 0
57 *5807:D *1006:8 0
58 *5807:D *1006:28 0
59 *5833:RESET_B *1006:77 0
60 *5837:D *1006:77 0
61 *5837:CLK *1006:77 0
62 *5891:A *1006:50 0
63 *5927:A *1006:28 0.00092208
64 *5974:A *1006:28 2.4669e-05
65 *6008:A *1006:28 0
66 *228:10 *1006:28 0.000242187
67 *552:10 *1006:28 0
68 *574:10 *5493:B 0.000159096
69 *574:10 *1006:44 2.20966e-05
70 *583:10 *1006:60 0
71 *605:66 *5496:B 0
72 *605:66 *1006:50 0
73 *605:198 *1006:50 0
74 *615:8 *1006:28 0
75 *648:17 *1006:77 0
76 *680:14 *1006:34 1.56704e-05
77 *681:43 *1006:34 0
78 *693:10 *1006:28 0
79 *693:35 *5505:B 1.54008e-05
80 *693:43 *5502:B 0
81 *693:43 *5505:B 0
82 *693:43 *1006:62 0
83 *693:58 *1006:77 0
84 *693:73 *5499:B 1.54008e-05
85 *693:73 *1006:60 0
86 *693:73 *1006:77 0
87 *693:88 *5496:B 0.000304511
88 *693:88 *5499:B 0.000144672
89 *693:88 *1006:52 0.000981652
90 *693:88 *1006:60 7.51285e-05
91 *714:26 *5505:B 0
92 *714:26 *1006:62 0
93 *1001:16 *1006:60 0
94 *1001:42 *1006:52 0
95 *1001:42 *1006:60 0
96 *1001:59 *1006:52 0
97 *1001:61 *1006:44 4.77425e-05
98 *1001:61 *1006:50 0.000758693
99 *1001:67 *1006:44 7.51285e-05
*RES
1 *6004:X *1006:8 21.9673 
2 *1006:8 *1006:28 24.4581 
3 *1006:28 *1006:34 24.0994 
4 *1006:34 *1006:44 43.9861 
5 *1006:44 *1006:50 45.0779 
6 *1006:50 *1006:52 4.5526 
7 *1006:52 *1006:60 25.4693 
8 *1006:60 *1006:62 0.7519 
9 *1006:62 *5502:B 20.5356 
10 *1006:62 *1006:77 45.0882 
11 *1006:77 *5508:B 20 
12 *1006:60 *5505:B 25.0779 
13 *1006:52 *5499:B 40.9682 
14 *1006:50 *5496:B 42.5956 
15 *1006:34 *5493:B 40.8446 
16 *1006:28 *5488:A 20 
17 *1006:8 *5466:C 20 
*END

*D_NET *1007 0.0114684
*CONN
*I *5468:A I *D sg13g2_nor4_1
*I *5476:C1 I *D sg13g2_a221oi_1
*I *5470:C I *D sg13g2_nor4_1
*I *5485:C I *D sg13g2_nand3_1
*I *6005:X O *D sg13g2_buf_1
*CAP
1 *5468:A 0
2 *5476:C1 0.000921462
3 *5470:C 0.000174426
4 *5485:C 0
5 *6005:X 0.000137397
6 *1007:56 0.00142649
7 *1007:32 0.000663076
8 *1007:24 0.00177643
9 *1007:18 0.00169764
10 *1007:16 0.000598686
11 *1007:8 0.000482399
12 *5470:C *1032:35 0
13 *5470:C *1125:10 0
14 *5476:C1 *5476:B2 0.000209807
15 *1007:8 *1030:56 0.000342339
16 *1007:18 *5959:A 6.46834e-05
17 *1007:18 *1122:27 0.00033953
18 *1007:24 *5959:A 0.000242187
19 *1007:24 *1032:20 0
20 *1007:24 *1032:35 0
21 *1007:24 *1124:36 0
22 *1007:32 *5485:A 0.000856951
23 *5468:B *1007:16 1.54008e-05
24 *5468:B *1007:18 4.78521e-05
25 *5468:C *1007:16 0
26 *5485:B *1007:32 7.61961e-05
27 *5537:B *5476:C1 0
28 *5809:RESET_B *1007:16 0.000241477
29 *5993:A *1007:18 0
30 *5993:A *1007:24 0
31 *221:10 *1007:16 4.78982e-05
32 *550:10 *1007:32 0
33 *555:10 *1007:8 0
34 *555:10 *1007:16 0
35 *605:35 *1007:16 0
36 *649:63 *5476:C1 0
37 *676:28 *1007:24 0
38 *676:32 *1007:24 0
39 *676:32 *1007:56 0.000394981
40 *676:36 *1007:24 0
41 *698:24 *1007:24 0
42 *698:33 *1007:32 0
43 *699:20 *5476:C1 0.000711046
44 *719:43 *1007:16 0
45 *719:43 *1007:18 0
*RES
1 *6005:X *1007:8 41.5862 
2 *1007:8 *1007:16 23.8007 
3 *1007:16 *1007:18 2.6986 
4 *1007:18 *1007:24 30.094 
5 *1007:24 *1007:32 46.8186 
6 *1007:32 *5485:C 40 
7 *1007:24 *5470:C 41.9055 
8 *1007:18 *1007:56 46.5302 
9 *1007:56 *5476:C1 26.9936 
10 *1007:16 *5468:A 20 
*END

*D_NET *1008 0.0107127
*CONN
*I *5457:C I *D sg13g2_nor3_1
*I *5504:D I *D sg13g2_nor4_1
*I *5507:D I *D sg13g2_nor4_1
*I *5491:D I *D sg13g2_nor4_1
*I *5495:D I *D sg13g2_nor4_1
*I *5498:D I *D sg13g2_nor4_1
*I *5501:D I *D sg13g2_nor4_1
*I *5472:D I *D sg13g2_or4_1
*I *6006:X O *D sg13g2_buf_1
*CAP
1 *5457:C 0
2 *5504:D 3.13955e-05
3 *5507:D 0.000217567
4 *5491:D 0.000480148
5 *5495:D 0
6 *5498:D 0
7 *5501:D 0.000213421
8 *5472:D 0
9 *6006:X 0.000264868
10 *1008:87 0.000507672
11 *1008:63 0.00121032
12 *1008:48 0.00119031
13 *1008:29 0.000935537
14 *1008:27 0.000821953
15 *1008:25 0.00103938
16 *1008:12 0.000738109
17 *1008:10 0.000264868
18 *5491:D *5495:B 0
19 *5491:D *1024:10 8.00521e-05
20 *5507:D *5507:B 0
21 *1008:10 *1009:14 0.000446525
22 *1008:10 *1118:16 0
23 *1008:25 *5472:A 0
24 *1008:48 *1024:24 0
25 *1008:63 *5495:B 0
26 *1008:63 *1024:24 0.000181366
27 *1008:87 *1024:73 0.000181387
28 *1008:87 *1132:27 0.000232421
29 *5496:D *5491:D 0
30 *5496:D *1008:63 0
31 *5501:C *5501:D 0.000127799
32 *5501:C *1008:29 0.00037174
33 *5505:B *5504:D 4.77425e-05
34 *5507:C *5507:D 0
35 *5507:C *1008:87 0
36 *5534:B1 *5491:D 0
37 *69:22 *5501:D 0
38 *69:22 *1008:27 0
39 *69:22 *1008:29 0
40 *69:28 *1008:87 0
41 *246:10 *5491:D 0.000144838
42 *551:18 *1008:10 0
43 *552:54 *1008:10 0
44 *561:8 *1008:10 0
45 *574:10 *5491:D 0.000112563
46 *605:43 *1008:25 0
47 *605:43 *1008:27 0
48 *605:66 *1008:63 0
49 *614:21 *5507:D 0
50 *650:59 *1008:63 0
51 *680:18 *5491:D 4.78688e-05
52 *680:22 *5491:D 0.00024216
53 *680:32 *1008:27 0.000209126
54 *680:32 *1008:87 0
55 *680:56 *1008:27 0.000306925
56 *680:56 *1008:29 6.46834e-05
57 *680:71 *1008:87 0
58 *693:35 *1008:10 0
59 *693:43 *5507:D 0
60 *693:88 *1008:48 0
61 *693:88 *1008:63 0
62 *714:82 *1008:10 0
63 *1006:60 *1008:48 0
*RES
1 *6006:X *1008:10 43.1106 
2 *1008:10 *1008:12 20 
3 *1008:12 *5472:D 20 
4 *1008:12 *1008:25 7.21 
5 *1008:25 *1008:27 3.3475 
6 *1008:27 *1008:29 2.9149 
7 *1008:29 *5501:D 22.0961 
8 *1008:29 *1008:48 24.0582 
9 *1008:48 *5498:D 40 
10 *1008:48 *1008:63 27.107 
11 *1008:63 *5495:D 20 
12 *1008:63 *5491:D 25.15 
13 *1008:27 *1008:87 22.8222 
14 *1008:87 *5507:D 41.9055 
15 *1008:87 *5504:D 40.3193 
16 *1008:25 *5457:C 20 
*END

*D_NET *1009 0.0102583
*CONN
*I *5525:D I *D sg13g2_nor4_1
*I *5509:C I *D sg13g2_nor3_1
*I *5531:D I *D sg13g2_nor4_1
*I *5528:D I *D sg13g2_nor4_1
*I *5534:A2 I *D sg13g2_o21ai_1
*I *6006:A I *D sg13g2_buf_1
*I *6007:X O *D sg13g2_buf_1
*CAP
1 *5525:D 0.000327874
2 *5509:C 0
3 *5531:D 0.00068247
4 *5528:D 3.52114e-05
5 *5534:A2 2.52189e-05
6 *6006:A 0
7 *6007:X 3.41176e-05
8 *1009:66 0.00050986
9 *1009:42 0.00112641
10 *1009:34 0.00175926
11 *1009:14 0.000939606
12 *1009:10 0.00104464
13 *1009:8 0.00128248
14 *1009:8 *6007:A 1.54008e-05
15 *1009:14 *1118:16 0
16 *5509:A *1009:42 0
17 *5525:C *5525:D 4.75825e-05
18 *5530:B *5528:D 1.53662e-05
19 *5534:B1 *5534:A2 4.78359e-05
20 *5534:A1 *5534:A2 4.78359e-05
21 *5534:A1 *1009:8 0
22 *5847:D *1009:34 0.000240139
23 *5855:CLK *1009:34 0.000396398
24 *5926:A *1009:34 0
25 *5963:A *1009:34 0
26 *572:8 *1009:14 0
27 *586:22 *5531:D 0
28 *605:78 *5531:D 0
29 *605:120 *5525:D 0
30 *605:120 *5531:D 0
31 *615:10 *1009:14 0
32 *633:19 *1009:34 0.000320024
33 *678:18 *5528:D 0
34 *678:18 *1009:42 0.000240488
35 *681:10 *1009:42 0.000400885
36 *681:22 *5531:D 0.000272684
37 *694:20 *1009:42 0
38 *698:39 *1009:14 0
39 *714:82 *1009:14 0
40 *1008:10 *1009:14 0.000446525
*RES
1 *6007:X *1009:8 40.3193 
2 *1009:8 *1009:10 0.8446 
3 *1009:10 *1009:14 31.227 
4 *1009:14 *6006:A 20 
5 *1009:10 *5534:A2 40.3193 
6 *1009:8 *1009:34 34.2037 
7 *1009:34 *1009:42 24.5423 
8 *1009:42 *5528:D 40.3193 
9 *1009:42 *5531:D 47.0349 
10 *1009:34 *1009:66 21.5862 
11 *1009:66 *5509:C 40 
12 *1009:66 *5525:D 42.8634 
*END

*D_NET *1010 0.00253074
*CONN
*I *5115:A2 I *D sg13g2_o21ai_1
*I *6146:A I *D sg13g2_buf_1
*I *5567:Q O *D sg13g2_dfrbpq_1
*CAP
1 *5115:A2 0.000206053
2 *6146:A 0.000461867
3 *5567:Q 0.000460901
4 *1010:8 0.00112882
5 *5112:B1 *5115:A2 1.54556e-05
6 *5116:A *5115:A2 4.78356e-05
7 *5567:RESET_B *6146:A 0
8 *100:10 *6146:A 0
9 *658:54 *5115:A2 0.000144896
10 *658:54 *1010:8 0
11 *706:14 *5115:A2 6.49135e-05
12 *709:103 *1010:8 0
*RES
1 *5567:Q *1010:8 44.2022 
2 *1010:8 *6146:A 45.0882 
3 *1010:8 *5115:A2 42.0497 
*END

*D_NET *1011 0.0117407
*CONN
*I *5471:A I *D sg13g2_and4_1
*I *5510:D I *D sg13g2_nor4_1
*I *5513:D I *D sg13g2_nor4_1
*I *5516:D I *D sg13g2_nor4_1
*I *5519:D I *D sg13g2_nor4_1
*I *5522:D I *D sg13g2_nor4_1
*I *6007:A I *D sg13g2_buf_1
*I *6008:X O *D sg13g2_buf_1
*CAP
1 *5471:A 0.000114009
2 *5510:D 2.01325e-05
3 *5513:D 0
4 *5516:D 0
5 *5519:D 0
6 *5522:D 1.92021e-05
7 *6007:A 0.000402086
8 *6008:X 0
9 *1011:78 0.000356599
10 *1011:65 0.000645402
11 *1011:61 0.000478153
12 *1011:54 0.000971724
13 *1011:33 0.00152931
14 *1011:18 0.00173264
15 *1011:4 0.000736964
16 *1011:33 *1127:10 0.000395483
17 *1011:54 *5522:B 0.000127744
18 *1011:54 *1036:10 0.000233544
19 *1011:61 *1035:28 0
20 *1011:65 *1035:16 0
21 *5486:B *1011:33 0
22 *5510:A *1011:61 0
23 *5512:B *1011:65 0
24 *5512:B *1011:78 0
25 *5521:B *1011:54 0.000144608
26 *5534:A1 *6007:A 0
27 *5535:C *6007:A 0
28 *5535:D *6007:A 4.77425e-05
29 *5811:CLK *1011:18 0.000469121
30 *5823:CLK *1011:18 0
31 *5845:D *1011:54 0.000208083
32 *5855:D *6007:A 0
33 *5926:A *1011:33 0
34 *5961:A *5522:D 0
35 *5963:A *5522:D 3.15716e-05
36 *5963:A *1011:54 1.54008e-05
37 *556:53 *6007:A 0.000209505
38 *556:53 *1011:18 4.7803e-05
39 *556:72 *5471:A 8.00842e-05
40 *556:72 *1011:18 0.000129968
41 *556:72 *1011:33 0
42 *571:8 *1011:33 0.000128248
43 *586:94 *1011:54 0
44 *591:10 *1011:65 7.9841e-05
45 *591:10 *1011:78 1.54008e-05
46 *679:8 *1011:33 0.000183434
47 *682:10 *1011:61 0
48 *682:40 *1011:54 0.000353722
49 *682:73 *1011:61 0
50 *682:73 *1011:65 4.77083e-05
51 *682:86 *1011:65 0.000337465
52 *682:99 *1011:65 4.76456e-05
53 *682:99 *1011:78 0.000748907
54 *714:99 *6007:A 0.000274266
55 *714:99 *1011:18 0.000361785
56 *1006:28 *6007:A 0
57 *1009:8 *6007:A 1.54008e-05
*RES
1 *6008:X *1011:4 20 
2 *1011:4 *1011:18 47.4057 
3 *1011:18 *6007:A 24.3466 
4 *1011:18 *1011:33 49.7438 
5 *1011:33 *5522:D 20.2111 
6 *1011:33 *1011:54 49.0125 
7 *1011:54 *5519:D 20 
8 *1011:54 *1011:61 1.4008 
9 *1011:61 *1011:65 3.0488 
10 *1011:65 *5516:D 20 
11 *1011:65 *1011:78 44.4702 
12 *1011:78 *5513:D 20 
13 *1011:61 *5510:D 20.3502 
14 *1011:4 *5471:A 21.3802 
*END

*D_NET *1012 0.0247275
*CONN
*I *5158:A1 I *D sg13g2_a21oi_1
*I *5218:D I *D sg13g2_nand4_1
*I *5233:D I *D sg13g2_nand4_1
*I *5254:D I *D sg13g2_nand4_1
*I *5210:A1 I *D sg13g2_a221oi_1
*I *5223:D I *D sg13g2_nand4_1
*I *5211:A I *D sg13g2_and4_1
*I *5213:D I *D sg13g2_nand4_1
*I *6009:X O *D sg13g2_buf_1
*CAP
1 *5158:A1 0.00282138
2 *5218:D 0.000336007
3 *5233:D 2.55137e-05
4 *5254:D 3.049e-05
5 *5210:A1 0.000777629
6 *5223:D 0.000194571
7 *5211:A 7.97075e-05
8 *5213:D 0.000632563
9 *6009:X 2.67539e-05
10 *1012:113 0.00345677
11 *1012:67 0.00140627
12 *1012:57 0.00223989
13 *1012:55 0.00239037
14 *1012:44 0.00117548
15 *1012:38 0.00146292
16 *1012:32 0.00164663
17 *1012:21 0.000343904
18 *1012:8 0.000842379
19 *5158:A1 *5973:A 0
20 *5211:A *1015:10 0.000144542
21 *5218:D *1095:18 0.000698954
22 *5254:D *1104:35 4.7803e-05
23 *1012:8 *1093:50 4.75166e-05
24 *1012:44 *1094:44 0.000110788
25 *1012:44 *1095:18 7.50571e-05
26 *1012:55 *5221:D 0
27 *1012:67 *5147:B 7.35518e-05
28 *1012:67 *1031:32 7.48461e-05
29 *5158:A2 *5158:A1 0.000241088
30 *5158:B1 *5158:A1 0
31 *5217:C1 *1012:113 0
32 *5218:C *5218:D 1.54008e-05
33 *5225:D *5223:D 1.54008e-05
34 *5228:C *1012:55 0
35 *5233:C *5233:D 4.7803e-05
36 *5252:C *5254:D 0
37 *5254:C *5254:D 1.54556e-05
38 *5255:B *5210:A1 0.000177214
39 *5261:A *5210:A1 0
40 *5613:RESET_B *5158:A1 0
41 *5613:D *5158:A1 0
42 *5615:RESET_B *5158:A1 0
43 *5633:RESET_B *5158:A1 0
44 *5637:CLK *5218:D 7.99179e-05
45 *260:8 *1012:55 0
46 *260:8 *1012:57 0
47 *261:12 *1012:113 0.000722704
48 *283:12 *1012:55 0
49 *284:18 *1012:21 0
50 *284:18 *1012:32 0
51 *286:31 *1012:113 0
52 *288:14 *5223:D 0
53 *288:14 *1012:44 0
54 *288:27 *1012:57 0
55 *348:38 *5210:A1 0.00011253
56 *348:57 *5210:A1 3.23417e-05
57 *348:63 *5210:A1 4.77534e-05
58 *385:14 *5213:D 0.000144891
59 *385:37 *5218:D 0
60 *388:22 *5210:A1 0.000566267
61 *390:8 *1012:113 0
62 *390:18 *5218:D 0
63 *397:14 *5223:D 0.000240503
64 *397:14 *1012:55 0
65 *398:12 *1012:55 0
66 *398:12 *1012:57 0
67 *410:8 *5233:D 4.7803e-05
68 *422:10 *1012:67 0
69 *430:20 *5210:A1 0
70 *605:231 *5218:D 0
71 *605:231 *1012:44 0
72 *620:14 *1012:57 0
73 *620:25 *1012:57 0
74 *621:10 *1012:57 0
75 *632:43 *1012:55 0.000866051
76 *639:53 *5158:A1 0
77 *661:39 *5158:A1 0
78 *661:59 *5158:A1 0
79 *708:68 *5223:D 0
80 *708:68 *1012:44 0
81 *856:10 *1012:57 0
82 *1003:31 *5211:A 0.000144542
83 *1005:27 *1012:8 4.75166e-05
84 *1005:31 *1012:21 0
*RES
1 *6009:X *1012:8 40.3193 
2 *1012:8 *5213:D 45.5208 
3 *1012:8 *1012:21 1.339 
4 *1012:21 *5211:A 40.9682 
5 *1012:21 *1012:32 0.5974 
6 *1012:32 *1012:38 49.6202 
7 *1012:38 *1012:44 21.9673 
8 *1012:44 *5223:D 22.0497 
9 *1012:44 *1012:55 27.7662 
10 *1012:55 *1012:57 18.3958 
11 *1012:57 *1012:67 47.2615 
12 *1012:67 *5210:A1 47.4778 
13 *1012:57 *5254:D 40.3193 
14 *1012:55 *5233:D 40.3193 
15 *1012:38 *5218:D 43.8522 
16 *1012:32 *1012:113 27.0246 
17 *1012:113 *5158:A1 48.222 
*END

*D_NET *1013 0.00485236
*CONN
*I *5159:A1 I *D sg13g2_a21o_1
*I *5160:A I *D sg13g2_nand3_1
*I *5163:A I *D sg13g2_and4_1
*I *5168:A2 I *D sg13g2_a21oi_1
*I *6010:X O *D sg13g2_buf_1
*CAP
1 *5159:A1 0
2 *5160:A 0
3 *5163:A 6.29818e-05
4 *5168:A2 0
5 *6010:X 0.000240281
6 *1013:35 0.000330954
7 *1013:31 0.000956894
8 *1013:16 0.00076091
9 *1013:12 0.00031227
10 *5163:A *5163:C 0.000182023
11 *5163:A *1015:131 0.000341707
12 *5163:A *1097:25 0.000159598
13 *1013:12 *1112:14 0
14 *1013:12 *1115:14 0
15 *1013:16 *1112:33 0
16 *1013:31 *5159:B1 1.54008e-05
17 *1013:31 *1015:125 0
18 *1013:35 *1015:125 0.000181608
19 *1013:35 *1015:131 0.000425829
20 *1013:35 *1097:25 0.000181694
21 *5159:A2 *1013:31 8.14577e-05
22 *5161:B *1013:35 0.000448399
23 *5168:A1 *1013:12 7.48725e-05
24 *5168:A1 *1013:16 8.00842e-05
25 *5168:A1 *1013:31 1.54008e-05
26 *662:38 *1013:35 0
27 *692:12 *1013:35 0
28 *1004:25 *1013:31 0
29 *1005:27 *1013:31 0
*RES
1 *6010:X *1013:12 42.4102 
2 *1013:12 *1013:16 20.7519 
3 *1013:16 *5168:A2 20 
4 *1013:16 *1013:31 7.3748 
5 *1013:31 *1013:35 24.3054 
6 *1013:35 *5163:A 41.5862 
7 *1013:35 *5160:A 40 
8 *1013:31 *5159:A1 20 
*END

*D_NET *1014 0.0242864
*CONN
*I *5180:A I *D sg13g2_nor3_1
*I *5166:A I *D sg13g2_nor2_1
*I *5178:A I *D sg13g2_nor3_1
*I *5184:D I *D sg13g2_nor4_1
*I *5190:A I *D sg13g2_nor4_1
*I *5259:B I *D sg13g2_nor2_1
*I *5278:A2 I *D sg13g2_o21ai_1
*I *5276:B I *D sg13g2_nor2_1
*I *6011:X O *D sg13g2_buf_1
*CAP
1 *5180:A 3.04198e-05
2 *5166:A 2.01834e-05
3 *5178:A 0.000201968
4 *5184:D 0.000150883
5 *5190:A 0
6 *5259:B 0.00191473
7 *5278:A2 0
8 *5276:B 0
9 *6011:X 6.24677e-05
10 *1014:70 0.00277327
11 *1014:58 0.0010068
12 *1014:52 0.00110479
13 *1014:48 0.00115698
14 *1014:42 0.00035287
15 *1014:40 0.00291966
16 *1014:38 0.00330714
17 *1014:29 0
18 *1014:25 0.000825995
19 *1014:16 0.0009378
20 *1014:8 0.00122504
21 *5184:D *5184:B 0
22 *5184:D *1116:37 0
23 *5184:D *1117:29 0.000111966
24 *1014:16 *5282:B1 0
25 *1014:16 *1020:51 0
26 *1014:40 *5170:A 0
27 *1014:40 *1015:104 0
28 *1014:40 *1016:14 0
29 *1014:42 *1016:14 0
30 *1014:42 *1016:26 0
31 *1014:48 *1016:35 0
32 *1014:52 *5203:C 0.000341534
33 *1014:52 *1016:35 0
34 *1014:52 *1016:49 0.00012816
35 *1014:52 *1116:63 0
36 *1014:52 *1116:74 0
37 *1014:52 *1117:12 0.000341949
38 *1014:52 *1117:25 0
39 *1014:58 *1016:49 0.000234224
40 *1014:58 *1116:63 0
41 *1014:70 *1091:73 0
42 *5179:A *1014:40 0
43 *5182:A2 *1014:48 0
44 *5182:A2 *1014:52 0
45 *5207:A *5259:B 0
46 *5208:B *1014:70 0
47 *5208:C *1014:70 7.62389e-05
48 *5209:B *1014:70 7.93152e-05
49 *5259:A *5259:B 0
50 *5267:B *5259:B 0.000112426
51 *5268:D *5259:B 0
52 *5269:A *5259:B 0.000144521
53 *5277:B1 *1014:16 0
54 *5280:B1 *1014:16 0.00085661
55 *5283:A2 *1014:16 0
56 *5285:A *1014:16 0.000209835
57 *5661:RESET_B *5259:B 0
58 *5661:D *5259:B 0
59 *5661:CLK *1014:58 8.00842e-05
60 *5661:CLK *1014:70 0.000791205
61 *281:16 *5178:A 0
62 *281:16 *1014:48 0
63 *285:34 *1014:40 0
64 *285:34 *1014:42 0
65 *287:14 *1014:52 0
66 *347:27 *1014:40 0
67 *351:16 *1014:8 0
68 *358:14 *5166:A 4.77702e-05
69 *358:14 *1014:48 0
70 *358:78 *5178:A 0
71 *367:101 *5180:A 4.77425e-05
72 *373:14 *1014:58 3.23417e-05
73 *373:14 *1014:70 1.54008e-05
74 *373:20 *1014:70 0.000663435
75 *388:8 *5259:B 0
76 *389:18 *5259:B 0
77 *421:47 *5259:B 0
78 *442:8 *1014:16 7.6026e-05
79 *545:8 *1014:40 0
80 *638:10 *1014:16 0
81 *645:12 *1014:40 0
82 *645:27 *1014:40 0.000502289
83 *661:20 *1014:40 0
84 *661:22 *1014:40 0
85 *664:28 *1014:8 0.000130676
86 *667:44 *1014:40 0
87 *668:46 *1014:8 0.000217325
88 *668:46 *1014:16 0.000130636
89 *672:27 *1014:16 0
90 *707:65 *1014:40 0
91 *997:8 *1014:40 0.000923646
*RES
1 *6011:X *1014:8 41.0918 
2 *1014:8 *1014:16 30.3515 
3 *1014:16 *5276:B 20 
4 *1014:8 *1014:25 22.4823 
5 *1014:25 *1014:29 40 
6 *1014:29 *5278:A2 20 
7 *1014:25 *1014:38 27.6735 
8 *1014:38 *1014:40 31.7446 
9 *1014:40 *1014:42 1.8334 
10 *1014:42 *1014:48 21.5965 
11 *1014:48 *1014:52 30.2382 
12 *1014:52 *1014:58 21.6274 
13 *1014:58 *1014:70 49.1876 
14 *1014:70 *5259:B 38.1074 
15 *1014:58 *5190:A 20 
16 *1014:52 *5184:D 41.2926 
17 *1014:48 *5178:A 21.8334 
18 *1014:42 *5166:A 40.3193 
19 *1014:40 *5180:A 40.3193 
*END

*D_NET *1015 0.0306314
*CONN
*I *5161:C I *D sg13g2_and4_1
*I *5154:A I *D sg13g2_nand2_1
*I *5153:A I *D sg13g2_and2_1
*I *5245:C I *D sg13g2_nand3_1
*I *5234:C I *D sg13g2_nand3_1
*I *5236:C I *D sg13g2_nand3_1
*I *5271:A I *D sg13g2_nand2_1
*I *5226:C I *D sg13g2_nand3_1
*I *6012:X O *D sg13g2_buf_1
*CAP
1 *5161:C 2.61749e-05
2 *5154:A 0
3 *5153:A 0
4 *5245:C 0
5 *5234:C 0.000224879
6 *5236:C 9.61177e-05
7 *5271:A 0.000163894
8 *5226:C 0
9 *6012:X 0.0014566
10 *1015:131 0.00134584
11 *1015:125 0.0021579
12 *1015:117 0.00177578
13 *1015:104 0.000137122
14 *1015:98 0.00112703
15 *1015:88 0.00048261
16 *1015:56 0.000832972
17 *1015:50 0.00240497
18 *1015:35 0.0026575
19 *1015:26 0.000783609
20 *1015:18 0.00104561
21 *1015:10 0.00280182
22 *5234:C *1100:23 8.00842e-05
23 *5234:C *1101:10 0.00039332
24 *5234:C *1103:68 0
25 *5236:C *5236:B 4.77425e-05
26 *1015:10 *1094:44 0.000691613
27 *1015:18 *1094:44 0.00050593
28 *1015:18 *1095:18 7.3287e-05
29 *1015:26 *1098:29 4.74857e-05
30 *1015:35 *1110:8 0
31 *1015:56 *1102:10 0.000235141
32 *1015:56 *1103:68 0
33 *1015:88 *1102:21 0.000112453
34 *1015:88 *1103:68 0
35 *1015:117 *5051:A 0
36 *1015:117 *1112:33 0.00065833
37 *1015:117 *1115:14 0
38 *1015:125 *5052:B 0
39 *1015:125 *5052:A 0
40 *1015:125 *1111:25 0
41 *1015:125 *1114:29 0
42 *1015:131 *5163:C 0
43 *5161:B *5161:C 1.54008e-05
44 *5163:A *1015:131 0.000341707
45 *5211:A *1015:10 0.000144542
46 *5214:A *1015:10 0
47 *5214:C *1015:10 0
48 *5227:A2 *1015:26 0.000111926
49 *5237:A *1015:50 0
50 *5238:A1 *5236:C 0
51 *5242:A *1015:50 0
52 *5246:A *1015:56 0
53 *5274:B *5271:A 0
54 *5557:CLK *1015:131 0
55 *135:8 *1015:35 0
56 *284:8 *1015:117 0
57 *286:53 *1015:35 0
58 *288:14 *1015:10 0.00100378
59 *288:14 *1015:18 0.000434613
60 *347:27 *1015:104 0
61 *348:14 *1015:10 1.53311e-05
62 *348:14 *1015:117 0.000433458
63 *349:10 *1015:131 8.02595e-05
64 *354:25 *5161:C 4.77425e-05
65 *354:25 *1015:131 0.000394566
66 *367:42 *1015:10 0.000305011
67 *385:26 *5271:A 0
68 *385:26 *1015:35 0
69 *385:37 *1015:35 0
70 *387:14 *1015:50 0.000856061
71 *396:8 *1015:35 0.000285923
72 *409:14 *1015:50 0
73 *410:12 *5271:A 0
74 *410:12 *1015:35 0
75 *413:10 *1015:50 0
76 *413:10 *1015:88 0
77 *413:14 *1015:88 0
78 *629:80 *1015:56 0
79 *631:16 *1015:50 0.000145283
80 *631:16 *1015:56 0
81 *637:32 *1015:131 0.000242045
82 *662:38 *1015:125 0
83 *662:38 *1015:131 0
84 *704:23 *1015:88 0
85 *704:27 *1015:88 0
86 *706:98 *1015:131 0
87 *708:58 *1015:10 0
88 *708:68 *1015:10 0
89 *709:62 *1015:88 0
90 *709:70 *5234:C 8.00842e-05
91 *709:78 *5234:C 1.54008e-05
92 *1003:25 *1015:10 0
93 *1003:31 *1015:10 0
94 *1005:27 *1015:10 0.000722202
95 *1005:27 *1015:117 0.00143037
96 *1005:27 *1015:125 0
97 *1005:39 *1015:35 0.000552444
98 *1013:31 *1015:125 0
99 *1013:35 *1015:125 0.000181608
100 *1013:35 *1015:131 0.000425829
101 *1014:40 *1015:104 0
*RES
1 *6012:X *1015:10 35.9444 
2 *1015:10 *1015:18 43.2651 
3 *1015:18 *1015:26 48.858 
4 *1015:26 *5226:C 20 
5 *1015:10 *1015:35 30.7326 
6 *1015:35 *5271:A 41.4111 
7 *1015:35 *1015:50 34.8114 
8 *1015:50 *1015:56 25.0573 
9 *1015:56 *5236:C 40.9888 
10 *1015:56 *5234:C 42.8634 
11 *1015:50 *1015:88 44.8101 
12 *1015:88 *5245:C 20 
13 *6012:X *1015:98 20 
14 *1015:98 *1015:104 41.0918 
15 *1015:104 *5153:A 20 
16 *1015:98 *1015:117 31.2476 
17 *1015:117 *1015:125 47.4681 
18 *1015:125 *1015:131 34.0801 
19 *1015:131 *5154:A 20 
20 *1015:125 *5161:C 40.3193 
*END

*D_NET *1016 0.0130678
*CONN
*I *5170:A I *D sg13g2_nor2_1
*I *5166:B I *D sg13g2_nor2_1
*I *5209:A I *D sg13g2_nor4_1
*I *5208:A I *D sg13g2_nor4_1
*I *5059:C I *D sg13g2_nor4_1
*I *5184:B I *D sg13g2_nor4_1
*I *5190:C I *D sg13g2_nor4_1
*I *5058:A I *D sg13g2_nor2_1
*I *6013:X O *D sg13g2_buf_1
*CAP
1 *5170:A 0.000435226
2 *5166:B 0
3 *5209:A 0
4 *5208:A 0.00015423
5 *5059:C 2.5074e-05
6 *5184:B 0.000155927
7 *5190:C 0
8 *5058:A 0
9 *6013:X 0.000106142
10 *1016:76 0.000357144
11 *1016:65 0.000738877
12 *1016:49 0.000230218
13 *1016:41 0.000650717
14 *1016:35 0.00150006
15 *1016:26 0.000589551
16 *1016:16 0.00142199
17 *1016:14 0.000424271
18 *1016:8 0.000857802
19 *5170:A *5169:A2 0
20 *1016:35 *1116:74 0
21 *1016:41 *5046:C 0
22 *1016:41 *1116:63 0
23 *1016:49 *5183:B1 0
24 *1016:65 *5046:C 0
25 *5045:C *1016:41 0
26 *5045:C *1016:65 0
27 *5058:B *1016:16 0
28 *5058:B *1016:26 0
29 *5059:A *1016:65 0
30 *5059:D *5059:C 4.78521e-05
31 *5059:D *1016:65 4.77425e-05
32 *5059:D *1016:76 0.000345425
33 *5170:B *5170:A 0
34 *5179:A *5170:A 0.000442356
35 *5179:A *1016:14 0.000499799
36 *5180:C *1016:14 0
37 *5180:C *1016:16 0
38 *5184:A *5184:B 0.000241429
39 *5184:A *1016:41 6.39133e-05
40 *5184:C *5184:B 4.77863e-05
41 *5184:D *5184:B 0
42 *5205:C *1016:35 0.000341949
43 *5208:C *5208:A 7.61954e-05
44 *270:18 *1016:35 0
45 *280:16 *5059:C 4.78521e-05
46 *285:21 *1016:14 0
47 *285:34 *1016:14 0
48 *286:14 *1016:8 1.54556e-05
49 *287:24 *1016:49 4.78524e-05
50 *287:28 *1016:49 4.77425e-05
51 *348:14 *5170:A 0
52 *358:14 *1016:14 3.24568e-05
53 *358:14 *1016:16 0.000161829
54 *358:14 *1016:26 0.000145173
55 *358:78 *1016:14 0.000209812
56 *367:18 *1016:26 0.000566102
57 *373:10 *1016:49 7.51285e-05
58 *373:14 *1016:49 1.54008e-05
59 *373:24 *5208:A 0.00018387
60 *378:8 *1016:35 0.00111948
61 *378:8 *1016:41 0.000235556
62 *1005:27 *1016:8 0
63 *1014:40 *5170:A 0
64 *1014:40 *1016:14 0
65 *1014:42 *1016:14 0
66 *1014:42 *1016:26 0
67 *1014:48 *1016:35 0
68 *1014:52 *1016:35 0
69 *1014:52 *1016:49 0.00012816
70 *1014:58 *1016:49 0.000234224
*RES
1 *6013:X *1016:8 40.9682 
2 *1016:8 *1016:14 23.9449 
3 *1016:14 *1016:16 1.1845 
4 *1016:16 *1016:26 46.0873 
5 *1016:26 *5058:A 20 
6 *1016:16 *1016:35 29.991 
7 *1016:35 *1016:41 22.9252 
8 *1016:41 *1016:49 42.6162 
9 *1016:49 *5190:C 20 
10 *1016:41 *5184:B 21.6171 
11 *1016:35 *1016:65 24.6453 
12 *1016:65 *5059:C 20.3193 
13 *1016:65 *1016:76 22.575 
14 *1016:76 *5208:A 41.5862 
15 *1016:76 *5209:A 40 
16 *1016:14 *5166:B 20 
17 *1016:8 *5170:A 44.5629 
*END

*D_NET *1017 0.0150235
*CONN
*I *5301:B I *D sg13g2_nor2_1
*I *5325:B I *D sg13g2_nor2_1
*I *5331:B I *D sg13g2_nor2_1
*I *5307:B I *D sg13g2_nor2_1
*I *5304:B I *D sg13g2_nor2_1
*I *5376:B I *D sg13g2_nor2_1
*I *5352:B I *D sg13g2_nor2_1
*I *5328:B I *D sg13g2_nor2_1
*I *6014:X O *D sg13g2_buf_1
*CAP
1 *5301:B 0.000678685
2 *5325:B 0.000379866
3 *5331:B 0.000630784
4 *5307:B 0
5 *5304:B 0.000246682
6 *5376:B 0.000237253
7 *5352:B 0.000317735
8 *5328:B 0.000626096
9 *6014:X 0
10 *1017:79 0.00137726
11 *1017:75 0.00131473
12 *1017:62 0.00108378
13 *1017:47 0.00108649
14 *1017:10 0.00127723
15 *1017:6 0.00135357
16 *1017:4 0.00080839
17 *5301:B *5301:A 0
18 *5301:B *1019:18 0
19 *5325:B *1027:108 0
20 *5325:B *1028:8 0
21 *5328:B *1082:10 1.54556e-05
22 *5331:B *1083:32 0
23 *5352:B *1059:6 0
24 *5376:B *1068:34 0
25 *1017:62 *1019:18 0
26 *1017:75 *1040:8 0
27 *1017:79 *1040:8 0
28 *5303:A *5301:B 0.000139561
29 *5303:B *5301:B 0.000129558
30 *5303:C *5301:B 0
31 *5304:A *5304:B 0
32 *5304:A *1017:6 0.000209769
33 *5304:A *1017:47 3.23417e-05
34 *5305:A2 *1017:6 0
35 *5306:A *1017:6 0
36 *5307:A *5301:B 0
37 *5307:A *1017:75 0
38 *5309:B *1017:62 0
39 *5309:B *1017:75 0
40 *5325:A *5325:B 1.54556e-05
41 *5327:C *5325:B 1.54008e-05
42 *5330:C *5328:B 0
43 *5333:C *5331:B 0
44 *5353:A1 *5376:B 0
45 *5353:A1 *1017:6 7.97166e-05
46 *5354:C *5352:B 0.000338049
47 *5378:A *1017:6 4.76038e-05
48 *5378:C *5376:B 0.000154173
49 *5378:C *1017:6 0
50 *5533:A *5304:B 0
51 *5533:A *1017:6 0
52 *5533:A *1017:47 0
53 *5681:D *1017:6 0
54 *5681:CLK *5352:B 0
55 *5683:CLK *5331:B 0
56 *5697:RESET_B *5328:B 0
57 *5729:D *1017:6 0
58 *164:8 *5325:B 0
59 *462:12 *1017:62 0
60 *492:8 *1017:10 0
61 *622:10 *1017:62 0
62 *622:10 *1017:75 0
63 *622:10 *1017:79 0
64 *669:58 *5325:B 0.000288087
65 *669:97 *5325:B 0
66 *671:33 *1017:6 0
67 *685:22 *5331:B 0.00108441
68 *685:32 *1017:10 0
69 *694:45 *5304:B 0.000242121
70 *694:57 *5352:B 0
71 *695:18 *5301:B 0.000571128
72 *695:18 *1017:75 0.00024211
*RES
1 *6014:X *1017:4 20 
2 *1017:4 *1017:6 6.844 
3 *1017:6 *1017:10 23.0694 
4 *1017:10 *5328:B 46.5096 
5 *1017:10 *5352:B 43.1312 
6 *1017:6 *5376:B 22.5132 
7 *1017:4 *1017:47 20.3193 
8 *1017:47 *5304:B 42.4617 
9 *1017:47 *1017:62 9.5687 
10 *1017:62 *5307:B 40 
11 *1017:62 *1017:75 23.2033 
12 *1017:75 *1017:79 24.0582 
13 *1017:79 *5331:B 47.2409 
14 *1017:79 *5325:B 44.4187 
15 *1017:75 *5301:B 27.6735 
*END

*D_NET *1018 0.00810927
*CONN
*I *5373:B I *D sg13g2_nor2_1
*I *5349:B I *D sg13g2_nor2_1
*I *5379:B I *D sg13g2_nor2_1
*I *5355:B I *D sg13g2_nor2_1
*I *6015:X O *D sg13g2_buf_1
*CAP
1 *5373:B 0
2 *5349:B 0
3 *5379:B 0.000654286
4 *5355:B 0.00056639
5 *6015:X 5.91762e-05
6 *1018:26 0.00193052
7 *1018:20 0.00114897
8 *1018:12 0.000580275
9 *1018:8 0.000200325
10 *5355:B *1060:8 0
11 *5355:B *1060:19 4.79124e-05
12 *5379:B *5430:A1 1.54556e-05
13 *5379:B *1069:6 0.000242088
14 *5379:B *1069:8 0.000274545
15 *1018:8 *1027:78 0
16 *1018:26 *1058:12 1.54008e-05
17 *5350:A1 *1018:20 0
18 *5350:A2 *1018:12 0
19 *5351:A *1018:20 0
20 *5351:C *1018:26 0
21 *5357:B *5355:B 0
22 *5357:C *5355:B 0
23 *5373:A *1018:20 0
24 *5381:B *5379:B 0.000324375
25 *5381:C *5379:B 0
26 *505:10 *1018:12 0.000209637
27 *623:27 *1018:20 0
28 *683:51 *1018:26 0
29 *683:81 *1018:20 0.000500215
30 *695:52 *5355:B 0.00110106
31 *695:52 *5379:B 0.000238641
32 *695:56 *1018:26 0
33 *916:8 *1018:8 0
34 *935:8 *1018:20 0
*RES
1 *6015:X *1018:8 40.5974 
2 *1018:8 *1018:12 21.6171 
3 *1018:12 *1018:20 45.15 
4 *1018:20 *1018:26 27.5911 
5 *1018:26 *5355:B 46.5405 
6 *1018:26 *5379:B 47.5705 
7 *1018:20 *5349:B 20 
8 *1018:12 *5373:B 20 
*END

*D_NET *1019 0.0186848
*CONN
*I *5319:B I *D sg13g2_nor2_1
*I *5295:B I *D sg13g2_nor2_1
*I *6015:A I *D sg13g2_buf_1
*I *5370:B I *D sg13g2_nor2_1
*I *5346:B I *D sg13g2_nor2_1
*I *5322:B I *D sg13g2_nor2_1
*I *5298:B I *D sg13g2_nor2_1
*I *6014:A I *D sg13g2_buf_1
*I *6016:X O *D sg13g2_buf_1
*CAP
1 *5319:B 0.000842959
2 *5295:B 0.000128219
3 *6015:A 0
4 *5370:B 0.000555031
5 *5346:B 0
6 *5322:B 0
7 *5298:B 0.000158409
8 *6014:A 7.21448e-05
9 *6016:X 0.00103835
10 *1019:87 0.00139327
11 *1019:71 0.00122258
12 *1019:56 0.00191452
13 *1019:47 0.000871964
14 *1019:38 0.00124502
15 *1019:18 0.00209328
16 *1019:12 0.00243493
17 *1019:8 0.0013816
18 *5319:B *5954:A 0
19 *5319:B *5967:A 0
20 *5319:B *1029:21 0
21 *5319:B *1079:8 0
22 *1019:47 *5323:B1 0
23 *1019:47 *1057:23 0
24 *1019:56 *1057:23 0
25 *1019:56 *1057:36 0.000341534
26 *1019:71 *1057:36 0.000395396
27 *5297:A *1019:87 4.77425e-05
28 *5299:A1 *1019:8 0
29 *5301:B *1019:18 0
30 *5303:A *1019:18 0
31 *5304:A *6014:A 0
32 *5307:A *1019:18 0
33 *5319:A *5319:B 0
34 *5347:A1 *5370:B 0
35 *5348:A *5370:B 0
36 *5371:A2 *5370:B 0
37 *5374:A1 *1019:71 0
38 *5374:B1 *1019:71 0
39 *5524:A *1019:12 0
40 *5675:RESET_B *1019:87 0.000274583
41 *5709:RESET_B *5370:B 0
42 *5709:D *5370:B 0
43 *5727:RESET_B *1019:71 0
44 *5727:D *1019:71 0.000274507
45 *5729:CLK *6014:A 0
46 *5763:RESET_B *1019:71 0
47 *5763:D *1019:71 0
48 *5763:CLK *1019:71 0
49 *5849:CLK *1019:18 0.0005012
50 *5851:CLK *1019:18 0
51 *5909:A *1019:18 0
52 *505:10 *1019:71 4.78192e-05
53 *606:6 *1019:18 0
54 *622:10 *1019:18 0
55 *622:12 *1019:18 0
56 *670:10 *1019:8 0
57 *670:10 *1019:87 0
58 *670:23 *1019:38 0
59 *670:23 *1019:47 0
60 *670:34 *1019:47 0
61 *670:34 *1019:56 0
62 *671:8 *5319:B 0
63 *671:12 *5319:B 0
64 *696:31 *1019:87 0
65 *696:33 *1019:8 0.000890346
66 *696:33 *1019:87 0
67 *696:43 *1019:8 0.000111787
68 *696:43 *1019:12 0
69 *696:43 *1019:38 0
70 *696:56 *1019:12 0
71 *697:29 *1019:12 0
72 *697:29 *1019:38 0
73 *697:48 *5370:B 0
74 *697:48 *1019:38 0
75 *697:48 *1019:47 0
76 *713:20 *5319:B 0
77 *893:12 *1019:18 0
78 *934:12 *1019:8 0
79 *934:12 *1019:38 0.000447599
80 *934:25 *1019:8 0
81 *1017:62 *1019:18 0
*RES
1 *6016:X *1019:8 47.0246 
2 *1019:8 *1019:12 23.0694 
3 *1019:12 *1019:18 40.9763 
4 *1019:18 *6014:A 40.7519 
5 *1019:12 *5298:B 21.6171 
6 *1019:8 *1019:38 5.3663 
7 *1019:38 *5322:B 40 
8 *1019:38 *1019:47 9.0022 
9 *1019:47 *5346:B 40 
10 *1019:47 *1019:56 2.0806 
11 *1019:56 *5370:B 45.7268 
12 *1019:56 *1019:71 33.7449 
13 *1019:71 *6015:A 20 
14 *6016:X *1019:87 44.1612 
15 *1019:87 *5295:B 41.339 
16 *1019:87 *5319:B 48.7962 
*END

*D_NET *1020 0.0164192
*CONN
*I *5334:B I *D sg13g2_nor2_1
*I *5310:B I *D sg13g2_nor2_1
*I *5313:B I *D sg13g2_nor2_1
*I *5278:B1 I *D sg13g2_o21ai_1
*I *5279:C I *D sg13g2_nor3_1
*I *5282:B1 I *D sg13g2_a21oi_1
*I *5030:A I *D sg13g2_nor2_1
*I *5289:B I *D sg13g2_nor2_1
*I *6017:X O *D sg13g2_buf_1
*CAP
1 *5334:B 0
2 *5310:B 0
3 *5313:B 0.000895467
4 *5278:B1 2.27058e-05
5 *5279:C 0.000104628
6 *5282:B1 0.000315707
7 *5030:A 0
8 *5289:B 0
9 *6017:X 5.17119e-05
10 *1020:113 0.00166322
11 *1020:90 0.00234158
12 *1020:68 0.000301629
13 *1020:51 0.000680868
14 *1020:38 0.00107699
15 *1020:34 0.00173515
16 *1020:25 0.00136134
17 *1020:10 0.0010408
18 *1020:8 0.000785246
19 *5313:B *1053:8 0
20 *1020:25 *1034:20 0.000393734
21 *1020:25 *1044:6 0
22 *1020:34 *1044:56 0
23 *1020:68 *5279:B 0
24 *1020:68 *5281:A1 0
25 *1020:113 *5400:A1 0
26 *1020:113 *6074:A 0
27 *5030:B *1020:34 0
28 *5281:A2 *5278:B1 3.14415e-05
29 *5281:A2 *1020:68 8.48662e-05
30 *5281:B1 *1020:68 0
31 *5283:B2 *5282:B1 0.000533372
32 *5283:B2 *1020:51 0.000370718
33 *5311:A1 *1020:113 0
34 *5315:C *5313:B 0.000369344
35 *5334:A *1020:113 0
36 *5387:B *1020:34 0
37 *5401:A *1020:113 0
38 *5665:D *1020:68 0
39 *5667:CLK *1020:25 0
40 *5753:D *1020:113 0
41 *5877:D *1020:25 0
42 *5877:D *1020:34 0
43 *6019:A *1020:8 0
44 *6026:A *1020:113 0.000242313
45 *79:12 *1020:25 0
46 *160:10 *5313:B 7.49633e-05
47 *351:16 *5279:C 0.000235676
48 *351:16 *1020:51 0.000107782
49 *443:8 *5279:C 0
50 *609:10 *1020:38 0
51 *626:56 *1020:113 0
52 *638:10 *5282:B1 0
53 *638:59 *5313:B 0
54 *638:59 *1020:38 0
55 *663:51 *1020:113 4.77425e-05
56 *664:28 *1020:68 1.54008e-05
57 *668:25 *1020:113 4.77702e-05
58 *675:8 *5278:B1 0
59 *675:14 *5278:B1 0
60 *675:14 *1020:68 0
61 *687:104 *1020:90 0
62 *690:27 *1020:8 7.98406e-05
63 *690:27 *1020:25 0
64 *690:31 *1020:90 0
65 *690:31 *1020:113 0
66 *701:10 *1020:25 0
67 *718:34 *5313:B 0
68 *718:34 *1020:38 0.00140715
69 *920:32 *1020:113 0
70 *1014:16 *5282:B1 0
71 *1014:16 *1020:51 0
*RES
1 *6017:X *1020:8 40.5356 
2 *1020:8 *1020:10 0.5974 
3 *1020:10 *5289:B 40 
4 *1020:10 *1020:25 31.3094 
5 *1020:25 *5030:A 20 
6 *1020:25 *1020:34 23.5638 
7 *1020:34 *1020:38 26.7774 
8 *1020:38 *5282:B1 23.5638 
9 *1020:38 *1020:51 23.296 
10 *1020:51 *5279:C 41.0918 
11 *1020:51 *1020:68 42.6471 
12 *1020:68 *5278:B1 40.2163 
13 *1020:34 *5313:B 48.7344 
14 *1020:8 *1020:90 7.7662 
15 *1020:90 *5310:B 40 
16 *1020:90 *1020:113 38.1486 
17 *1020:113 *5334:B 20 
*END

*D_NET *1021 0.00213376
*CONN
*I *6147:A I *D sg13g2_buf_1
*I *5118:A2 I *D sg13g2_o21ai_1
*I *5569:Q O *D sg13g2_dfrbpq_1
*CAP
1 *6147:A 0
2 *5118:A2 3.04198e-05
3 *5569:Q 0.00047962
4 *1021:27 0.000264151
5 *1021:12 0.00040229
6 *1021:8 0.000587339
7 *5118:B1 *5118:A2 4.77425e-05
8 *5118:B1 *1021:12 0.000161856
9 *5119:A *1021:27 8.02598e-05
10 *5119:B *1021:27 8.00842e-05
11 *5569:RESET_B *1021:12 0
12 *5985:A *1021:8 0
13 *328:8 *1021:8 0
14 *709:43 *1021:8 0
*RES
1 *5569:Q *1021:8 45.047 
2 *1021:8 *1021:12 21.1845 
3 *1021:12 *5118:A2 20.3193 
4 *1021:12 *1021:27 42.6162 
5 *1021:27 *6147:A 20 
*END

*D_NET *1022 0.00944727
*CONN
*I *5358:B I *D sg13g2_nor2_1
*I *5364:B I *D sg13g2_nor2_1
*I *5361:B I *D sg13g2_nor2_1
*I *5337:B I *D sg13g2_nor2_1
*I *6018:X O *D sg13g2_buf_1
*CAP
1 *5358:B 3.42464e-05
2 *5364:B 0.00125129
3 *5361:B 0.000185913
4 *5337:B 0.000180777
5 *6018:X 0
6 *1022:34 0.00226738
7 *1022:21 0.00139932
8 *1022:6 0.000412333
9 *5337:B *5337:A 0
10 *5337:B *5951:A 0.00050816
11 *5364:B *5358:A 0
12 *5364:B *1061:6 0
13 *1022:21 *5951:A 0.000237932
14 *5360:B *5364:B 0
15 *5363:C *5361:B 0
16 *5366:C *5364:B 0.000209856
17 *5369:B *5364:B 0
18 *5701:CLK *5364:B 0
19 *5721:D *5364:B 0.000274507
20 *5950:A *5361:B 0.000209725
21 *5956:A *5361:B 0
22 *498:10 *1022:34 0.000941304
23 *664:22 *5337:B 0.000346047
24 *674:33 *1022:34 0.00039953
25 *674:41 *5364:B 0
26 *702:39 *5337:B 8.00842e-05
27 *702:67 *1022:34 0.000508868
28 *702:107 *5364:B 0
29 *993:10 *5364:B 0
*RES
1 *6018:X *1022:6 40 
2 *1022:6 *5337:B 42.8634 
3 *1022:6 *1022:21 2.3999 
4 *1022:21 *5361:B 42.0497 
5 *1022:21 *1022:34 32.2158 
6 *1022:34 *5364:B 32.1643 
7 *1022:34 *5358:B 20.3193 
*END

*D_NET *1023 0.0203665
*CONN
*I *6018:A I *D sg13g2_buf_1
*I *5286:B I *D sg13g2_nor2_1
*I *5340:B I *D sg13g2_nor2_1
*I *5367:B I *D sg13g2_nor2_1
*I *5343:B I *D sg13g2_nor2_1
*I *5316:B I *D sg13g2_nor2_1
*I *5292:B I *D sg13g2_nor2_1
*I *6017:A I *D sg13g2_buf_1
*I *6019:X O *D sg13g2_buf_1
*CAP
1 *6018:A 0
2 *5286:B 0
3 *5340:B 0.00023666
4 *5367:B 0
5 *5343:B 0.000642648
6 *5316:B 3.52731e-05
7 *5292:B 0.000992295
8 *6017:A 0.00019823
9 *6019:X 0.000409228
10 *1023:114 0.00168861
11 *1023:83 0.000285791
12 *1023:64 0.00147392
13 *1023:60 0.00123833
14 *1023:49 0.00101946
15 *1023:34 0.00214888
16 *1023:26 0.0016644
17 *1023:22 0.00293543
18 *5340:B *5340:A 0
19 *5340:B *6057:A 0
20 *1023:34 *5286:A 0
21 *1023:83 *1029:47 0
22 *1023:83 *1030:41 0
23 *1023:114 *5402:A1 0
24 *1023:114 *6045:A 0.000112618
25 *5287:A1 *1023:26 0
26 *5287:A1 *1023:34 0
27 *5287:B1 *1023:26 0
28 *5288:A *1023:26 7.99242e-05
29 *5288:B *1023:26 0
30 *5293:A1 *5292:B 0
31 *5294:A *5292:B 4.77425e-05
32 *5294:C *5292:B 0
33 *5312:B *1023:114 0.000129077
34 *5344:A1 *5343:B 0
35 *5369:B *5340:B 0
36 *5369:B *1023:64 0
37 *5369:C *5343:B 0
38 *5385:B *1023:114 0
39 *5403:A *1023:114 0.000177399
40 *5403:B *1023:114 0.000339722
41 *5669:D *1023:26 0
42 *5669:CLK *1023:26 0
43 *5669:CLK *1023:34 0
44 *5673:RESET_B *5292:B 0
45 *5673:D *5292:B 0
46 *5685:CLK *1023:114 0
47 *5707:RESET_B *5343:B 0
48 *5707:D *5343:B 2.21754e-05
49 *5741:CLK *5340:B 0
50 *5755:D *1023:114 0.000264231
51 *5901:A *1023:49 0.000288172
52 *5901:A *1023:60 0.00101217
53 *5956:A *1023:114 0.0001122
54 *5992:A *1023:49 0
55 *6016:A *5292:B 0
56 *6016:A *1023:49 0
57 *6019:A *6017:A 0
58 *6019:A *1023:26 0
59 *263:18 *1023:26 0
60 *448:8 *1023:34 0
61 *464:12 *1023:114 0.000713261
62 *485:18 *5343:B 0.000160552
63 *605:154 *5343:B 0
64 *618:10 *5340:B 5.30319e-05
65 *618:10 *1023:60 0.000609183
66 *618:10 *1023:64 0.000598483
67 *625:21 *1023:34 0
68 *625:21 *1023:49 0
69 *673:10 *1023:114 7.51285e-05
70 *673:14 *1023:114 4.76053e-05
71 *687:73 *5292:B 0
72 *687:104 *1023:26 0
73 *696:105 *5343:B 0
74 *701:14 *1023:114 0
75 *701:57 *1023:34 0
76 *701:57 *1023:49 0
77 *701:109 *1023:49 0
78 *701:109 *1023:60 0
79 *701:124 *1023:60 0
80 *702:47 *1023:22 0.000345068
81 *717:12 *1023:114 0
82 *717:16 *1023:114 0
83 *717:31 *1023:114 0
84 *719:58 *1023:34 0
85 *984:10 *1023:64 0.000209599
*RES
1 *6019:X *6017:A 41.9982 
2 *6019:X *1023:22 42.575 
3 *1023:22 *1023:26 30.4854 
4 *1023:26 *1023:34 46.3551 
5 *1023:34 *5292:B 30.0013 
6 *1023:34 *1023:49 26.5714 
7 *1023:49 *5316:B 40.3193 
8 *1023:49 *1023:60 7.519 
9 *1023:60 *1023:64 26.1594 
10 *1023:64 *5343:B 26.6435 
11 *1023:64 *1023:83 42.6471 
12 *1023:83 *5367:B 20 
13 *1023:60 *5340:B 42.4623 
14 *1023:26 *5286:B 20 
15 *1023:22 *1023:114 38.6121 
16 *1023:114 *6018:A 20 
*END

*D_NET *1024 0.0110252
*CONN
*I *5495:A I *D sg13g2_nor4_1
*I *5491:A I *D sg13g2_nor4_1
*I *5498:A I *D sg13g2_nor4_1
*I *5457:A I *D sg13g2_nor3_1
*I *5472:A I *D sg13g2_or4_1
*I *5504:A I *D sg13g2_nor4_1
*I *5507:A I *D sg13g2_nor4_1
*I *5501:A I *D sg13g2_nor4_1
*I *6020:X O *D sg13g2_buf_1
*CAP
1 *5495:A 0.0001318
2 *5491:A 0.000335911
3 *5498:A 0
4 *5457:A 2.36489e-05
5 *5472:A 0.000684786
6 *5504:A 0
7 *5507:A 0.000121725
8 *5501:A 0.000222411
9 *6020:X 0.000120179
10 *1024:73 0.00124811
11 *1024:54 0.000568142
12 *1024:39 0.000551704
13 *1024:24 0.00103168
14 *1024:18 0.000947928
15 *1024:12 0.00101234
16 *1024:10 0.000388241
17 *5472:A *5472:B 1.54008e-05
18 *5491:A *5491:B 1.54008e-05
19 *5495:A *5495:B 0.000112558
20 *5507:A *5507:B 1.54008e-05
21 *1024:10 *5495:B 0.000144767
22 *1024:18 *5498:B 1.54008e-05
23 *1024:54 *1132:27 1.54008e-05
24 *1024:73 *1132:27 6.46834e-05
25 *5491:D *1024:10 8.00521e-05
26 *5498:C *1024:18 0
27 *5499:D *5501:A 0
28 *5501:C *5501:A 0.000240816
29 *5501:C *1024:39 0.0001944
30 *5505:D *5507:A 4.77425e-05
31 *5993:A *5472:A 0
32 *5999:A *1024:73 0
33 *69:22 *5501:A 0
34 *69:22 *1024:73 0
35 *246:10 *5491:A 0.000209637
36 *246:10 *1024:12 0
37 *583:10 *5507:A 0.000181559
38 *605:43 *5472:A 0
39 *605:66 *1024:18 0
40 *614:21 *5507:A 0.000338868
41 *614:21 *1024:39 0.000127853
42 *650:59 *5495:A 0
43 *678:22 *1024:12 0
44 *678:22 *1024:18 0
45 *680:22 *5491:A 0
46 *680:24 *1024:18 0
47 *680:32 *1024:73 0
48 *680:42 *5472:A 0.000874328
49 *680:71 *1024:39 0
50 *693:43 *5507:A 0
51 *693:88 *5501:A 0
52 *714:26 *5472:A 8.02763e-05
53 *714:26 *1024:54 4.77425e-05
54 *714:26 *1024:73 0.000144768
55 *1001:61 *5491:A 0
56 *1006:44 *5491:A 0.000306832
57 *1008:25 *5472:A 0
58 *1008:48 *1024:24 0
59 *1008:63 *1024:24 0.000181366
60 *1008:87 *1024:73 0.000181387
*RES
1 *6020:X *1024:10 41.3184 
2 *1024:10 *1024:12 1.339 
3 *1024:12 *1024:18 25.0573 
4 *1024:18 *1024:24 44.3054 
5 *1024:24 *5501:A 22.266 
6 *1024:24 *1024:39 24.2951 
7 *1024:39 *5507:A 41.9055 
8 *1024:39 *1024:54 20.3193 
9 *1024:54 *5504:A 20 
10 *1024:54 *1024:73 45.3972 
11 *1024:73 *5472:A 27.8754 
12 *1024:73 *5457:A 20.3502 
13 *1024:18 *5498:A 20 
14 *1024:12 *5491:A 43.3475 
15 *1024:10 *5495:A 41.3493 
*END

*D_NET *1025 0.0168178
*CONN
*I *5129:A1 I *D sg13g2_o21ai_1
*I *5137:A1 I *D sg13g2_o21ai_1
*I *5138:A1 I *D sg13g2_a21oi_1
*I *5142:A1 I *D sg13g2_a21oi_1
*I *5141:A1 I *D sg13g2_o21ai_1
*I *5143:A1 I *D sg13g2_o21ai_1
*I *5144:A1 I *D sg13g2_a21oi_1
*I *5139:S I *D sg13g2_mux2_1
*I *6021:X O *D sg13g2_buf_1
*CAP
1 *5129:A1 0
2 *5137:A1 0
3 *5138:A1 0
4 *5142:A1 3.22077e-05
5 *5141:A1 1.91638e-05
6 *5143:A1 0
7 *5144:A1 0.000147022
8 *5139:S 0.000726556
9 *6021:X 0.000374433
10 *1025:97 0.000447785
11 *1025:89 0.000835445
12 *1025:60 0.000559367
13 *1025:37 0.00175037
14 *1025:24 0.00188318
15 *1025:20 0.000326436
16 *1025:18 0.0010493
17 *1025:16 0.00331606
18 *1025:14 0.00255393
19 *1025:10 0.000822429
20 *5139:S *1102:69 0
21 *1025:10 *6021:A 0
22 *1025:10 *1041:12 0
23 *1025:37 *1102:69 0
24 *5137:B1 *1025:89 0
25 *5138:B1 *1025:97 0.000598751
26 *5141:B1 *5142:A1 0
27 *5141:A2 *5139:S 0
28 *5141:A2 *5141:A1 4.78359e-05
29 *5142:A2 *5142:A1 1.54556e-05
30 *5143:B1 *1025:60 0
31 *5587:RESET_B *1025:97 0
32 *5591:D *5142:A1 0
33 *5593:RESET_B *1025:60 0
34 *5649:CLK *1025:16 0
35 *5857:RESET_B *1025:14 0
36 *5857:D *1025:14 0
37 *113:8 *1025:37 0
38 *252:12 *1025:37 0
39 *253:14 *1025:60 0.000498385
40 *335:12 *1025:10 0
41 *631:29 *1025:16 0
42 *631:42 *1025:16 0
43 *631:53 *1025:16 0
44 *631:79 *1025:10 0.000241631
45 *632:66 *1025:16 0.000556648
46 *699:20 *1025:14 0
47 *704:27 *1025:89 0
48 *704:29 *1025:89 0
49 *704:40 *1025:16 0
50 *704:53 *1025:16 0
51 *704:68 *1025:14 0
52 *704:68 *1025:16 0
53 *704:79 *1025:18 0
54 *704:85 *5139:S 0
55 *720:27 *1025:16 0
56 *742:29 *1025:89 1.54008e-05
57 *749:8 *1025:37 0
58 *753:12 *5139:S 0
59 *765:8 *1025:18 0
60 *765:8 *1025:20 0
61 *765:16 *5139:S 0
62 *776:32 *1025:60 0
*RES
1 *6021:X *1025:10 23.9599 
2 *1025:10 *1025:14 24.2127 
3 *1025:14 *1025:16 26.5534 
4 *1025:16 *1025:18 8.2606 
5 *1025:18 *1025:20 1.8334 
6 *1025:20 *1025:24 21.339 
7 *1025:24 *5139:S 27.2071 
8 *1025:24 *1025:37 31.9789 
9 *1025:37 *5144:A1 41.339 
10 *1025:37 *1025:60 45.8916 
11 *1025:60 *5143:A1 40 
12 *1025:20 *5141:A1 40.3193 
13 *1025:18 *5142:A1 40.3193 
14 *1025:16 *1025:89 23.7801 
15 *1025:89 *1025:97 45.0882 
16 *1025:97 *5138:A1 20 
17 *1025:89 *5137:A1 20 
18 *1025:10 *5129:A1 20 
*END

*D_NET *1026 0.0103551
*CONN
*I *5130:A1 I *D sg13g2_a21oi_1
*I *5134:A1 I *D sg13g2_a21oi_1
*I *5133:A1 I *D sg13g2_o21ai_1
*I *5131:A1 I *D sg13g2_o21ai_1
*I *5132:A1 I *D sg13g2_a21oi_1
*I *5135:A1 I *D sg13g2_o21ai_1
*I *5136:A1 I *D sg13g2_a21oi_1
*I *6022:X O *D sg13g2_buf_1
*CAP
1 *5130:A1 0
2 *5134:A1 0
3 *5133:A1 0
4 *5131:A1 5.18976e-05
5 *5132:A1 5.41833e-05
6 *5135:A1 0.000405992
7 *5136:A1 4.97493e-05
8 *6022:X 0.000200994
9 *1026:81 0.00042391
10 *1026:34 0.00121094
11 *1026:30 0.00118116
12 *1026:24 0.000897387
13 *1026:16 0.000984698
14 *1026:14 0.00116028
15 *1026:12 0.000364138
16 *1026:8 0.000339748
17 *5131:A2 *5131:A1 6.46834e-05
18 *5131:A2 *1026:30 0.000307057
19 *5132:A2 *5132:A1 1.54008e-05
20 *5132:B1 *1026:30 0
21 *5134:A2 *1026:81 0.000239999
22 *5135:A2 *5135:A1 0.00037174
23 *5136:A2 *5135:A1 0
24 *5136:B1 *5135:A1 0
25 *5581:CLK *1026:30 0
26 *5583:RESET_B *1026:16 0
27 *107:10 *1026:30 0
28 *109:10 *5135:A1 3.23472e-05
29 *109:10 *5136:A1 8.02105e-05
30 *259:10 *1026:12 0.000224668
31 *259:10 *1026:14 1.53311e-05
32 *335:12 *1026:8 0
33 *337:18 *1026:16 0.000207923
34 *631:79 *1026:8 0
35 *632:66 *1026:12 0
36 *632:66 *1026:14 0
37 *632:66 *1026:16 0
38 *704:53 *1026:24 0.00136433
39 *704:68 *1026:24 0.000106333
40 *710:8 *1026:24 0
41 *710:27 *1026:30 0
42 *720:8 *1026:16 0
*RES
1 *6022:X *1026:8 42.0806 
2 *1026:8 *1026:12 21.6171 
3 *1026:12 *1026:14 2.4823 
4 *1026:14 *1026:16 3.9001 
5 *1026:16 *1026:24 47.313 
6 *1026:24 *1026:30 23.7286 
7 *1026:30 *1026:34 27.0246 
8 *1026:34 *5136:A1 20.5356 
9 *1026:34 *5135:A1 24.2642 
10 *1026:30 *5132:A1 40.5356 
11 *1026:24 *5131:A1 20.5356 
12 *1026:16 *5133:A1 20 
13 *1026:14 *1026:81 44.9337 
14 *1026:81 *5134:A1 20 
15 *1026:12 *5130:A1 20 
*END

*D_NET *1027 0.0227268
*CONN
*I *5410:S I *D sg13g2_mux2_1
*I *5394:S I *D sg13g2_mux2_1
*I *5426:S I *D sg13g2_mux2_1
*I *5446:S I *D sg13g2_mux2_1
*I *5430:S I *D sg13g2_mux2_1
*I *5414:S I *D sg13g2_mux2_1
*I *5398:S I *D sg13g2_mux2_1
*I *5444:S I *D sg13g2_mux2_1
*I *6023:X O *D sg13g2_buf_1
*CAP
1 *5410:S 0.000312003
2 *5394:S 0
3 *5426:S 0
4 *5446:S 0
5 *5430:S 0.000340999
6 *5414:S 3.45846e-05
7 *5398:S 1.9565e-05
8 *5444:S 6.83533e-05
9 *6023:X 2.77263e-05
10 *1027:121 0.00116297
11 *1027:108 0.00129189
12 *1027:92 0.000955793
13 *1027:82 0.00098433
14 *1027:78 0.00123243
15 *1027:54 0.000490826
16 *1027:34 0.00127778
17 *1027:26 0.00149975
18 *1027:18 0.00204125
19 *1027:8 0.00301219
20 *1027:6 0.000621708
21 *5398:S *1083:32 0
22 *5410:S *1058:34 0
23 *5444:S *5444:A1 0
24 *1027:18 *5355:A 0
25 *1027:18 *5414:A1 0
26 *1027:18 *1060:8 0
27 *1027:18 *1060:19 0
28 *1027:34 *1083:32 0
29 *1027:78 *1058:8 0
30 *1027:78 *1058:18 0
31 *1027:78 *1058:34 0
32 *1027:78 *1067:23 0
33 *1027:92 *5446:A1 0
34 *1027:92 *1067:15 0
35 *1027:92 *1067:23 0
36 *1027:108 *6066:A 0.000339491
37 *1027:121 *6066:A 8.00842e-05
38 *1027:121 *1028:72 0
39 *1027:121 *1081:21 0
40 *5325:A *1027:108 0.000436805
41 *5325:A *1027:121 0.00012933
42 *5325:B *1027:108 0
43 *5327:B *1027:18 0
44 *5327:C *1027:8 0
45 *5327:C *1027:18 0
46 *5395:A *1027:108 0
47 *5414:A0 *5430:S 0.000714418
48 *5414:A0 *1027:54 0.000182109
49 *5427:B *1027:92 0
50 *5431:B *5430:S 0.00117118
51 *5431:B *1027:26 0.00012816
52 *5431:B *1027:54 0.000480694
53 *5695:RESET_B *1027:18 0.000338608
54 *5699:RESET_B *1027:34 0
55 *5747:CLK *1027:121 0
56 *5799:CLK *1027:92 0
57 *69:10 *5430:S 0
58 *69:10 *1027:26 0
59 *69:10 *1027:54 0
60 *474:8 *1027:78 0
61 *505:10 *1027:78 0
62 *533:10 *1027:92 0
63 *622:65 *1027:121 0
64 *623:27 *1027:82 0
65 *623:27 *1027:92 0
66 *644:63 *1027:34 0.00115399
67 *669:58 *1027:78 0
68 *669:71 *1027:78 0
69 *671:18 *1027:34 0
70 *679:35 *1027:121 0
71 *683:47 *1027:78 0
72 *683:81 *1027:78 0
73 *695:71 *1027:78 0
74 *711:18 *1027:8 0
75 *711:18 *1027:18 0
76 *711:18 *1027:78 0
77 *711:18 *1027:108 0
78 *711:20 *1027:18 0
79 *711:30 *1027:26 0.000821397
80 *713:39 *1027:92 0
81 *916:8 *1027:78 0
82 *935:8 *1027:78 0.000501632
83 *963:8 *1027:78 0
84 *967:10 *5430:S 0.000212958
85 *974:10 *1027:92 0
86 *976:8 *5430:S 0
87 *985:23 *1027:26 0
88 *985:23 *1027:34 0
89 *992:21 *1027:26 0.000661801
90 *1018:8 *1027:78 0
*RES
1 *6023:X *1027:6 20.3502 
2 *1027:6 *1027:8 1.3443 
3 *1027:8 *1027:18 36.6654 
4 *1027:18 *1027:26 25.1912 
5 *1027:26 *1027:34 34.523 
6 *1027:34 *5444:S 40.6695 
7 *1027:26 *5398:S 20.3193 
8 *1027:18 *1027:54 2.3278 
9 *1027:54 *5414:S 40.3193 
10 *1027:54 *5430:S 46.6023 
11 *1027:8 *1027:78 34.4406 
12 *1027:78 *1027:82 20.3193 
13 *1027:82 *1027:92 49.5528 
14 *1027:92 *5446:S 20 
15 *1027:82 *5426:S 20 
16 *1027:6 *1027:108 4.7598 
17 *1027:108 *5394:S 20 
18 *1027:108 *1027:121 47.4984 
19 *1027:121 *5410:S 23.1312 
*END

*D_NET *1028 0.0201771
*CONN
*I *5442:S I *D sg13g2_mux2_1
*I *6023:A I *D sg13g2_buf_1
*I *5396:S I *D sg13g2_mux2_1
*I *5412:S I *D sg13g2_mux2_1
*I *5428:S I *D sg13g2_mux2_1
*I *6024:X O *D sg13g2_buf_1
*CAP
1 *5442:S 0.000165288
2 *6023:A 8.3051e-05
3 *5396:S 0
4 *5412:S 3.21221e-05
5 *5428:S 3.1883e-05
6 *6024:X 0
7 *1028:72 0.00217671
8 *1028:54 0.000622728
9 *1028:39 0.00065485
10 *1028:37 0.0010412
11 *1028:26 0.0011404
12 *1028:22 0.001259
13 *1028:18 0.00285396
14 *1028:8 0.0023012
15 *1028:4 0.0025673
16 *5428:S *5428:A1 0
17 *5442:S *5442:A1 0
18 *1028:26 *5428:A1 0
19 *1028:37 *1059:16 0.000941165
20 *1028:72 *1081:8 0
21 *5325:A *1028:8 0
22 *5325:B *1028:8 0
23 *5412:A0 *5412:S 0
24 *5413:A *5412:S 0
25 *5413:A *1028:54 0
26 *5443:A *5442:S 0
27 *5445:B *1028:22 0
28 *5699:RESET_B *1028:18 0
29 *5781:RESET_B *5428:S 0
30 *5781:RESET_B *1028:26 0
31 *5795:D *5442:S 0
32 *69:10 *1028:22 0
33 *69:10 *1028:37 0
34 *199:8 *1028:37 0
35 *458:10 *1028:8 0
36 *669:6 *1028:18 0.000825158
37 *669:23 *1028:18 0
38 *669:29 *1028:18 0
39 *669:58 *6023:A 0.000266319
40 *669:58 *1028:18 0.00018211
41 *669:97 *1028:8 0
42 *669:97 *1028:18 3.23417e-05
43 *671:12 *1028:8 0
44 *671:18 *1028:18 0.00144096
45 *679:35 *1028:72 0
46 *711:20 *1028:18 0
47 *711:30 *1028:22 0
48 *713:24 *1028:72 0
49 *713:39 *5442:S 0
50 *713:39 *1028:72 0
51 *714:45 *1028:54 0.000996718
52 *714:51 *1028:37 0
53 *846:8 *1028:37 0.00056264
54 *985:23 *1028:18 0
55 *1027:121 *1028:72 0
*RES
1 *6024:X *1028:4 20 
2 *1028:4 *1028:8 25.5105 
3 *1028:8 *1028:18 38.3031 
4 *1028:18 *1028:22 32.2158 
5 *1028:22 *1028:26 20.7519 
6 *1028:26 *5428:S 20.1345 
7 *1028:26 *1028:37 34.1934 
8 *1028:37 *1028:39 20 
9 *1028:39 *5412:S 20.3193 
10 *1028:39 *1028:54 48.3327 
11 *1028:54 *5396:S 20 
12 *1028:8 *6023:A 41.339 
13 *1028:4 *1028:72 37.6542 
14 *1028:72 *5442:S 41.4008 
*END

*D_NET *1029 0.0135296
*CONN
*I *5422:S I *D sg13g2_mux2_1
*I *5440:S I *D sg13g2_mux2_1
*I *5424:S I *D sg13g2_mux2_1
*I *5408:S I *D sg13g2_mux2_1
*I *5406:S I *D sg13g2_mux2_1
*I *5390:S I *D sg13g2_mux2_1
*I *5392:S I *D sg13g2_mux2_1
*I *5388:S I *D sg13g2_mux2_1
*I *6025:X O *D sg13g2_buf_1
*CAP
1 *5422:S 0
2 *5440:S 6.68694e-05
3 *5424:S 2.77263e-05
4 *5408:S 0.000363039
5 *5406:S 0
6 *5390:S 4.72978e-05
7 *5392:S 0
8 *5388:S 4.72978e-05
9 *6025:X 0.000378613
10 *1029:70 0.000971764
11 *1029:66 0.00124449
12 *1029:57 0.001135
13 *1029:51 0.000592346
14 *1029:47 0.00148969
15 *1029:31 0.000851108
16 *1029:21 0.00183919
17 *1029:19 0.00254772
18 *1029:10 0.000597126
19 *5408:S *6046:A 0
20 *5440:S *6041:A 0
21 *1029:10 *5388:A1 0
22 *1029:10 *6025:A 0
23 *1029:10 *6053:A 0.00017763
24 *1029:10 *1030:18 0
25 *1029:21 *5390:A1 0
26 *1029:21 *5954:A 0
27 *1029:47 *1030:41 0
28 *1029:47 *1064:30 0.000235055
29 *1029:47 *1064:43 0
30 *1029:51 *1064:22 0
31 *1029:51 *1064:30 0
32 *1029:57 *5406:A1 0
33 *1029:57 *6068:A 0
34 *1029:57 *1064:22 0
35 *1029:57 *1064:30 0
36 *1029:66 *6041:A 0
37 *1029:66 *1074:8 0
38 *1029:70 *6041:A 0
39 *1029:70 *1066:28 0
40 *1029:70 *1066:41 0
41 *5316:A *1029:10 1.54008e-05
42 *5319:A *1029:21 0
43 *5319:B *1029:21 0
44 *5320:A1 *1029:21 0
45 *5321:C *1029:21 0
46 *5368:A1 *1029:47 0
47 *5389:A *1029:10 0
48 *5389:A *1029:19 0
49 *5390:A0 *1029:21 0
50 *5390:A0 *1029:31 0
51 *5392:A0 *1029:31 0
52 *5407:A *1029:66 0
53 *5409:B *5408:S 0
54 *5423:A *1029:57 0
55 *5424:A0 *5408:S 0
56 *5424:A0 *1029:70 0
57 *5439:B *1029:57 0
58 *5441:A *1029:66 0
59 *5691:RESET_B *1029:21 0
60 *5691:CLK *1029:21 0
61 *5691:CLK *1029:31 0
62 *5741:D *1029:10 0
63 *5929:A *1029:66 0
64 *652:8 *1029:31 0.000238459
65 *652:30 *1029:31 0.000129968
66 *671:12 *1029:31 0
67 *687:20 *1029:21 0
68 *687:24 *1029:47 0
69 *687:52 *1029:19 0
70 *687:52 *1029:21 0
71 *712:16 *1029:21 0
72 *712:42 *5408:S 0
73 *712:42 *1029:70 0
74 *712:64 *1029:66 0
75 *712:71 *1029:57 0
76 *712:71 *1029:66 0
77 *712:96 *1029:10 0
78 *713:20 *1029:21 0.000291667
79 *713:20 *1029:31 0.000242138
80 *713:54 *1029:66 0
81 *984:10 *1029:47 0
82 *1023:83 *1029:47 0
*RES
1 *6025:X *1029:10 23.8007 
2 *1029:10 *5388:S 20.5974 
3 *1029:10 *1029:19 1.8334 
4 *1029:19 *1029:21 10.0528 
5 *1029:21 *1029:31 49.579 
6 *1029:31 *5392:S 20 
7 *1029:21 *5390:S 20.5974 
8 *1029:19 *1029:47 34.6878 
9 *1029:47 *1029:51 20.5356 
10 *1029:51 *1029:57 4.8336 
11 *1029:57 *5406:S 20 
12 *1029:57 *1029:66 5.6824 
13 *1029:66 *1029:70 5.989 
14 *1029:70 *5408:S 23.3012 
15 *1029:70 *5424:S 20.3502 
16 *1029:66 *5440:S 20.8446 
17 *1029:51 *5422:S 20 
*END

*D_NET *1030 0.0247977
*CONN
*I *6025:A I *D sg13g2_buf_1
*I *6021:A I *D sg13g2_buf_1
*I *6022:A I *D sg13g2_buf_1
*I *5438:S I *D sg13g2_mux2_1
*I *6024:A I *D sg13g2_buf_1
*I *6026:X O *D sg13g2_buf_1
*CAP
1 *6025:A 5.641e-05
2 *6021:A 7.97013e-05
3 *6022:A 0.000325742
4 *5438:S 0
5 *6024:A 0
6 *6026:X 0
7 *1030:56 0.00504567
8 *1030:52 0.00480981
9 *1030:41 0.000915125
10 *1030:30 0.0032533
11 *1030:18 0.0046356
12 *1030:4 0.000580351
13 *6021:A *1041:12 0
14 *1030:41 *1064:30 0
15 *1030:41 *1064:43 0.000661471
16 *1030:56 *1033:8 0
17 *5293:B1 *1030:56 0.000345126
18 *5316:A *1030:56 0.000429632
19 *5317:A1 *1030:41 0
20 *5323:A2 *1030:30 0
21 *5325:A *1030:30 0
22 *5368:A2 *1030:41 0
23 *5393:A *1030:30 0
24 *5393:B *1030:30 0
25 *5579:RESET_B *6022:A 0
26 *5693:RESET_B *1030:30 0
27 *5693:CLK *1030:30 0.000478312
28 *5741:D *1030:18 1.54556e-05
29 *5743:RESET_B *1030:30 0
30 *5743:D *1030:30 0.000177224
31 *5807:CLK *1030:56 0
32 *5992:A *1030:52 0
33 *5992:A *1030:56 0
34 *6004:A *1030:56 0
35 *221:10 *1030:56 0
36 *237:10 *1030:56 0
37 *335:12 *6022:A 0
38 *502:8 *1030:41 0
39 *555:10 *1030:56 0
40 *605:165 *1030:41 0
41 *631:79 *6021:A 0
42 *631:79 *6022:A 0
43 *632:66 *6022:A 0
44 *651:31 *1030:56 0
45 *652:47 *1030:30 0
46 *673:80 *1030:18 0.000177164
47 *673:80 *1030:30 0.00121368
48 *687:56 *1030:56 0
49 *690:35 *1030:18 0.000177164
50 *711:10 *1030:30 0
51 *712:16 *1030:30 0
52 *712:96 *1030:52 0
53 *712:96 *1030:56 0
54 *713:10 *1030:18 1.54008e-05
55 *713:10 *1030:30 0
56 *713:14 *1030:30 0
57 *713:20 *1030:30 0
58 *719:43 *1030:56 0
59 *719:58 *1030:56 0
60 *722:10 *1030:18 8.00842e-05
61 *984:10 *1030:41 0.000982896
62 *984:30 *1030:41 0
63 *1007:8 *1030:56 0.000342339
64 *1023:83 *1030:41 0
65 *1025:10 *6021:A 0
66 *1029:10 *6025:A 0
67 *1029:10 *1030:18 0
68 *1029:47 *1030:41 0
*RES
1 *6026:X *1030:4 20 
2 *1030:4 *1030:18 45.0264 
3 *1030:18 *1030:30 33.2484 
4 *1030:30 *6024:A 20 
5 *1030:18 *1030:41 32.5351 
6 *1030:41 *5438:S 40 
7 *1030:4 *1030:52 21.0918 
8 *1030:52 *1030:56 47.1431 
9 *1030:56 *6022:A 43.3269 
10 *1030:56 *6021:A 40.7519 
11 *1030:52 *6025:A 40.5356 
*END

*D_NET *1031 0.0148089
*CONN
*I *5147:A I *D sg13g2_and2_1
*I *5151:A1 I *D sg13g2_a21oi_1
*I *5148:S I *D sg13g2_mux2_1
*I *5146:A1 I *D sg13g2_a21oi_1
*I *5145:A1 I *D sg13g2_o21ai_1
*I *5150:A1 I *D sg13g2_o21ai_1
*I *5127:A1 I *D sg13g2_o21ai_1
*I *5252:A I *D sg13g2_nand4_1
*I *6027:X O *D sg13g2_buf_1
*CAP
1 *5147:A 2.60565e-05
2 *5151:A1 0
3 *5148:S 0
4 *5146:A1 0.000584748
5 *5145:A1 0.0002836
6 *5150:A1 6.92281e-05
7 *5127:A1 0.000754193
8 *5252:A 0.000291607
9 *6027:X 0.00073522
10 *1031:74 0.000969029
11 *1031:72 0.0012467
12 *1031:66 0.00152326
13 *1031:36 0.000936239
14 *1031:34 0.00106655
15 *1031:32 0.000985073
16 *1031:12 0.000644298
17 *5146:A1 *1106:14 1.54008e-05
18 *5147:A *5147:B 4.77425e-05
19 *1031:12 *1104:35 0.000435402
20 *1031:32 *5147:B 0
21 *1031:32 *1104:35 2.46413e-05
22 *5127:A2 *5127:A1 0.000161086
23 *5145:B1 *5145:A1 0
24 *5145:B1 *5146:A1 0
25 *5145:A2 *5145:A1 1.54556e-05
26 *5146:B1 *5146:A1 0
27 *5150:A2 *5150:A1 1.53666e-05
28 *5151:A2 *1031:34 0
29 *5151:A2 *1031:66 0.000690888
30 *5151:A2 *1031:72 1.53311e-05
31 *5151:B1 *1031:66 0.000304608
32 *5252:C *5252:A 8.02379e-05
33 *5252:D *5252:A 0
34 *5254:C *1031:12 7.93152e-05
35 *5257:A2 *5252:A 0
36 *5257:B1 *5252:A 0
37 *5266:A1 *1031:34 0
38 *5266:A2 *5147:A 4.77425e-05
39 *5595:CLK *5146:A1 0
40 *5655:RESET_B *1031:72 0
41 *5655:CLK *1031:72 0
42 *6083:A *5127:A1 0
43 *146:8 *1031:36 0
44 *388:36 *5252:A 8.02924e-05
45 *421:21 *1031:12 0.000371186
46 *422:10 *1031:12 0
47 *620:14 *1031:12 0.000181192
48 *630:16 *1031:72 0
49 *630:57 *1031:66 0.000224808
50 *630:57 *1031:72 0.000239999
51 *630:77 *1031:72 7.93154e-05
52 *656:22 *1031:32 0
53 *656:22 *1031:34 0
54 *688:8 *5127:A1 0.00109244
55 *709:47 *5150:A1 0
56 *709:47 *1031:72 0
57 *809:8 *1031:72 0
58 *809:8 *1031:74 0
59 *809:25 *5145:A1 0.000287672
60 *809:25 *1031:74 0.00012816
61 *820:14 *5127:A1 0
62 *1012:67 *1031:32 7.48461e-05
*RES
1 *6027:X *1031:12 44.2951 
2 *1031:12 *5252:A 42.6986 
3 *6027:X *1031:32 43.1415 
4 *1031:32 *1031:34 5.047 
5 *1031:34 *1031:36 1.0918 
6 *1031:36 *5127:A1 49.6511 
7 *1031:36 *5150:A1 40.8549 
8 *1031:34 *1031:66 24.6453 
9 *1031:66 *1031:72 32.9368 
10 *1031:72 *1031:74 1.339 
11 *1031:74 *5145:A1 43.1724 
12 *1031:74 *5146:A1 45.7268 
13 *1031:72 *5148:S 40 
14 *1031:66 *5151:A1 20 
15 *1031:32 *5147:A 40.3193 
*END

*D_NET *1032 0.0153604
*CONN
*I *5967:A I *D sg13g2_buf_1
*I *5971:A I *D sg13g2_buf_1
*I *5805:Q O *D sg13g2_dfrbpq_1
*CAP
1 *5967:A 0.000418453
2 *5971:A 0
3 *5805:Q 0
4 *1032:35 0.00242131
5 *1032:26 0.00032185
6 *1032:20 0.00255949
7 *1032:6 0.0042405
8 *5967:A *5954:A 0
9 *1032:20 *5454:C 0
10 *1032:20 *5456:D 0
11 *1032:20 *1051:29 0
12 *1032:20 *1124:6 0
13 *1032:35 *1035:16 0.00151477
14 *1032:35 *1035:46 0
15 *1032:35 *1125:8 0
16 *1032:35 *1125:10 0
17 *5033:B *1032:26 0
18 *5319:B *5967:A 0
19 *5321:B *5967:A 0
20 *5321:C *5967:A 0
21 *5383:A1 *1032:20 0.000208938
22 *5383:A2 *1032:20 0
23 *5454:A *1032:20 0
24 *5470:C *1032:35 0
25 *69:34 *1032:20 0
26 *183:10 *1032:20 0.000242154
27 *222:8 *1032:35 0
28 *238:8 *1032:35 0
29 *266:27 *1032:26 0
30 *671:8 *5967:A 0
31 *671:75 *5967:A 0
32 *686:10 *1032:20 8.02763e-05
33 *686:30 *1032:20 0.000240662
34 *690:10 *1032:26 0
35 *696:90 *1032:35 0
36 *697:14 *1032:35 0
37 *698:18 *1032:35 0.00306408
38 *698:24 *1032:20 0
39 *698:24 *1032:35 0
40 *700:34 *1032:26 0
41 *700:42 *1032:20 0
42 *700:44 *1032:20 0
43 *700:52 *1032:20 4.78711e-05
44 *715:39 *1032:26 0
45 *1007:24 *1032:20 0
46 *1007:24 *1032:35 0
*RES
1 *5805:Q *1032:6 40 
2 *1032:6 *1032:20 41.8772 
3 *1032:20 *1032:26 43.0694 
4 *1032:26 *5971:A 20 
5 *1032:6 *1032:35 48.531 
6 *1032:35 *5967:A 24.429 
*END

*D_NET *1033 0.00611966
*CONN
*I *5286:A I *D sg13g2_nor2_1
*I *5511:A I *D sg13g2_nor2_1
*I *5513:B I *D sg13g2_nor4_1
*I *5839:Q O *D sg13g2_dfrbpq_1
*CAP
1 *5286:A 0.000334094
2 *5511:A 0
3 *5513:B 0.000491215
4 *5839:Q 0.000305227
5 *1033:16 0.000933427
6 *1033:10 0.000776306
7 *1033:8 0.000305227
8 *5513:B *5514:A 1.53311e-05
9 *5513:B *5516:B 0
10 *5288:B *5286:A 0.000546197
11 *5288:B *1033:16 0.000529484
12 *5513:A *5513:B 1.53311e-05
13 *5515:B *5513:B 0
14 *5841:CLK *1033:8 0.000342735
15 *5843:CLK *1033:8 0.000395396
16 *79:18 *5513:B 0.000765363
17 *79:18 *1033:16 0.000182216
18 *625:25 *5286:A 0
19 *625:27 *1033:8 0.000182109
20 *1023:34 *5286:A 0
21 *1030:56 *1033:8 0
*RES
1 *5839:Q *1033:8 44.5526 
2 *1033:8 *1033:10 20 
3 *1033:10 *1033:16 25.0573 
4 *1033:16 *5513:B 46.3448 
5 *1033:16 *5511:A 40 
6 *1033:10 *5286:A 23.7801 
*END

*D_NET *1034 0.00657814
*CONN
*I *5516:B I *D sg13g2_nor4_1
*I *5514:A I *D sg13g2_nor2_1
*I *5289:A I *D sg13g2_nor2_1
*I *5841:Q O *D sg13g2_dfrbpq_1
*CAP
1 *5516:B 0.000504759
2 *5514:A 0.000124652
3 *5289:A 0
4 *5841:Q 0.00015745
5 *1034:29 0.00100377
6 *1034:20 0.000141746
7 *1034:14 0.00151887
8 *1034:8 0.00190893
9 *5512:B *5516:B 0
10 *5513:A *5516:B 0
11 *5513:B *5514:A 1.53311e-05
12 *5513:B *5516:B 0
13 *5514:B *5514:A 7.99664e-05
14 *5839:D *1034:29 0
15 *5841:RESET_B *1034:14 0
16 *79:12 *1034:14 0.000423812
17 *79:12 *1034:29 0
18 *682:86 *5516:B 4.75265e-05
19 *682:99 *5516:B 0.000257583
20 *1020:25 *1034:20 0.000393734
*RES
1 *5841:Q *1034:8 41.5862 
2 *1034:8 *1034:14 33.2149 
3 *1034:14 *1034:20 41.8334 
4 *1034:20 *5289:A 20 
5 *1034:8 *1034:29 23.9964 
6 *1034:29 *5514:A 21.4997 
7 *1034:29 *5516:B 25.4899 
*END

*D_NET *1035 0.0047003
*CONN
*I *5292:A I *D sg13g2_nor2_1
*I *5517:A I *D sg13g2_nor2_1
*I *5519:B I *D sg13g2_nor4_1
*I *5843:Q O *D sg13g2_dfrbpq_1
*CAP
1 *5292:A 0
2 *5517:A 0
3 *5519:B 0
4 *5843:Q 0
5 *1035:46 0.000281193
6 *1035:28 0.000444129
7 *1035:16 0.00122389
8 *1035:4 0.00106095
9 *5510:A *1035:28 0.000127744
10 *5512:B *1035:16 0
11 *5517:B *1035:28 0
12 *5518:C *1035:16 0
13 *6016:A *1035:46 0
14 *238:8 *1035:16 0
15 *586:94 *1035:28 0
16 *586:111 *1035:16 0
17 *586:111 *1035:28 0
18 *696:27 *1035:28 0
19 *696:90 *1035:16 0
20 *697:8 *1035:16 4.76243e-05
21 *764:18 *1035:28 0
22 *1011:61 *1035:28 0
23 *1011:65 *1035:16 0
24 *1032:35 *1035:16 0.00151477
25 *1032:35 *1035:46 0
*RES
1 *5843:Q *1035:4 20 
2 *1035:4 *1035:16 49.9601 
3 *1035:16 *1035:28 44.0582 
4 *1035:28 *5519:B 20 
5 *1035:16 *5517:A 20 
6 *1035:4 *1035:46 43.2033 
7 *1035:46 *5292:A 20 
*END

*D_NET *1036 0.00386708
*CONN
*I *5295:A I *D sg13g2_nor2_1
*I *5520:A I *D sg13g2_nor2_1
*I *5522:B I *D sg13g2_nor4_1
*I *5845:Q O *D sg13g2_dfrbpq_1
*CAP
1 *5295:A 0.000133318
2 *5520:A 2.60565e-05
3 *5522:B 0.000238609
4 *5845:Q 0
5 *1036:10 0.000865346
6 *1036:4 0.000733998
7 *5522:A *5522:B 1.53311e-05
8 *5845:CLK *1036:10 0.000663546
9 *6016:A *5295:A 0.00023729
10 *6016:A *1036:10 8.02269e-05
11 *605:124 *1036:10 0
12 *678:91 *5520:A 4.77425e-05
13 *678:91 *5522:B 0.000112141
14 *679:57 *5520:A 4.77425e-05
15 *682:40 *5522:B 0.000304446
16 *1011:54 *5522:B 0.000127744
17 *1011:54 *1036:10 0.000233544
*RES
1 *5845:Q *1036:4 20 
2 *1036:4 *1036:10 27.8074 
3 *1036:10 *5522:B 42.6471 
4 *1036:10 *5520:A 40.3193 
5 *1036:4 *5295:A 21.5836 
*END

*D_NET *1037 0.0035673
*CONN
*I *5298:A I *D sg13g2_nor2_1
*I *5523:A I *D sg13g2_nor2_1
*I *5525:B I *D sg13g2_nor4_1
*I *5847:Q O *D sg13g2_dfrbpq_1
*CAP
1 *5298:A 0.000112448
2 *5523:A 0
3 *5525:B 0.000452924
4 *5847:Q 0.000133492
5 *1037:14 0.000700874
6 *1037:8 0.000493889
7 *5300:C *1037:8 0
8 *5524:A *5298:A 0.000266733
9 *5524:A *1037:14 0.000714891
10 *5525:C *5525:B 7.99179e-05
11 *5677:CLK *5298:A 0
12 *5677:CLK *1037:14 0
13 *586:64 *5525:B 0.000208028
14 *586:79 *5525:B 0
15 *586:79 *1037:14 0
16 *605:120 *5525:B 0
17 *605:120 *1037:8 0
18 *633:15 *5525:B 0.000143935
19 *633:15 *1037:14 4.77425e-05
20 *678:64 *5525:B 1.94184e-05
21 *678:79 *5525:B 0.000193004
*RES
1 *5847:Q *1037:8 41.4008 
2 *1037:8 *1037:14 23.6359 
3 *1037:14 *5525:B 24.9028 
4 *1037:14 *5523:A 20 
5 *1037:8 *5298:A 41.6583 
*END

*D_NET *1038 0.00342558
*CONN
*I *5526:A I *D sg13g2_nor2_1
*I *5528:B I *D sg13g2_nor4_1
*I *5301:A I *D sg13g2_nor2_1
*I *5849:Q O *D sg13g2_dfrbpq_1
*CAP
1 *5526:A 0
2 *5528:B 0.000343857
3 *5301:A 0.000182912
4 *5849:Q 0
5 *1038:17 0.00109096
6 *1038:4 0.000930011
7 *5301:B *5301:A 0
8 *5527:A *5528:B 7.48842e-05
9 *5527:A *1038:17 0.000371406
10 *5976:A *5301:A 0
11 *5976:A *1038:17 0
12 *678:18 *5528:B 0
13 *678:41 *5528:B 1.54008e-05
14 *679:33 *5528:B 0.000240669
15 *681:22 *5528:B 4.77425e-05
16 *694:20 *5528:B 0.000127744
17 *697:29 *1038:17 0
*RES
1 *5849:Q *1038:4 20 
2 *1038:4 *5301:A 22.0497 
3 *1038:4 *1038:17 29.0743 
4 *1038:17 *5528:B 43.811 
5 *1038:17 *5526:A 40 
*END

*D_NET *1039 0.00212198
*CONN
*I *5531:B I *D sg13g2_nor4_1
*I *5529:A I *D sg13g2_nor2_1
*I *6054:A I *D sg13g2_dlygate4sd3_1
*I *5851:Q O *D sg13g2_dfrbpq_1
*CAP
1 *5531:B 0
2 *5529:A 0
3 *6054:A 4.98285e-05
4 *5851:Q 0
5 *1039:34 0.000134488
6 *1039:21 0.000265451
7 *1039:6 0.000427535
8 *1039:4 0.000246743
9 *5529:B *1039:21 0.000397323
10 *5530:C *1039:21 1.54008e-05
11 *5532:B *1039:21 0.000105719
12 *5533:B *6054:A 7.99179e-05
13 *5533:B *1039:6 9.54285e-05
14 *5533:B *1039:21 0
15 *601:12 *1039:34 0.000304144
16 *605:78 *6054:A 0
*RES
1 *5851:Q *1039:4 20 
2 *1039:4 *1039:6 0.9682 
3 *1039:6 *6054:A 20.5356 
4 *1039:6 *1039:21 42.8634 
5 *1039:21 *5529:A 20 
6 *1039:4 *1039:34 41.8746 
7 *1039:34 *5531:B 20 
*END

*D_NET *1040 0.00089488
*CONN
*I *6035:A I *D sg13g2_dlygate4sd3_1
*I *5853:Q O *D sg13g2_dfrbpq_1
*CAP
1 *6035:A 6.43881e-05
2 *5853:Q 0.000158838
3 *1040:8 0.000223226
4 *5679:RESET_B *6035:A 0
5 *622:10 *1040:8 0.000448428
6 *1017:75 *1040:8 0
7 *1017:79 *1040:8 0
*RES
1 *5853:Q *1040:8 42.0806 
2 *1040:8 *6035:A 40.6695 
*END

*D_NET *1041 0.00361893
*CONN
*I *5462:B_N I *D sg13g2_nor2b_1
*I *5463:B I *D sg13g2_nand2b_1
*I *5536:A2 I *D sg13g2_o21ai_1
*I *5733:Q O *D sg13g2_dfrbpq_1
*CAP
1 *5462:B_N 0
2 *5463:B 0
3 *5536:A2 2.80988e-05
4 *5733:Q 0.000831586
5 *1041:33 0.000109092
6 *1041:18 0.00070351
7 *1041:14 0.000566319
8 *1041:12 0.000831586
9 *1041:18 *1122:10 0
10 *5462:A *1041:18 0
11 *5536:B1 *5536:A2 1.54008e-05
12 *6021:A *1041:12 0
13 *604:10 *5536:A2 0
14 *604:10 *1041:18 0
15 *649:63 *1041:18 0
16 *676:14 *1041:33 4.00421e-05
17 *676:28 *1041:18 0
18 *676:28 *1041:33 2.31012e-05
19 *698:24 *1041:33 0.000288087
20 *699:6 *1041:12 0
21 *699:43 *1041:12 0.000182109
22 *735:10 *1041:12 0
23 *1025:10 *1041:12 0
*RES
1 *5733:Q *1041:12 49.9498 
2 *1041:12 *1041:14 20 
3 *1041:14 *1041:18 6.2933 
4 *1041:18 *5536:A2 20.3193 
5 *1041:18 *1041:33 41.6583 
6 *1041:33 *5463:B 20 
7 *1041:14 *5462:B_N 20 
*END

*D_NET *1042 0.00697421
*CONN
*I *5073:A1 I *D sg13g2_o21ai_1
*I *5485:A I *D sg13g2_nand3_1
*I *5539:Q O *D sg13g2_dfrbpq_1
*CAP
1 *5073:A1 0
2 *5485:A 0.00174695
3 *5539:Q 0.00010771
4 *1042:27 0.000118473
5 *1042:6 0.00197313
6 *5485:A *5453:B 0.000404142
7 *5485:A *5455:D 0.000144946
8 *5485:A *1049:16 0
9 *5485:A *1124:6 0
10 *1042:27 *5073:A2 0
11 *5453:A *5485:A 0
12 *5458:B *5485:A 0.00050054
13 *5466:B *5485:A 0
14 *5469:A2 *5485:A 0
15 *5470:B *5485:A 6.47932e-05
16 *5470:D *5485:A 0.000112349
17 *5807:D *5485:A 0
18 *6004:A *5485:A 0
19 *6030:A *5485:A 1.54008e-05
20 *6030:A *1042:6 0.000194236
21 *298:10 *5485:A 4.77425e-05
22 *298:10 *1042:6 0.000209637
23 *298:10 *1042:27 0.000235055
24 *547:6 *5485:A 0
25 *552:10 *5485:A 0.000242154
26 *672:47 *1042:27 0
27 *678:101 *5485:A 0
28 *1006:8 *5485:A 0
29 *1006:28 *5485:A 0
30 *1007:32 *5485:A 0.000856951
*RES
1 *5539:Q *1042:6 21.4008 
2 *1042:6 *5485:A 39.4876 
3 *1042:6 *1042:27 41.5862 
4 *1042:27 *5073:A1 20 
*END

*D_NET *1043 0.0086448
*CONN
*I *5029:B I *D sg13g2_nand3_1
*I *5281:A1 I *D sg13g2_a21oi_1
*I *5282:A2 I *D sg13g2_a21oi_1
*I *5284:A2 I *D sg13g2_o21ai_1
*I *5280:A1 I *D sg13g2_o21ai_1
*I *5064:B I *D sg13g2_nand3_1
*I *5665:Q O *D sg13g2_dfrbpq_1
*CAP
1 *5029:B 0
2 *5281:A1 0.00100273
3 *5282:A2 0
4 *5284:A2 3.19064e-05
5 *5280:A1 0.000398603
6 *5064:B 0
7 *5665:Q 0.00058172
8 *1043:47 0.000120874
9 *1043:32 0.000350467
10 *1043:30 0.00120041
11 *1043:16 0.000774514
12 *1043:12 0.000720572
13 *1043:8 0.00092638
14 *5280:A1 *1049:16 0
15 *5284:A2 *5283:A1 1.54008e-05
16 *1043:12 *1044:10 0
17 *1043:16 *5064:A 0
18 *1043:47 *5064:A 7.52158e-05
19 *1043:47 *1044:12 0.000340704
20 *5029:C *1043:8 1.54008e-05
21 *5064:C *5280:A1 1.54556e-05
22 *5280:B1 *5280:A1 0
23 *5280:A2 *5280:A1 8.03692e-05
24 *5281:A2 *5281:A1 1.54556e-05
25 *5281:B1 *5281:A1 0.000404465
26 *5283:B2 *5281:A1 0
27 *5283:B2 *1043:32 0
28 *5284:B1 *5284:A2 1.54008e-05
29 *5387:B *1043:8 0
30 *5665:RESET_B *5281:A1 0
31 *5665:CLK *5281:A1 0
32 *5877:RESET_B *1043:8 0
33 *5877:D *1043:8 0.000241847
34 *5914:A *5281:A1 6.48152e-05
35 *5914:A *1043:32 1.54008e-05
36 *5915:A *1043:16 0
37 *351:8 *5281:A1 0
38 *609:8 *1043:8 0
39 *609:10 *1043:12 0
40 *638:10 *1043:47 4.77537e-05
41 *638:51 *5281:A1 0
42 *638:51 *1043:32 0
43 *638:59 *1043:12 0.000501874
44 *672:10 *5280:A1 0.000176608
45 *672:27 *5280:A1 0.00043533
46 *715:118 *1043:12 7.51285e-05
47 *1020:68 *5281:A1 0
*RES
1 *5665:Q *1043:8 26.1388 
2 *1043:8 *1043:12 24.3054 
3 *1043:12 *1043:16 23.811 
4 *1043:16 *5064:B 20 
5 *1043:16 *5280:A1 23.9964 
6 *1043:12 *1043:30 20 
7 *1043:30 *1043:32 2.0497 
8 *1043:32 *5284:A2 20.3193 
9 *1043:32 *1043:47 42.1527 
10 *1043:47 *5282:A2 20 
11 *1043:30 *5281:A1 30.4654 
12 *1043:8 *5029:B 20 
*END

*D_NET *1044 0.00624096
*CONN
*I *6070:A I *D sg13g2_dlygate4sd3_1
*I *5284:A1 I *D sg13g2_o21ai_1
*I *5283:A1 I *D sg13g2_a22oi_1
*I *5282:A1 I *D sg13g2_a21oi_1
*I *5064:A I *D sg13g2_nand3_1
*I *5667:Q O *D sg13g2_dfrbpq_1
*CAP
1 *6070:A 0
2 *5284:A1 0
3 *5283:A1 0.000254762
4 *5282:A1 0
5 *5064:A 0.000292947
6 *5667:Q 0.00015827
7 *1044:56 0.000314958
8 *1044:32 0.000254762
9 *1044:12 0.000375094
10 *1044:10 0.000553614
11 *1044:6 0.000944695
12 *5280:B1 *5064:A 0.000339398
13 *5283:B1 *5283:A1 8.93797e-05
14 *5283:B2 *5283:A1 0
15 *5284:A2 *5283:A1 1.54008e-05
16 *5387:B *1044:56 4.77425e-05
17 *5667:RESET_B *5283:A1 0
18 *79:12 *1044:6 0
19 *79:12 *1044:56 0
20 *638:59 *1044:56 0.000234461
21 *672:27 *5064:A 0.00033953
22 *715:78 *5064:A 7.51285e-05
23 *715:97 *5064:A 0.000341206
24 *715:97 *1044:12 0.000265903
25 *715:112 *1044:10 0.00079963
26 *715:112 *1044:12 0.00012816
27 *715:118 *1044:10 0
28 *1020:25 *1044:6 0
29 *1020:34 *1044:56 0
30 *1043:12 *1044:10 0
31 *1043:16 *5064:A 0
32 *1043:47 *5064:A 7.52158e-05
33 *1043:47 *1044:12 0.000340704
*RES
1 *5667:Q *1044:6 21.4008 
2 *1044:6 *1044:10 26.5302 
3 *1044:10 *1044:12 1.8334 
4 *1044:12 *5064:A 44.0994 
5 *1044:12 *5282:A1 40 
6 *1044:10 *1044:32 20 
7 *1044:32 *5283:A1 22.2794 
8 *1044:32 *5284:A1 20 
9 *1044:6 *1044:56 43.3578 
10 *1044:56 *6070:A 20 
*END

*D_NET *1045 0.0146362
*CONN
*I *5451:A_N I *D sg13g2_nand2b_1
*I *5156:B I *D sg13g2_nor2_1
*I *5279:B I *D sg13g2_nor3_1
*I *5448:B I *D sg13g2_nand2b_1
*I *5157:B I *D sg13g2_or2_1
*I *5152:B I *D sg13g2_nand2b_1
*I *5169:A2 I *D sg13g2_o21ai_1
*I *5031:B I *D sg13g2_and2_1
*I *5859:Q O *D sg13g2_dfrbpq_1
*CAP
1 *5451:A_N 0.000566419
2 *5156:B 0
3 *5279:B 0.000635056
4 *5448:B 3.26032e-05
5 *5157:B 0
6 *5152:B 0
7 *5169:A2 0.000598966
8 *5031:B 0
9 *5859:Q 0
10 *1045:45 0.00076164
11 *1045:39 0.000837011
12 *1045:28 0.00063166
13 *1045:20 0.00186154
14 *1045:16 0.00143207
15 *1045:14 0.00154699
16 *1045:10 0.000438027
17 *1045:4 0.000936438
18 *5279:B *1049:37 0
19 *5448:B *5448:A_N 4.7803e-05
20 *1045:20 *1046:10 0
21 *5031:A *1045:28 0.000307166
22 *5156:A *1045:10 0
23 *5169:A1 *5169:A2 0.000497526
24 *5170:A *5169:A2 0
25 *5280:B1 *5279:B 0
26 *5281:A2 *5279:B 0
27 *5449:A *5448:B 0
28 *6010:A *5169:A2 0
29 *6010:A *1045:45 0
30 *332:8 *1045:20 0.000180044
31 *332:8 *1045:39 0
32 *347:8 *5169:A2 0
33 *348:14 *5169:A2 0
34 *351:8 *5279:B 0.000209174
35 *546:10 *5451:A_N 0
36 *605:292 *1045:16 0
37 *605:296 *5279:B 0
38 *605:326 *1045:10 0
39 *605:326 *1045:14 0
40 *605:326 *1045:16 0
41 *645:12 *1045:16 0
42 *645:12 *1045:20 0
43 *657:14 *1045:28 0
44 *665:22 *5451:A_N 0
45 *666:10 *1045:20 0.000662803
46 *672:10 *5279:B 0
47 *672:117 *5279:B 0
48 *675:8 *5279:B 0.0001944
49 *675:14 *5279:B 8.03692e-05
50 *707:65 *1045:20 0
51 *707:65 *1045:39 0.00183646
52 *707:65 *1045:45 0.000342014
53 *1020:68 *5279:B 0
*RES
1 *5859:Q *1045:4 20 
2 *1045:4 *1045:10 24.1303 
3 *1045:10 *1045:14 0.9167 
4 *1045:14 *1045:16 8.755 
5 *1045:16 *1045:20 24.9846 
6 *1045:20 *1045:28 47.7765 
7 *1045:28 *5031:B 20 
8 *1045:20 *1045:39 30.5575 
9 *1045:39 *1045:45 22.1218 
10 *1045:45 *5169:A2 26.077 
11 *1045:45 *5152:B 20 
12 *1045:39 *5157:B 40 
13 *1045:16 *5448:B 40.3193 
14 *1045:14 *5279:B 46.6447 
15 *1045:10 *5156:B 40 
16 *1045:4 *5451:A_N 26.2933 
*END

*D_NET *1046 0.00591657
*CONN
*I *5448:A_N I *D sg13g2_nand2b_1
*I *5063:B1 I *D sg13g2_o21ai_1
*I *5061:A I *D sg13g2_nand3_1
*I *5861:Q O *D sg13g2_dfrbpq_1
*CAP
1 *5448:A_N 0.00015739
2 *5063:B1 0.000278998
3 *5061:A 0.000141254
4 *5861:Q 0.000240409
5 *1046:10 0.00253659
6 *1046:6 0.00251413
7 *5061:B *5061:A 0
8 *5061:B *5063:B1 0
9 *5061:C *5061:A 0
10 *5448:B *5448:A_N 4.7803e-05
11 *5449:A *5448:A_N 0
12 *270:18 *5063:B1 0
13 *291:12 *5448:A_N 0
14 *291:12 *1046:6 0
15 *291:12 *1046:10 0
16 *332:8 *1046:10 0
17 *358:14 *5063:B1 0
18 *605:292 *5448:A_N 0
19 *605:292 *1046:6 0
20 *700:12 *5448:A_N 0
21 *1045:20 *1046:10 0
*RES
1 *5861:Q *1046:6 22.0497 
2 *1046:6 *1046:10 43.0926 
3 *1046:10 *5061:A 41.6274 
4 *1046:10 *5063:B1 42.6986 
5 *1046:6 *5448:A_N 21.4008 
*END

*D_NET *1047 0.00752507
*CONN
*I *5071:A I *D sg13g2_nor3_1
*I *5074:A I *D sg13g2_nor4_1
*I *5036:C I *D sg13g2_and3_1
*I *5070:A1 I *D sg13g2_a21o_1
*I *5863:Q O *D sg13g2_dfrbpq_1
*CAP
1 *5071:A 0
2 *5074:A 0
3 *5036:C 0.000338685
4 *5070:A1 9.24031e-05
5 *5863:Q 0.000653605
6 *1047:44 0.000425546
7 *1047:34 0.000779666
8 *1047:14 0.000542651
9 *1047:12 0.000465683
10 *1047:10 0.000653605
11 *1047:34 *5069:C 0
12 *1047:34 *1051:29 0
13 *1047:44 *5074:B 0
14 *1047:44 *6029:A 0.000127853
15 *1047:44 *1048:29 0
16 *5070:A2 *5036:C 0
17 *5070:A2 *5070:A1 8.02379e-05
18 *5070:B1 *5070:A1 1.54556e-05
19 *5070:B1 *1047:14 0.000144187
20 *5070:B1 *1047:34 0
21 *5072:B *1047:10 0
22 *5968:A *1047:34 0.000176577
23 *266:14 *5036:C 0
24 *297:8 *1047:44 0.000234177
25 *672:35 *1047:10 0.000370902
26 *672:47 *1047:44 0.00018211
27 *672:61 *1047:10 0
28 *686:10 *1047:10 0
29 *690:10 *1047:10 0.000126358
30 *690:27 *1047:10 0.00134158
31 *700:42 *1047:34 0.000112558
32 *700:42 *1047:44 4.77425e-05
33 *715:27 *5036:C 0
34 *715:39 *5036:C 0.000468395
35 *715:39 *5070:A1 0
36 *715:39 *1047:14 0.000145091
37 *715:49 *1047:34 0
*RES
1 *5863:Q *1047:10 49.2597 
2 *1047:10 *1047:12 20 
3 *1047:12 *1047:14 1.4008 
4 *1047:14 *5070:A1 21.133 
5 *1047:14 *5036:C 23.5638 
6 *1047:12 *1047:34 3.4814 
7 *1047:34 *1047:44 44.2024 
8 *1047:44 *5074:A 20 
9 *1047:34 *5071:A 20 
*END

*D_NET *1048 0.00555055
*CONN
*I *5033:C I *D sg13g2_and3_1
*I *5073:A2 I *D sg13g2_o21ai_1
*I *5382:B I *D sg13g2_nor2_1
*I *5067:B2 I *D sg13g2_a22oi_1
*I *5865:Q O *D sg13g2_dfrbpq_1
*CAP
1 *5033:C 0
2 *5073:A2 0.000253831
3 *5382:B 0.000138461
4 *5067:B2 0
5 *5865:Q 0.000157392
6 *1048:29 0.000886517
7 *1048:23 0.00112849
8 *1048:12 8.32159e-05
9 *1048:6 0.000874876
10 *1048:6 *5067:A2 0
11 *1048:29 *5035:A1 0
12 *1048:29 *6029:A 0
13 *1048:29 *1052:19 0
14 *5033:B *1048:23 0
15 *5033:B *1048:29 1.54008e-05
16 *5034:A *1048:6 0
17 *5035:A2 *1048:23 0
18 *5035:B1 *1048:23 0
19 *5035:B1 *1048:29 0
20 *5073:B1 *5073:A2 1.54008e-05
21 *5074:D *5073:A2 0.000111683
22 *5383:A1 *5382:B 0
23 *5383:A2 *5382:B 0
24 *6030:A *5073:A2 0
25 *266:27 *1048:12 0.000289332
26 *295:10 *1048:6 0
27 *295:10 *1048:23 0
28 *297:8 *1048:29 0.000287402
29 *605:227 *1048:23 0
30 *605:227 *1048:29 0
31 *638:29 *1048:12 0
32 *672:47 *5073:A2 0.000290042
33 *672:47 *5382:B 0
34 *700:34 *1048:6 0
35 *700:34 *1048:23 0.000728265
36 *715:49 *1048:29 0.000290236
37 *1042:27 *5073:A2 0
38 *1047:44 *1048:29 0
*RES
1 *5865:Q *1048:6 20.5083 
2 *1048:6 *1048:12 41.339 
3 *1048:12 *5067:B2 20 
4 *1048:6 *1048:23 6.6435 
5 *1048:23 *1048:29 25.6141 
6 *1048:29 *5382:B 41.1845 
7 *1048:29 *5073:A2 43.0179 
8 *1048:23 *5033:C 20 
*END

*D_NET *1049 0.0161849
*CONN
*I *5958:A I *D sg13g2_buf_1
*I *5954:A I *D sg13g2_buf_1
*I *5867:Q O *D sg13g2_dfrbpq_1
*CAP
1 *5958:A 0
2 *5954:A 6.65505e-05
3 *5867:Q 4.72978e-05
4 *1049:37 0.000443032
5 *1049:20 0.00241999
6 *1049:16 0.00602508
7 *1049:6 0.00416197
8 *1049:16 *5465:B 0
9 *1049:16 *1051:12 0
10 *5064:C *1049:16 0.000550872
11 *5072:B *1049:16 0
12 *5279:B *1049:37 0
13 *5280:A1 *1049:16 0
14 *5319:B *5954:A 0
15 *5485:A *1049:16 0
16 *5510:A *1049:20 0
17 *5539:CLK *1049:16 0
18 *5807:RESET_B *1049:16 0
19 *5807:D *1049:16 0
20 *5811:RESET_B *1049:16 0
21 *5811:D *1049:16 8.03091e-05
22 *5811:CLK *1049:16 0
23 *5863:CLK *1049:16 0
24 *5915:A *1049:16 0.000532023
25 *5967:A *5954:A 0
26 *6004:A *1049:16 0
27 *6008:A *1049:16 0
28 *298:10 *1049:16 0.000533645
29 *550:10 *1049:20 0
30 *605:326 *1049:37 0
31 *638:16 *1049:16 0
32 *672:10 *1049:16 0.000371008
33 *672:10 *1049:37 1.54556e-05
34 *672:35 *1049:16 9.63389e-05
35 *672:37 *1049:16 3.24568e-05
36 *672:47 *1049:16 0.000404438
37 *672:117 *1049:37 0
38 *675:14 *1049:37 0
39 *678:95 *1049:20 0
40 *678:101 *1049:20 0
41 *686:79 *1049:16 0.000404454
42 *696:8 *1049:20 0
43 *696:14 *1049:20 0
44 *696:90 *1049:20 0
45 *698:18 *1049:20 0
46 *764:18 *1049:20 0
47 *899:10 *1049:16 0
48 *912:10 *1049:16 0
49 *1006:28 *1049:16 0
50 *1029:21 *5954:A 0
*RES
1 *5867:Q *1049:6 20.5974 
2 *1049:6 *1049:16 38.5488 
3 *1049:16 *1049:20 43.8342 
4 *1049:20 *5954:A 40.7519 
5 *1049:6 *1049:37 44.5629 
6 *1049:37 *5958:A 20 
*END

*D_NET *1050 0.00169218
*CONN
*I *5067:A2 I *D sg13g2_a22oi_1
*I *5869:Q O *D sg13g2_dfrbpq_1
*CAP
1 *5067:A2 0.00082222
2 *5869:Q 0.00082222
3 *5034:A *5067:A2 0
4 *5994:A *5067:A2 0
5 *295:10 *5067:A2 0
6 *700:24 *5067:A2 0
7 *715:8 *5067:A2 4.77425e-05
8 *1048:6 *5067:A2 0
*RES
1 *5869:Q *5067:A2 47.9413 
*END

*D_NET *1051 0.00766459
*CONN
*I *5065:A2 I *D sg13g2_a22oi_1
*I *5074:B I *D sg13g2_nor4_1
*I *5071:B I *D sg13g2_nor3_1
*I *5037:A1 I *D sg13g2_a21o_1
*I *5873:Q O *D sg13g2_dfrbpq_1
*CAP
1 *5065:A2 0.000189413
2 *5074:B 0.000442094
3 *5071:B 0.000141507
4 *5037:A1 3.42692e-05
5 *5873:Q 0.000938317
6 *1051:29 0.00156101
7 *1051:14 0.00101167
8 *1051:12 0.000748905
9 *5071:B *5069:C 4.78524e-05
10 *5071:B *6029:A 0.000231238
11 *5037:A2 *5037:A1 0
12 *5037:A2 *1051:29 2.96615e-05
13 *5037:B1 *5037:A1 1.54285e-05
14 *5065:A1 *5065:A2 0
15 *5065:A1 *1051:12 0
16 *5072:B *5071:B 0
17 *5072:B *5074:B 0
18 *5863:D *1051:29 0.000242313
19 *5915:A *5065:A2 0
20 *5968:A *1051:29 0.000208271
21 *638:16 *1051:12 0.00018211
22 *672:47 *5074:B 0
23 *686:10 *1051:29 8.02763e-05
24 *686:30 *1051:29 0.000775495
25 *686:60 *1051:12 0
26 *686:60 *1051:29 0.00035635
27 *686:73 *1051:12 0
28 *700:38 *5071:B 0
29 *700:42 *1051:29 4.78356e-05
30 *715:21 *1051:12 0
31 *715:27 *1051:29 0.000371833
32 *715:39 *1051:29 0
33 *715:78 *1051:12 0
34 *715:78 *1051:29 8.73578e-06
35 *1032:20 *1051:29 0
36 *1047:34 *1051:29 0
37 *1047:44 *5074:B 0
38 *1049:16 *1051:12 0
*RES
1 *5873:Q *1051:12 47.5396 
2 *1051:12 *1051:14 20 
3 *1051:14 *5037:A1 20.3193 
4 *1051:14 *1051:29 30.7532 
5 *1051:29 *5071:B 41.4111 
6 *1051:29 *5074:B 43.6359 
7 *5873:Q *5065:A2 41.9982 
*END

*D_NET *1052 0.002508
*CONN
*I *6029:A I *D sg13g2_dlygate4sd3_1
*I *5069:C I *D sg13g2_and3_1
*I *5071:C I *D sg13g2_nor3_1
*I *5035:A1 I *D sg13g2_a21o_1
*I *5875:Q O *D sg13g2_dfrbpq_1
*CAP
1 *6029:A 9.38127e-05
2 *5069:C 0.000252754
3 *5071:C 0
4 *5035:A1 0.000148209
5 *5875:Q 0
6 *1052:21 0.000252754
7 *1052:19 0.000479789
8 *1052:4 0.000534185
9 *5035:A2 *5035:A1 8.19147e-05
10 *5035:B1 *5035:A1 0.000209856
11 *5035:B1 *1052:19 4.77863e-05
12 *5071:B *5069:C 4.78524e-05
13 *5071:B *6029:A 0.000231238
14 *605:227 *5035:A1 0
15 *700:38 *1052:19 0
16 *715:49 *5069:C 0
17 *715:49 *1052:19 0
18 *1047:34 *5069:C 0
19 *1047:44 *6029:A 0.000127853
20 *1048:29 *5035:A1 0
21 *1048:29 *6029:A 0
22 *1048:29 *1052:19 0
*RES
1 *5875:Q *1052:4 20 
2 *1052:4 *5035:A1 21.751 
3 *1052:4 *1052:19 23.605 
4 *1052:19 *1052:21 20 
5 *1052:21 *5071:C 20 
6 *1052:21 *5069:C 22.266 
7 *1052:19 *6029:A 41.339 
*END

*D_NET *1053 0.00446607
*CONN
*I *5951:A I *D sg13g2_buf_1
*I *5877:Q O *D sg13g2_dfrbpq_1
*CAP
1 *5951:A 0.000462939
2 *5877:Q 0.000157659
3 *1053:8 0.000620599
4 *5951:A *5386:A1 0.000287098
5 *5951:A *1065:25 0.00016011
6 *5313:B *1053:8 0
7 *5337:B *5951:A 0.00050816
8 *5339:B *5951:A 0.000130055
9 *5386:S *1053:8 0
10 *664:22 *5951:A 0.00125422
11 *675:14 *5951:A 0
12 *702:12 *5951:A 0.000431921
13 *702:67 *5951:A 0.000215371
14 *1022:21 *5951:A 0.000237932
*RES
1 *5877:Q *1053:8 41.4008 
2 *1053:8 *5951:A 49.2494 
*END

*D_NET *1054 0.00254291
*CONN
*I *5310:A I *D sg13g2_nor2_1
*I *6048:A I *D sg13g2_dlygate4sd3_1
*I *5384:A1 I *D sg13g2_mux2_1
*I *5669:Q O *D sg13g2_dfrbpq_1
*CAP
1 *5310:A 0.000162545
2 *6048:A 0
3 *5384:A1 0.000303983
4 *5669:Q 0
5 *1054:19 0.00040369
6 *1054:4 0.000545127
7 *5384:A0 *5384:A1 1.54008e-05
8 *5385:A *5384:A1 8.00842e-05
9 *5385:B *5310:A 0
10 *5385:B *5384:A1 0
11 *5385:B *1054:19 0
12 *6016:A *5384:A1 0.00024122
13 *663:34 *5310:A 0.000258331
14 *663:34 *5384:A1 0.000112667
15 *663:34 *1054:19 0.000419866
16 *687:94 *5384:A1 0
17 *687:94 *1054:19 0
*RES
1 *5669:Q *1054:4 20 
2 *1054:4 *5384:A1 23.708 
3 *1054:4 *1054:19 3.0488 
4 *1054:19 *6048:A 20 
5 *1054:19 *5310:A 21.8334 
*END

*D_NET *1055 0.00264951
*CONN
*I *5404:A1 I *D sg13g2_mux2_1
*I *5340:A I *D sg13g2_nor2_1
*I *6057:A I *D sg13g2_dlygate4sd3_1
*I *5689:Q O *D sg13g2_dfrbpq_1
*CAP
1 *5404:A1 0.000482822
2 *5340:A 0.000134013
3 *6057:A 0.000149779
4 *5689:Q 0
5 *1055:19 0.000761422
6 *1055:4 0.000294365
7 *5340:B *5340:A 0
8 *5340:B *6057:A 0
9 *5342:C *5340:A 0.000144915
10 *5342:C *6057:A 0
11 *5342:C *1055:19 0
12 *5369:B *5340:A 0
13 *5404:A0 *5404:A1 7.57164e-05
14 *484:8 *1055:19 0
15 *674:49 *5404:A1 0.000342036
16 *674:49 *1055:19 2.21839e-05
17 *701:124 *6057:A 0.000209796
18 *701:124 *1055:19 3.24568e-05
19 *920:32 *5404:A1 0
*RES
1 *5689:Q *1055:4 20 
2 *1055:4 *6057:A 21.751 
3 *1055:4 *1055:19 21.6583 
4 *1055:19 *5340:A 41.7201 
5 *1055:19 *5404:A1 46.7774 
*END

*D_NET *1056 0.00411206
*CONN
*I *5406:A1 I *D sg13g2_mux2_1
*I *5343:A I *D sg13g2_nor2_1
*I *5320:B1 I *D sg13g2_a21oi_1
*I *5691:Q O *D sg13g2_dfrbpq_1
*CAP
1 *5406:A1 0.000749024
2 *5343:A 0
3 *5320:B1 0.000472085
4 *5691:Q 2.86858e-05
5 *1056:23 0.00106883
6 *1056:8 0.000820581
7 *5320:A1 *5320:B1 0
8 *5691:CLK *5320:B1 0.00024156
9 *470:10 *5320:B1 0.000176707
10 *486:10 *5406:A1 0
11 *486:10 *1056:23 0
12 *673:80 *1056:8 0
13 *696:105 *5320:B1 0
14 *696:105 *1056:8 0
15 *696:105 *1056:23 0
16 *712:71 *5406:A1 0
17 *954:8 *5406:A1 0.000554579
18 *1029:57 *5406:A1 0
*RES
1 *5691:Q *1056:8 40.3193 
2 *1056:8 *5320:B1 45.253 
3 *1056:8 *1056:23 3.3166 
4 *1056:23 *5343:A 40 
5 *1056:23 *5406:A1 47.7897 
*END

*D_NET *1057 0.00441565
*CONN
*I *5408:A1 I *D sg13g2_mux2_1
*I *5346:A I *D sg13g2_nor2_1
*I *5323:B1 I *D sg13g2_a21oi_1
*I *5693:Q O *D sg13g2_dfrbpq_1
*CAP
1 *5408:A1 0
2 *5346:A 0
3 *5323:B1 0.000637116
4 *5693:Q 0
5 *1057:36 0.000593865
6 *1057:23 0.00101946
7 *1057:6 0.00106271
8 *5323:A1 *5323:B1 0
9 *5371:A2 *1057:36 0
10 *5693:CLK *5323:B1 0
11 *670:34 *1057:36 0
12 *697:48 *5323:B1 0
13 *697:48 *1057:23 0.00024211
14 *697:48 *1057:36 4.77425e-05
15 *929:8 *1057:36 0
16 *953:12 *1057:36 7.57164e-05
17 *1019:47 *5323:B1 0
18 *1019:47 *1057:23 0
19 *1019:56 *1057:23 0
20 *1019:56 *1057:36 0.000341534
21 *1019:71 *1057:36 0.000395396
*RES
1 *5693:Q *1057:6 40 
2 *1057:6 *5323:B1 46.0461 
3 *1057:6 *1057:23 24.4393 
4 *1057:23 *5346:A 20 
5 *1057:23 *1057:36 48.3327 
6 *1057:36 *5408:A1 20 
*END

*D_NET *1058 0.0039603
*CONN
*I *5410:A1 I *D sg13g2_mux2_1
*I *5349:A I *D sg13g2_nor2_1
*I *5326:B1 I *D sg13g2_a21oi_1
*I *5695:Q O *D sg13g2_dfrbpq_1
*CAP
1 *5410:A1 0
2 *5349:A 0
3 *5326:B1 0
4 *5695:Q 0.000118119
5 *1058:34 0.000984122
6 *1058:18 0.000221921
7 *1058:12 0.00044763
8 *1058:8 0.00132795
9 *5374:A1 *1058:34 0
10 *5410:S *1058:34 0
11 *5411:A *1058:34 0
12 *5763:D *1058:34 0
13 *669:71 *1058:8 0
14 *683:47 *1058:18 0.000609684
15 *683:81 *1058:18 0.00023547
16 *695:71 *1058:12 0
17 *695:71 *1058:34 0
18 *1018:26 *1058:12 1.54008e-05
19 *1027:78 *1058:8 0
20 *1027:78 *1058:18 0
21 *1027:78 *1058:34 0
*RES
1 *5695:Q *1058:8 41.0918 
2 *1058:8 *1058:12 22.4823 
3 *1058:12 *1058:18 43.811 
4 *1058:18 *5326:B1 20 
5 *1058:12 *5349:A 20 
6 *1058:8 *1058:34 30.0013 
7 *1058:34 *5410:A1 20 
*END

*D_NET *1059 0.0028679
*CONN
*I *5352:A I *D sg13g2_nor2_1
*I *6064:A I *D sg13g2_dlygate4sd3_1
*I *5412:A1 I *D sg13g2_mux2_1
*I *5697:Q O *D sg13g2_dfrbpq_1
*CAP
1 *5352:A 2.77263e-05
2 *6064:A 0
3 *5412:A1 0
4 *5697:Q 0.000173347
5 *1059:16 0.000695424
6 *1059:8 0.000762293
7 *1059:6 0.000267943
8 *5352:B *1059:6 0
9 *5354:C *1059:16 0
10 *5713:D *1059:16 0
11 *199:8 *1059:16 0
12 *714:51 *1059:16 0
13 *1028:37 *1059:16 0.000941165
*RES
1 *5697:Q *1059:6 21.6171 
2 *1059:6 *1059:8 0.8446 
3 *1059:8 *1059:16 48.3018 
4 *1059:16 *5412:A1 20 
5 *1059:8 *6064:A 20 
6 *1059:6 *5352:A 20.3502 
*END

*D_NET *1060 0.00234599
*CONN
*I *5332:B1 I *D sg13g2_a21oi_1
*I *5414:A1 I *D sg13g2_mux2_1
*I *5355:A I *D sg13g2_nor2_1
*I *5699:Q O *D sg13g2_dfrbpq_1
*CAP
1 *5332:B1 0
2 *5414:A1 0.000586737
3 *5355:A 3.10846e-05
4 *5699:Q 0.000251272
5 *1060:36 0.000197477
6 *1060:19 0.000842781
7 *1060:8 0.000340923
8 *5332:A1 *1060:36 0
9 *5355:B *1060:8 0
10 *5355:B *1060:19 4.79124e-05
11 *5357:C *5414:A1 0
12 *5357:C *1060:8 0
13 *5357:C *1060:19 0
14 *5415:A *5414:A1 0
15 *5715:D *1060:8 0
16 *647:44 *5414:A1 0
17 *669:29 *1060:36 0
18 *711:20 *5414:A1 0
19 *711:20 *1060:36 4.7803e-05
20 *841:10 *5414:A1 0
21 *1027:18 *5355:A 0
22 *1027:18 *5414:A1 0
23 *1027:18 *1060:8 0
24 *1027:18 *1060:19 0
*RES
1 *5699:Q *1060:8 22.7707 
2 *1060:8 *5355:A 20.3193 
3 *1060:8 *1060:19 0.8858 
4 *1060:19 *5414:A1 22.2277 
5 *1060:19 *1060:36 42.1527 
6 *1060:36 *5332:B1 20 
*END

*D_NET *1061 0.002367
*CONN
*I *5358:A I *D sg13g2_nor2_1
*I *5416:A1 I *D sg13g2_mux2_1
*I *6060:A I *D sg13g2_dlygate4sd3_1
*I *5701:Q O *D sg13g2_dfrbpq_1
*CAP
1 *5358:A 0.000287363
2 *5416:A1 0.000444272
3 *6060:A 3.39844e-05
4 *5701:Q 3.72779e-05
5 *1061:10 0.000756672
6 *1061:6 0.000603056
7 *5364:B *5358:A 0
8 *5364:B *1061:6 0
9 *5416:A0 *5416:A1 7.57164e-05
10 *664:61 *5416:A1 0
11 *664:61 *1061:10 0
12 *674:41 *5358:A 0
13 *717:55 *5416:A1 0
14 *717:55 *1061:10 0
15 *945:8 *1061:10 0.000128663
*RES
1 *5701:Q *1061:6 20.3193 
2 *1061:6 *1061:10 22.3278 
3 *1061:10 *6060:A 40.3193 
4 *1061:10 *5416:A1 43.5638 
5 *1061:6 *5358:A 22.4823 
*END

*D_NET *1062 0.00181479
*CONN
*I *6058:A I *D sg13g2_dlygate4sd3_1
*I *6073:A I *D sg13g2_dlygate4sd3_1
*I *5418:A1 I *D sg13g2_mux2_1
*I *5703:Q O *D sg13g2_dfrbpq_1
*CAP
1 *6058:A 0
2 *6073:A 0.000336542
3 *5418:A1 0.000328304
4 *5703:Q 0.000186251
5 *1062:12 0.000697272
6 *1062:8 0.000218678
7 *5361:A *1062:8 0
8 *5363:C *6073:A 0
9 *5363:C *1062:12 0
10 *5418:A0 *5418:A1 4.77425e-05
11 *5419:A *5418:A1 0
12 *5771:D *5418:A1 0
13 *5950:A *5418:A1 0
14 *5950:A *1062:8 0
15 *5950:A *1062:12 0
16 *718:51 *5418:A1 0
17 *718:51 *6073:A 0
*RES
1 *5703:Q *1062:8 22.2454 
2 *1062:8 *1062:12 0.515 
3 *1062:12 *5418:A1 22.9494 
4 *1062:12 *6073:A 23.5432 
5 *1062:8 *6058:A 20 
*END

*D_NET *1063 0.00184995
*CONN
*I *6076:A I *D sg13g2_dlygate4sd3_1
*I *6067:A I *D sg13g2_dlygate4sd3_1
*I *5420:A1 I *D sg13g2_mux2_1
*I *5705:Q O *D sg13g2_dfrbpq_1
*CAP
1 *6076:A 0.000186546
2 *6067:A 0
3 *5420:A1 0
4 *5705:Q 0.000218997
5 *1063:21 0.000213893
6 *1063:14 0.000177271
7 *1063:8 0.000423615
8 *5404:S *1063:8 0
9 *628:12 *6076:A 0.000339683
10 *628:12 *1063:8 0.00024211
11 *628:12 *1063:21 4.78359e-05
12 *920:32 *1063:14 0
13 *970:23 *1063:14 0
*RES
1 *5705:Q *1063:8 22.3999 
2 *1063:8 *1063:14 42.0806 
3 *1063:14 *5420:A1 20 
4 *1063:8 *1063:21 0.3193 
5 *1063:21 *6067:A 20 
6 *1063:21 *6076:A 22.266 
*END

*D_NET *1064 0.0027506
*CONN
*I *5367:A I *D sg13g2_nor2_1
*I *5422:A1 I *D sg13g2_mux2_1
*I *6068:A I *D sg13g2_dlygate4sd3_1
*I *5707:Q O *D sg13g2_dfrbpq_1
*CAP
1 *5367:A 0
2 *5422:A1 0
3 *6068:A 0.000184234
4 *5707:Q 0.000336722
5 *1064:43 0.000372455
6 *1064:30 0.000180255
7 *1064:22 0.000705198
8 *5368:A1 *1064:22 0
9 *5368:A1 *1064:43 0
10 *5422:A0 *1064:30 7.52149e-05
11 *1029:47 *1064:30 0.000235055
12 *1029:47 *1064:43 0
13 *1029:51 *1064:22 0
14 *1029:51 *1064:30 0
15 *1029:57 *6068:A 0
16 *1029:57 *1064:22 0
17 *1029:57 *1064:30 0
18 *1030:41 *1064:30 0
19 *1030:41 *1064:43 0.000661471
*RES
1 *5707:Q *6068:A 42.0703 
2 *5707:Q *1064:22 21.6171 
3 *1064:22 *1064:30 42.3999 
4 *1064:30 *5422:A1 20 
5 *1064:22 *1064:43 45.1191 
6 *1064:43 *5367:A 20 
*END

*D_NET *1065 0.00597997
*CONN
*I *5313:A I *D sg13g2_nor2_1
*I *5386:A1 I *D sg13g2_mux2_1
*I *5290:B1 I *D sg13g2_a21oi_1
*I *5671:Q O *D sg13g2_dfrbpq_1
*CAP
1 *5313:A 0
2 *5386:A1 0.000802924
3 *5290:B1 0
4 *5671:Q 8.9977e-05
5 *1065:25 0.00192448
6 *1065:14 0.000447391
7 *1065:6 0.00165893
8 *5291:C *1065:14 0
9 *5314:A2 *1065:25 0
10 *5386:S *5386:A1 0.00049715
11 *5671:D *1065:14 0
12 *5687:RESET_B *1065:25 0
13 *5951:A *5386:A1 0.000287098
14 *5951:A *1065:25 0.00016011
15 *79:12 *5386:A1 0.000111917
16 *160:10 *1065:25 0
17 *687:104 *1065:6 0
18 *687:104 *1065:25 0
19 *702:47 *1065:14 0
20 *702:47 *1065:25 0
*RES
1 *5671:Q *1065:6 21.0918 
2 *1065:6 *1065:14 44.4702 
3 *1065:14 *5290:B1 20 
4 *1065:6 *1065:25 31.33 
5 *1065:25 *5386:A1 49.0022 
6 *1065:25 *5313:A 40 
*END

*D_NET *1066 0.00184885
*CONN
*I *5370:A I *D sg13g2_nor2_1
*I *5424:A1 I *D sg13g2_mux2_1
*I *6046:A I *D sg13g2_dlygate4sd3_1
*I *5709:Q O *D sg13g2_dfrbpq_1
*CAP
1 *5370:A 0
2 *5424:A1 0
3 *6046:A 0.000178518
4 *5709:Q 0.000178518
5 *1066:41 0.000464776
6 *1066:28 0.000281129
7 *1066:20 0.000745905
8 *5408:S *6046:A 0
9 *504:8 *1066:41 0
10 *973:8 *1066:28 0
11 *989:23 *1066:28 0
12 *989:23 *1066:41 0
13 *1029:70 *1066:28 0
14 *1029:70 *1066:41 0
*RES
1 *5709:Q *6046:A 42.0703 
2 *5709:Q *1066:20 20 
3 *1066:20 *1066:28 42.6471 
4 *1066:28 *5424:A1 20 
5 *1066:20 *1066:41 45.459 
6 *1066:41 *5370:A 20 
*END

*D_NET *1067 0.00183908
*CONN
*I *5426:A1 I *D sg13g2_mux2_1
*I *6051:A I *D sg13g2_dlygate4sd3_1
*I *6077:A I *D sg13g2_dlygate4sd3_1
*I *5711:Q O *D sg13g2_dfrbpq_1
*CAP
1 *5426:A1 0
2 *6051:A 0
3 *6077:A 0.000221321
4 *5711:Q 0
5 *1067:23 0.000210962
6 *1067:15 0.000426437
7 *1067:4 0.000436796
8 *1067:23 *1075:10 0
9 *623:27 *6077:A 0
10 *623:27 *1067:23 0
11 *713:39 *1067:15 0.000468346
12 *974:10 *1067:23 7.52149e-05
13 *1027:78 *1067:23 0
14 *1027:92 *1067:15 0
15 *1027:92 *1067:23 0
*RES
1 *5711:Q *1067:4 20 
2 *1067:4 *6077:A 22.7089 
3 *1067:4 *1067:15 3.1312 
4 *1067:15 *1067:23 42.1527 
5 *1067:23 *6051:A 20 
6 *1067:15 *5426:A1 20 
*END

*D_NET *1068 0.00216723
*CONN
*I *5376:A I *D sg13g2_nor2_1
*I *6055:A I *D sg13g2_dlygate4sd3_1
*I *5428:A1 I *D sg13g2_mux2_1
*I *5713:Q O *D sg13g2_dfrbpq_1
*CAP
1 *5376:A 0
2 *6055:A 0
3 *5428:A1 0.000227917
4 *5713:Q 0
5 *1068:34 0.000379597
6 *1068:19 0.000808086
7 *1068:4 0.000656405
8 *5376:B *1068:34 0
9 *5428:S *5428:A1 0
10 *5429:A *5428:A1 7.989e-05
11 *5920:A *1068:19 0
12 *975:27 *5428:A1 1.53311e-05
13 *1028:26 *5428:A1 0
*RES
1 *5713:Q *1068:4 20 
2 *1068:4 *5428:A1 22.3999 
3 *1068:4 *1068:19 4.6659 
4 *1068:19 *6055:A 20 
5 *1068:19 *1068:34 43.3022 
6 *1068:34 *5376:A 20 
*END

*D_NET *1069 0.00225688
*CONN
*I *6063:A I *D sg13g2_dlygate4sd3_1
*I *5379:A I *D sg13g2_nor2_1
*I *5430:A1 I *D sg13g2_mux2_1
*I *5715:Q O *D sg13g2_dfrbpq_1
*CAP
1 *6063:A 0
2 *5379:A 0
3 *5430:A1 0.000364228
4 *5715:Q 0.000143091
5 *1069:30 2.48952e-05
6 *1069:8 0.000524201
7 *1069:6 0.000327959
8 *5379:B *5430:A1 1.54556e-05
9 *5379:B *1069:6 0.000242088
10 *5379:B *1069:8 0.000274545
11 *5380:A2 *1069:30 0.000130055
12 *5381:C *5430:A1 0
13 *5430:A0 *5430:A1 0
14 *5431:A *5430:A1 8.03091e-05
15 *5783:RESET_B *5430:A1 0
16 *683:61 *1069:30 0.000130055
*RES
1 *5715:Q *1069:6 21.6171 
2 *1069:6 *1069:8 1.8334 
3 *1069:8 *5430:A1 24.2024 
4 *1069:8 *5379:A 20 
5 *1069:6 *1069:30 40.5974 
6 *1069:30 *6063:A 20 
*END

*D_NET *1070 0.000924413
*CONN
*I *5432:A1 I *D sg13g2_mux2_1
*I *6037:A I *D sg13g2_dlygate4sd3_1
*I *5717:Q O *D sg13g2_dfrbpq_1
*CAP
1 *5432:A1 0.000176766
2 *6037:A 0.000177578
3 *5717:Q 0.00028544
4 *1070:22 0.000284628
5 *5417:A *6037:A 0
6 *5432:S *5432:A1 0
7 *5433:B *5432:A1 0
8 *5433:B *6037:A 0
9 *5785:RESET_B *5432:A1 0
*RES
1 *5717:Q *6037:A 41.751 
2 *5717:Q *1070:22 41.0918 
3 *1070:22 *5432:A1 41.6171 
*END

*D_NET *1071 0.000946988
*CONN
*I *6036:A I *D sg13g2_dlygate4sd3_1
*I *5434:A1 I *D sg13g2_mux2_1
*I *5719:Q O *D sg13g2_dfrbpq_1
*CAP
1 *6036:A 0.00011469
2 *5434:A1 0.000173829
3 *5719:Q 0.00016956
4 *1071:10 0.00045808
5 *5434:S *5434:A1 0
6 *663:71 *5434:A1 6.16032e-06
7 *663:71 *1071:10 2.46687e-05
*RES
1 *5719:Q *1071:10 41.6583 
2 *1071:10 *5434:A1 41.6171 
3 *1071:10 *6036:A 41.0918 
*END

*D_NET *1072 0.00106694
*CONN
*I *5436:A1 I *D sg13g2_mux2_1
*I *6031:A I *D sg13g2_dlygate4sd3_1
*I *5721:Q O *D sg13g2_dfrbpq_1
*CAP
1 *5436:A1 6.10738e-05
2 *6031:A 0
3 *5721:Q 0.0001689
4 *1072:24 0.000247407
5 *1072:12 0.000477381
6 *5437:A *1072:24 0
7 *5789:RESET_B *1072:24 0
8 *663:103 *5436:A1 0
9 *663:103 *1072:12 0
10 *717:59 *5436:A1 0.000112179
11 *717:59 *1072:12 0
12 *717:59 *1072:24 0
13 *717:85 *1072:24 0
14 *980:10 *1072:24 0
15 *993:32 *1072:24 0
*RES
1 *5721:Q *1072:12 21.8334 
2 *1072:12 *1072:24 42.5132 
3 *1072:24 *6031:A 20 
4 *1072:12 *5436:A1 20.7519 
*END

*D_NET *1073 0.00228173
*CONN
*I *6042:A I *D sg13g2_dlygate4sd3_1
*I *5438:A1 I *D sg13g2_mux2_1
*I *5723:Q O *D sg13g2_dfrbpq_1
*CAP
1 *6042:A 0.000115706
2 *5438:A1 0.000400504
3 *5723:Q 0.000196901
4 *1073:8 0.000713111
5 *5423:A *5438:A1 0
6 *5439:A *5438:A1 0.000144768
7 *5439:B *5438:A1 0.00063066
8 *5439:B *6042:A 8.00842e-05
9 *619:16 *5438:A1 0
10 *627:10 *1073:8 0
*RES
1 *5723:Q *1073:8 41.8334 
2 *1073:8 *5438:A1 44.5629 
3 *1073:8 *6042:A 41.133 
*END

*D_NET *1074 0.00117287
*CONN
*I *5440:A1 I *D sg13g2_mux2_1
*I *6041:A I *D sg13g2_dlygate4sd3_1
*I *5725:Q O *D sg13g2_dfrbpq_1
*CAP
1 *5440:A1 8.16096e-05
2 *6041:A 0.000342336
3 *5725:Q 0.000114734
4 *1074:8 0.00053868
5 *5440:A0 *5440:A1 1.54008e-05
6 *5440:A0 *6041:A 0
7 *5440:S *6041:A 0
8 *5893:A *6041:A 0
9 *605:186 *6041:A 0
10 *712:42 *5440:A1 4.77425e-05
11 *712:42 *6041:A 0
12 *712:64 *5440:A1 3.23694e-05
13 *712:64 *1074:8 0
14 *1029:66 *6041:A 0
15 *1029:66 *1074:8 0
16 *1029:70 *6041:A 0
*RES
1 *5725:Q *1074:8 21.3184 
2 *1074:8 *6041:A 23.4299 
3 *1074:8 *5440:A1 21.2051 
*END

*D_NET *1075 0.00105726
*CONN
*I *5442:A1 I *D sg13g2_mux2_1
*I *6034:A I *D sg13g2_dlygate4sd3_1
*I *5727:Q O *D sg13g2_dfrbpq_1
*CAP
1 *5442:A1 0.000259036
2 *6034:A 0
3 *5727:Q 0.000528629
4 *1075:10 0.000269593
5 *5427:B *5442:A1 0
6 *5427:B *1075:10 0
7 *5442:S *5442:A1 0
8 *713:39 *5442:A1 0
9 *713:39 *1075:10 0
10 *974:10 *1075:10 0
11 *1067:23 *1075:10 0
*RES
1 *5727:Q *1075:10 42.7398 
2 *1075:10 *6034:A 40 
3 *5727:Q *5442:A1 42.8119 
*END

*D_NET *1076 0.0016619
*CONN
*I *5388:A1 I *D sg13g2_mux2_1
*I *6053:A I *D sg13g2_dlygate4sd3_1
*I *5673:Q O *D sg13g2_dfrbpq_1
*CAP
1 *5388:A1 0.000228772
2 *6053:A 0.000223303
3 *5673:Q 8.97472e-05
4 *1076:10 0.000541823
5 *5316:A *6053:A 0.000112454
6 *5389:A *5388:A1 0
7 *687:56 *5388:A1 0.000159096
8 *687:56 *1076:10 0.000129077
9 *1029:10 *5388:A1 0
10 *1029:10 *6053:A 0.00017763
*RES
1 *5673:Q *1076:10 41.133 
2 *1076:10 *6053:A 42.4823 
3 *1076:10 *5388:A1 42.2454 
*END

*D_NET *1077 0.0015327
*CONN
*I *6032:A I *D sg13g2_dlygate4sd3_1
*I *5444:A1 I *D sg13g2_mux2_1
*I *5729:Q O *D sg13g2_dfrbpq_1
*CAP
1 *6032:A 0
2 *5444:A1 0.000527516
3 *5729:Q 0
4 *1077:25 0.000238835
5 *1077:4 0.000766352
6 *5377:B1 *5444:A1 0
7 *5444:S *5444:A1 0
8 *914:8 *1077:25 0
*RES
1 *5729:Q *1077:4 20 
2 *1077:4 *5444:A1 25.5105 
3 *1077:4 *1077:25 42.8634 
4 *1077:25 *6032:A 20 
*END

*D_NET *1078 0.00131631
*CONN
*I *5446:A1 I *D sg13g2_mux2_1
*I *6039:A I *D sg13g2_dlygate4sd3_1
*I *5731:Q O *D sg13g2_dfrbpq_1
*CAP
1 *5446:A1 0.000417679
2 *6039:A 0.000240475
3 *5731:Q 0
4 *1078:4 0.000658154
5 *5447:A *5446:A1 0
6 *5799:RESET_B *5446:A1 0
7 *713:39 *5446:A1 0
8 *1027:92 *5446:A1 0
*RES
1 *5731:Q *1078:4 20 
2 *1078:4 *6039:A 22.8119 
3 *1078:4 *5446:A1 25.0985 
*END

*D_NET *1079 0.00163499
*CONN
*I *6049:A I *D sg13g2_dlygate4sd3_1
*I *6075:A I *D sg13g2_dlygate4sd3_1
*I *5390:A1 I *D sg13g2_mux2_1
*I *5675:Q O *D sg13g2_dfrbpq_1
*CAP
1 *6049:A 0
2 *6075:A 0
3 *5390:A1 0.000136102
4 *5675:Q 0.000197544
5 *1079:14 0.000298668
6 *1079:8 0.00036011
7 *5319:A *1079:8 0
8 *5319:B *1079:8 0
9 *5691:CLK *5390:A1 0.000242324
10 *713:20 *1079:8 0
11 *713:20 *1079:14 0.000400239
12 *1029:21 *5390:A1 0
*RES
1 *5675:Q *1079:8 21.751 
2 *1079:8 *1079:14 42.3278 
3 *1079:14 *5390:A1 21.6171 
4 *1079:14 *6075:A 20 
5 *1079:8 *6049:A 20 
*END

*D_NET *1080 0.00109179
*CONN
*I *5392:A1 I *D sg13g2_mux2_1
*I *6050:A I *D sg13g2_dlygate4sd3_1
*I *5677:Q O *D sg13g2_dfrbpq_1
*CAP
1 *5392:A1 0.000200287
2 *6050:A 0.000144316
3 *5677:Q 0
4 *1080:4 0.000344603
5 *5392:A0 *5392:A1 4.78359e-05
6 *671:12 *5392:A1 0
7 *671:12 *6050:A 0.00024205
8 *713:20 *5392:A1 0.000112695
9 *713:20 *6050:A 0
*RES
1 *5677:Q *1080:4 20 
2 *1080:4 *6050:A 21.6171 
3 *1080:4 *5392:A1 22.5853 
*END

*D_NET *1081 0.00185154
*CONN
*I *6072:A I *D sg13g2_dlygate4sd3_1
*I *5394:A1 I *D sg13g2_mux2_1
*I *6066:A I *D sg13g2_dlygate4sd3_1
*I *5679:Q O *D sg13g2_dfrbpq_1
*CAP
1 *6072:A 0.00021442
2 *5394:A1 2.52887e-05
3 *6066:A 0.00023705
4 *5679:Q 0.000132987
5 *1081:21 0.000345947
6 *1081:8 0.000476275
7 *5325:A *6072:A 0
8 *5394:A0 *6066:A 0
9 *5395:A *6066:A 0
10 *5395:A *6072:A 0
11 *622:65 *1081:8 0
12 *622:65 *1081:21 0
13 *711:10 *6066:A 0
14 *711:10 *6072:A 0
15 *1027:108 *6066:A 0.000339491
16 *1027:121 *6066:A 8.00842e-05
17 *1027:121 *1081:21 0
18 *1028:72 *1081:8 0
*RES
1 *5679:Q *1081:8 41.0918 
2 *1081:8 *6066:A 42.6986 
3 *1081:8 *1081:21 20.8446 
4 *1081:21 *5394:A1 20.3193 
5 *1081:21 *6072:A 21.8758 
*END

*D_NET *1082 0.00367952
*CONN
*I *5305:B1 I *D sg13g2_a21oi_1
*I *5328:A I *D sg13g2_nor2_1
*I *5396:A1 I *D sg13g2_mux2_1
*I *5681:Q O *D sg13g2_dfrbpq_1
*CAP
1 *5305:B1 0
2 *5328:A 0
3 *5396:A1 0.000361182
4 *5681:Q 0
5 *1082:36 0.000598598
6 *1082:16 0.000850196
7 *1082:10 0.000864522
8 *1082:4 0.000974106
9 *5328:B *1082:10 1.54556e-05
10 *5330:C *1082:10 0
11 *5697:RESET_B *1082:10 0
12 *6136:A *5396:A1 1.54556e-05
13 *69:22 *5396:A1 0
14 *648:67 *5396:A1 0
15 *694:49 *1082:36 0
16 *829:8 *1082:36 0
17 *991:10 *5396:A1 0
*RES
1 *5681:Q *1082:4 20 
2 *1082:4 *1082:10 4.2642 
3 *1082:10 *1082:16 46.283 
4 *1082:16 *5396:A1 23.9964 
5 *1082:10 *5328:A 20 
6 *1082:4 *1082:36 47.313 
7 *1082:36 *5305:B1 20 
*END

*D_NET *1083 0.0051698
*CONN
*I *5398:A1 I *D sg13g2_mux2_1
*I *5308:B1 I *D sg13g2_a21oi_1
*I *5331:A I *D sg13g2_nor2_1
*I *5683:Q O *D sg13g2_dfrbpq_1
*CAP
1 *5398:A1 0
2 *5308:B1 0.000122213
3 *5331:A 0.000156579
4 *5683:Q 0.000189443
5 *1083:32 0.00116817
6 *1083:19 0.00142325
7 *1083:8 0.000478889
8 *5331:B *1083:32 0
9 *5333:A *1083:32 0.000500682
10 *5398:S *1083:32 0
11 *5683:CLK *1083:32 0
12 *5699:RESET_B *1083:32 0
13 *5751:RESET_B *1083:32 0
14 *5923:A *1083:32 0
15 *462:12 *5308:B1 0
16 *519:10 *1083:32 0
17 *669:14 *5308:B1 0.000181192
18 *669:14 *1083:19 0.000448012
19 *671:18 *5331:A 0
20 *671:18 *1083:8 0
21 *685:22 *5331:A 0.000274781
22 *685:22 *1083:8 0.000226578
23 *695:31 *5308:B1 0
24 *695:95 *1083:19 0
25 *1027:34 *1083:32 0
*RES
1 *5683:Q *1083:8 22.2145 
2 *1083:8 *5331:A 21.8334 
3 *1083:8 *1083:19 22.0806 
4 *1083:19 *5308:B1 41.5862 
5 *1083:19 *1083:32 31.7832 
6 *1083:32 *5398:A1 20 
*END

*D_NET *1084 0.00140113
*CONN
*I *6074:A I *D sg13g2_dlygate4sd3_1
*I *5400:A1 I *D sg13g2_mux2_1
*I *6061:A I *D sg13g2_dlygate4sd3_1
*I *5685:Q O *D sg13g2_dfrbpq_1
*CAP
1 *6074:A 0.0001756
2 *5400:A1 0.000123135
3 *6061:A 0.000222245
4 *5685:Q 6.23829e-05
5 *1084:21 0.000408237
6 *1084:8 0.00039413
7 *5401:A *5400:A1 0
8 *5401:A *6061:A 1.54008e-05
9 *663:51 *1084:8 0
10 *663:51 *1084:21 0
11 *717:31 *1084:8 0
12 *717:31 *1084:21 0
13 *946:10 *6061:A 0
14 *1020:113 *5400:A1 0
15 *1020:113 *6074:A 0
*RES
1 *5685:Q *1084:8 40.5974 
2 *1084:8 *6061:A 42.6986 
3 *1084:8 *1084:21 21.0918 
4 *1084:21 *5400:A1 21.1845 
5 *1084:21 *6074:A 22.2322 
*END

*D_NET *1085 0.00231951
*CONN
*I *6045:A I *D sg13g2_dlygate4sd3_1
*I *5402:A1 I *D sg13g2_mux2_1
*I *5337:A I *D sg13g2_nor2_1
*I *5687:Q O *D sg13g2_dfrbpq_1
*CAP
1 *6045:A 0.000231263
2 *5402:A1 0.00022933
3 *5337:A 0.000342748
4 *5687:Q 0
5 *1085:19 0.000599535
6 *1085:6 0.000481691
7 *5337:B *5337:A 0
8 *5687:CLK *5337:A 0
9 *5956:A *6045:A 0.000112618
10 *663:16 *5402:A1 0
11 *664:14 *5402:A1 0.00020971
12 *702:39 *5337:A 0
13 *717:12 *5402:A1 0
14 *718:34 *5337:A 0
15 *718:36 *5337:A 0
16 *718:36 *6045:A 0
17 *1023:114 *5402:A1 0
18 *1023:114 *6045:A 0.000112618
*RES
1 *5687:Q *1085:6 40 
2 *1085:6 *5337:A 42.9561 
3 *1085:6 *1085:19 1.0918 
4 *1085:19 *5402:A1 42.266 
5 *1085:19 *6045:A 42.0909 
*END

*D_NET *1086 0.00328122
*CONN
*I *6047:A I *D sg13g2_dlygate4sd3_1
*I *5973:A I *D sg13g2_buf_1
*I *5601:Q O *D sg13g2_dfrbpq_1
*CAP
1 *6047:A 0.000163321
2 *5973:A 0.000182576
3 *5601:Q 0.00109373
4 *1086:28 0.0004303
5 *1086:10 0.00100933
6 *5097:B1 *6047:A 0.000242203
7 *5098:B *1086:10 0
8 *5158:A1 *5973:A 0
9 *5158:B1 *5973:A 0
10 *5555:D *1086:10 0
11 *5944:A *1086:10 4.77537e-05
12 *261:31 *1086:10 0
13 *643:19 *1086:10 0
14 *643:19 *1086:28 0
15 *643:27 *1086:10 0
16 *646:6 *6047:A 0
17 *646:20 *1086:10 0
18 *660:18 *1086:10 0
19 *660:29 *1086:10 0
20 *661:59 *5973:A 0.000112013
*RES
1 *5601:Q *1086:10 48.1164 
2 *1086:10 *5973:A 41.6171 
3 *5601:Q *1086:28 42.8222 
4 *1086:28 *6047:A 41.6171 
*END

*D_NET *1087 0.0093875
*CONN
*I *5105:A I *D sg13g2_nor2b_1
*I *5188:A1 I *D sg13g2_a21oi_1
*I *5189:B I *D sg13g2_nand4_1
*I *5040:D I *D sg13g2_nor4_1
*I *5196:D I *D sg13g2_nand4_1
*I *5186:A1 I *D sg13g2_o21ai_1
*I *5187:A1 I *D sg13g2_a21oi_1
*I *5621:Q O *D sg13g2_dfrbpq_1
*CAP
1 *5105:A 0.000978287
2 *5188:A1 0
3 *5189:B 0.000232272
4 *5040:D 3.04938e-05
5 *5196:D 0.000275494
6 *5186:A1 2.83098e-05
7 *5187:A1 0
8 *5621:Q 0.000910352
9 *1087:61 0.000353723
10 *1087:44 0.000727954
11 *1087:33 0.000656605
12 *1087:20 0.000389024
13 *1087:16 0.000451229
14 *1087:12 0.00130728
15 *1087:10 0.000910352
16 *5040:D *1088:36 4.78028e-05
17 *5105:A *5108:A 0
18 *5189:B *1088:61 0
19 *5189:B *1117:44 4.79124e-05
20 *5196:D *5206:D 0
21 *5196:D *1089:6 0
22 *5196:D *1089:12 0.000177394
23 *1087:10 *1088:10 0
24 *1087:10 *1088:36 0
25 *1087:10 *1116:18 0
26 *1087:10 *1117:78 0
27 *1087:16 *5108:A 0
28 *1087:16 *5188:B1 0.000404079
29 *1087:33 *1088:36 0
30 *1087:44 *1088:36 0
31 *1087:44 *1090:85 0
32 *5040:B *5196:D 7.51285e-05
33 *5100:B1 *5189:B 0
34 *5106:A1 *5105:A 0
35 *5186:A2 *5186:A1 0
36 *5186:A2 *1087:33 0.000177297
37 *5187:A2 *1087:33 4.77425e-05
38 *5188:A2 *1087:16 0
39 *5188:A2 *1087:20 0.000235055
40 *5188:A2 *1087:33 5.30319e-05
41 *5557:CLK *1087:10 0
42 *5563:D *5105:A 0
43 *5619:RESET_B *1087:10 2.43395e-05
44 *5621:RESET_B *5105:A 0
45 *5621:D *5105:A 1.52796e-05
46 *5621:D *1087:16 6.03998e-06
47 *126:14 *1087:10 0
48 *270:8 *5040:D 1.54556e-05
49 *287:24 *5189:B 0
50 *287:28 *5189:B 0
51 *322:10 *5105:A 0
52 *348:32 *5196:D 0
53 *348:32 *1087:44 0
54 *370:12 *1087:33 7.51285e-05
55 *374:10 *5189:B 0.000447182
56 *374:10 *1087:61 0.000287256
57 *378:8 *5189:B 0
58 *608:6 *5040:D 0
59 *637:21 *1087:10 0
60 *659:41 *5105:A 0
61 *1004:44 *1087:20 0
62 *1004:44 *1087:33 0
*RES
1 *5621:Q *1087:10 48.7962 
2 *1087:10 *1087:12 20 
3 *1087:12 *1087:16 3.4814 
4 *1087:16 *1087:20 21.339 
5 *1087:20 *5187:A1 40 
6 *1087:20 *1087:33 22.8634 
7 *1087:33 *5186:A1 20.3502 
8 *1087:33 *1087:44 23.3475 
9 *1087:44 *5196:D 43.2857 
10 *1087:44 *1087:61 1.339 
11 *1087:61 *5040:D 40.3193 
12 *1087:61 *5189:B 43.0488 
13 *1087:16 *5188:A1 20 
14 *1087:12 *5105:A 29.2856 
*END

*D_NET *1088 0.006156
*CONN
*I *5040:C I *D sg13g2_nor4_1
*I *5189:A I *D sg13g2_nand4_1
*I *5196:C I *D sg13g2_nand4_1
*I *5188:B1 I *D sg13g2_a21oi_1
*I *5108:A I *D sg13g2_nor2b_1
*I *5623:Q O *D sg13g2_dfrbpq_1
*CAP
1 *5040:C 0
2 *5189:A 0
3 *5196:C 0
4 *5188:B1 0.000234777
5 *5108:A 0.000451492
6 *5623:Q 2.69814e-05
7 *1088:61 0.000183189
8 *1088:50 0.000226727
9 *1088:42 0.000512285
10 *1088:36 0.00106232
11 *1088:10 0.000927967
12 *1088:8 0.00122863
13 *1088:36 *1090:85 0
14 *1088:42 *5206:D 0
15 *1088:42 *1090:85 0
16 *1088:50 *5196:A 0
17 *1088:50 *5206:D 0
18 *1088:50 *1089:12 0
19 *1088:50 *1090:89 0
20 *1088:50 *1090:104 0
21 *1088:61 *1090:104 0
22 *5040:B *1088:42 1.54556e-05
23 *5040:B *1088:50 0
24 *5040:D *1088:36 4.78028e-05
25 *5100:B1 *1088:36 0
26 *5105:A *5108:A 0
27 *5108:B_N *5108:A 0
28 *5189:B *1088:61 0
29 *5191:C *5188:B1 0
30 *5563:CLK *5108:A 0
31 *5621:D *1088:8 0
32 *5621:D *1088:36 0
33 *5623:RESET_B *5108:A 0
34 *5623:CLK *5108:A 0.000342449
35 *5623:CLK *5188:B1 0
36 *270:8 *1088:36 0
37 *270:8 *1088:42 8.02434e-05
38 *270:8 *1088:50 0.000177203
39 *378:8 *1088:50 0
40 *378:8 *1088:61 0
41 *608:6 *1088:36 0
42 *705:113 *1088:50 0.000234398
43 *1004:44 *5108:A 0
44 *1004:44 *1088:10 0
45 *1004:44 *1088:36 0
46 *1087:10 *1088:10 0
47 *1087:10 *1088:36 0
48 *1087:16 *5108:A 0
49 *1087:16 *5188:B1 0.000404079
50 *1087:33 *1088:36 0
51 *1087:44 *1088:36 0
*RES
1 *5623:Q *1088:8 40.3193 
2 *1088:8 *1088:10 2.3278 
3 *1088:10 *5108:A 45.459 
4 *1088:10 *5188:B1 42.6986 
5 *1088:8 *1088:36 29.3577 
6 *1088:36 *1088:42 1.2051 
7 *1088:42 *1088:50 42.4926 
8 *1088:50 *5196:C 20 
9 *1088:42 *1088:61 41.8334 
10 *1088:61 *5189:A 20 
11 *1088:36 *5040:C 20 
*END

*D_NET *1089 0.00182357
*CONN
*I *5972:A I *D sg13g2_buf_1
*I *5196:B I *D sg13g2_nand4_1
*I *5206:D I *D sg13g2_nand4_1
*I *5625:Q O *D sg13g2_dfrbpq_1
*CAP
1 *5972:A 0
2 *5196:B 0
3 *5206:D 0.000476608
4 *5625:Q 9.34013e-05
5 *1089:12 0.000703143
6 *1089:6 0.000319936
7 *5206:D *5206:B 0
8 *5206:D *1090:89 0
9 *5206:D *1090:104 1.54556e-05
10 *1089:12 *5196:A 1.54556e-05
11 *1089:12 *1090:85 0
12 *1089:12 *1090:89 2.21754e-05
13 *5196:D *5206:D 0
14 *5196:D *1089:6 0
15 *5196:D *1089:12 0.000177394
16 *287:28 *5206:D 0
17 *348:32 *1089:6 0
18 *348:32 *1089:12 0
19 *608:6 *5206:D 0
20 *1088:42 *5206:D 0
21 *1088:50 *5206:D 0
22 *1088:50 *1089:12 0
*RES
1 *5625:Q *1089:6 21.0918 
2 *1089:6 *1089:12 2.5338 
3 *1089:12 *5206:D 25.4899 
4 *1089:12 *5196:B 20 
5 *1089:6 *5972:A 20 
*END

*D_NET *1090 0.0096145
*CONN
*I *5040:A I *D sg13g2_nor4_1
*I *5206:C I *D sg13g2_nand4_1
*I *5196:A I *D sg13g2_nand4_1
*I *5194:B1 I *D sg13g2_a21oi_1
*I *5114:A I *D sg13g2_nor2b_1
*I *5197:A I *D sg13g2_and3_1
*I *5195:A I *D sg13g2_and2_1
*I *5200:B I *D sg13g2_and4_1
*I *5627:Q O *D sg13g2_dfrbpq_1
*CAP
1 *5040:A 0
2 *5206:C 0
3 *5196:A 2.92025e-05
4 *5194:B1 0
5 *5114:A 0
6 *5197:A 8.16942e-05
7 *5195:A 0
8 *5200:B 0
9 *5627:Q 0.000359627
10 *1090:104 0.000421593
11 *1090:89 0.000605498
12 *1090:85 0.00103733
13 *1090:67 0.000652892
14 *1090:48 0.000853563
15 *1090:44 0.000312941
16 *1090:30 0.000138953
17 *1090:20 0.000405463
18 *1090:12 0.00103614
19 *1090:8 0.00181792
20 *1090:30 *5200:A 1.53311e-05
21 *5040:B *1090:85 1.54556e-05
22 *5040:B *1090:89 8.02434e-05
23 *5100:B1 *1090:104 0.000144768
24 *5111:A *1090:48 7.49652e-05
25 *5191:A *1090:8 0
26 *5197:B *5197:A 3.46518e-06
27 *5197:B *1090:67 3.58069e-05
28 *5200:D *1090:30 0
29 *5206:D *1090:89 0
30 *5206:D *1090:104 1.54556e-05
31 *5627:RESET_B *1090:67 0
32 *5627:D *5197:A 0
33 *287:28 *1090:104 0
34 *348:22 *1090:85 0
35 *348:32 *1090:85 0
36 *374:10 *1090:85 0
37 *374:16 *1090:12 0
38 *374:16 *1090:85 0
39 *374:69 *1090:67 0
40 *378:8 *1090:104 0.000340704
41 *607:20 *1090:8 0
42 *608:6 *1090:104 0
43 *658:22 *1090:67 0
44 *691:14 *1090:12 0
45 *691:16 *1090:20 4.76034e-05
46 *691:16 *1090:30 4.77425e-05
47 *691:22 *1090:30 0.000342629
48 *691:47 *1090:48 0.000263469
49 *705:33 *1090:30 0.000396405
50 *1004:82 *1090:12 0
51 *1087:44 *1090:85 0
52 *1088:36 *1090:85 0
53 *1088:42 *1090:85 0
54 *1088:50 *5196:A 0
55 *1088:50 *1090:89 0
56 *1088:50 *1090:104 0
57 *1088:61 *1090:104 0
58 *1089:12 *5196:A 1.54556e-05
59 *1089:12 *1090:85 0
60 *1089:12 *1090:89 2.21754e-05
*RES
1 *5627:Q *1090:8 43.9964 
2 *1090:8 *1090:12 25.5414 
3 *1090:12 *1090:20 43.2342 
4 *1090:20 *1090:30 42.472 
5 *1090:30 *5200:B 20 
6 *1090:20 *5195:A 20 
7 *1090:12 *1090:44 22.266 
8 *1090:44 *1090:48 21.5862 
9 *1090:48 *5197:A 20.8858 
10 *1090:48 *1090:67 47.1688 
11 *1090:67 *5114:A 20 
12 *1090:44 *5194:B1 40 
13 *1090:8 *1090:85 29.3524 
14 *1090:85 *1090:89 1.5347 
15 *1090:89 *5196:A 20.3193 
16 *1090:89 *1090:104 44.7483 
17 *1090:104 *5206:C 20 
18 *1090:85 *5040:A 20 
*END

*D_NET *1091 0.0115528
*CONN
*I *5041:D I *D sg13g2_nor4_1
*I *5203:B I *D sg13g2_nand4_1
*I *5206:B I *D sg13g2_nand4_1
*I *5201:A I *D sg13g2_nand3_1
*I *5199:B1 I *D sg13g2_a21oi_1
*I *5200:A I *D sg13g2_and4_1
*I *5117:A I *D sg13g2_nor2b_1
*I *5629:Q O *D sg13g2_dfrbpq_1
*CAP
1 *5041:D 0.000315469
2 *5203:B 5.55599e-05
3 *5206:B 6.67467e-05
4 *5201:A 0
5 *5199:B1 0
6 *5200:A 0.000309438
7 *5117:A 0.000669739
8 *5629:Q 0.000308472
9 *1091:73 0.000923451
10 *1091:62 0.00171735
11 *1091:22 0.00110441
12 *1091:20 0.000419902
13 *1091:16 0.000522389
14 *1091:8 0.00163437
15 *5041:D *5041:C 0.000542581
16 *5041:D *1092:39 7.53228e-05
17 *1091:62 *1092:30 0
18 *1091:73 *1092:30 7.51285e-05
19 *1091:73 *1092:39 0.00187376
20 *5059:D *1091:73 0.00028745
21 *5202:A *5200:A 0.000112412
22 *5202:A *1091:20 0
23 *5202:B *5200:A 8.00842e-05
24 *5206:D *5206:B 0
25 *5208:B *1091:73 0.000235153
26 *5210:C1 *1091:8 0
27 *5210:C1 *1091:16 0
28 *5569:CLK *5117:A 0
29 *5910:A *1091:8 0
30 *5910:A *1091:16 0
31 *287:28 *5206:B 0
32 *287:41 *1091:73 0.00012816
33 *289:8 *5041:D 0
34 *289:8 *1091:73 0
35 *382:10 *1091:16 8.01211e-05
36 *384:6 *5203:B 0
37 *605:253 *1091:62 0
38 *605:265 *1091:62 0
39 *709:47 *5200:A 0
40 *1014:70 *1091:73 0
41 *1090:30 *5200:A 1.53311e-05
*RES
1 *5629:Q *1091:8 42.4823 
2 *1091:8 *1091:16 22.4102 
3 *1091:16 *1091:20 23.0694 
4 *1091:20 *1091:22 1.0918 
5 *1091:22 *5117:A 46.8804 
6 *1091:22 *5200:A 43.2136 
7 *1091:20 *5199:B1 40 
8 *1091:16 *5201:A 20 
9 *1091:8 *1091:62 11.5463 
10 *1091:62 *5206:B 40.5356 
11 *1091:62 *1091:73 9.0022 
12 *1091:73 *5203:B 40.5356 
13 *1091:73 *5041:D 43.7595 
*END

*D_NET *1092 0.00642061
*CONN
*I *5041:C I *D sg13g2_nor4_1
*I *5203:A I *D sg13g2_nand4_1
*I *5206:A I *D sg13g2_nand4_1
*I *5026:A I *D sg13g2_inv_1
*I *5631:Q O *D sg13g2_dfrbpq_1
*CAP
1 *5041:C 0.000362755
2 *5203:A 0
3 *5206:A 0
4 *5026:A 0.000140176
5 *5631:Q 0.000864528
6 *1092:39 0.000922206
7 *1092:30 0.0012071
8 *1092:8 0.000357058
9 *5041:D *5041:C 0.000542581
10 *5041:D *1092:39 7.53228e-05
11 *384:6 *5041:C 0
12 *388:12 *1092:8 0
13 *705:113 *1092:30 0
14 *1091:62 *1092:30 0
15 *1091:73 *1092:30 7.51285e-05
16 *1091:73 *1092:39 0.00187376
*RES
1 *5631:Q *1092:8 42.3278 
2 *1092:8 *5026:A 41.4008 
3 *5631:Q *1092:30 46.5817 
4 *1092:30 *5206:A 40 
5 *1092:30 *1092:39 9.0022 
6 *1092:39 *5203:A 40 
7 *1092:39 *5041:C 44.084 
*END

*D_NET *1093 0.0160874
*CONN
*I *5122:A I *D sg13g2_nor2b_1
*I *5212:B1 I *D sg13g2_a21o_1
*I *5215:B I *D sg13g2_and2_1
*I *5221:D I *D sg13g2_and4_1
*I *5222:D I *D sg13g2_nand4_1
*I *5213:A I *D sg13g2_nand4_1
*I *5041:B I *D sg13g2_nor4_1
*I *5633:Q O *D sg13g2_dfrbpq_1
*CAP
1 *5122:A 7.05085e-05
2 *5212:B1 0
3 *5215:B 0
4 *5221:D 0.000732528
5 *5222:D 0.00022665
6 *5213:A 0
7 *5041:B 0.000558879
8 *5633:Q 0
9 *1093:62 0.00170262
10 *1093:58 0.000866281
11 *1093:50 0.000731993
12 *1093:20 0.00088895
13 *1093:18 0.00128382
14 *1093:10 0.0016872
15 *1093:4 0.00141311
16 *5041:B *1094:24 0
17 *5221:D *5221:B 0
18 *5221:D *5221:C 1.54008e-05
19 *5221:D *1096:18 0
20 *5222:D *1094:48 1.54008e-05
21 *5222:D *1094:54 0.000274446
22 *5060:A *5041:B 0
23 *5122:B_N *5122:A 0
24 *5122:B_N *1093:10 0
25 *5224:C1 *5221:D 0
26 *259:24 *5221:D 7.49633e-05
27 *286:14 *1093:50 0.000112558
28 *286:67 *5222:D 0.000274321
29 *288:10 *1093:18 0.000209506
30 *288:10 *1093:50 0
31 *288:14 *1093:62 0.00137318
32 *288:27 *5221:D 5.30319e-05
33 *288:27 *5222:D 0.000234224
34 *290:10 *5041:B 0
35 *292:12 *1093:10 0
36 *292:12 *1093:18 0
37 *358:14 *1093:18 0.000209599
38 *358:14 *1093:50 0
39 *358:14 *1093:58 0
40 *367:18 *1093:18 0.000237643
41 *367:42 *1093:50 0.000268822
42 *367:42 *1093:58 7.99949e-05
43 *367:42 *1093:62 0.00137037
44 *387:25 *1093:10 0
45 *387:25 *1093:18 0
46 *397:14 *5221:D 0
47 *639:53 *5122:A 0
48 *639:53 *1093:10 0
49 *708:34 *1093:10 0.000993868
50 *1003:31 *1093:58 0
51 *1005:27 *1093:50 7.99779e-05
52 *1012:8 *1093:50 4.75166e-05
53 *1012:55 *5221:D 0
*RES
1 *5633:Q *1093:4 20 
2 *1093:4 *1093:10 32.5351 
3 *1093:10 *1093:18 43.4814 
4 *1093:18 *1093:20 2.8222 
5 *1093:20 *5041:B 44.8204 
6 *1093:20 *5213:A 40 
7 *1093:18 *1093:50 25.7268 
8 *1093:50 *1093:58 41.133 
9 *1093:58 *1093:62 29.1876 
10 *1093:62 *5222:D 42.9252 
11 *1093:62 *5221:D 46.5714 
12 *1093:50 *5215:B 20 
13 *1093:10 *5212:B1 40 
14 *1093:4 *5122:A 20.9167 
*END

*D_NET *1094 0.0140461
*CONN
*I *5025:A I *D sg13g2_inv_1
*I *5222:C I *D sg13g2_nand4_1
*I *5221:C I *D sg13g2_and4_1
*I *5215:A I *D sg13g2_and2_1
*I *5041:A I *D sg13g2_nor4_1
*I *5635:Q O *D sg13g2_dfrbpq_1
*CAP
1 *5025:A 0.000152305
2 *5222:C 0
3 *5221:C 7.58943e-05
4 *5215:A 0
5 *5041:A 0
6 *5635:Q 0.000152822
7 *1094:54 0.00125758
8 *1094:48 0.00125326
9 *1094:44 0.000989608
10 *1094:24 0.00116565
11 *1094:18 0.00128544
12 *1094:16 0.0022033
13 *1094:10 0.00131777
14 *1094:8 0.000152822
15 *5221:C *5221:B 1.54008e-05
16 *1094:44 *1095:18 0
17 *1094:48 *5222:B 8.03443e-05
18 *1094:54 *5039:A 0.000112676
19 *1094:54 *5222:A 0
20 *1094:54 *1096:18 0
21 *5041:B *1094:24 0
22 *5060:C *1094:24 0
23 *5060:A *1094:24 0
24 *5060:D *1094:24 0
25 *5217:C1 *1094:16 0
26 *5221:D *5221:C 1.54008e-05
27 *5222:D *1094:48 1.54008e-05
28 *5222:D *1094:54 0.000274446
29 *5224:C1 *5221:C 0
30 *5233:B *1094:24 0
31 *5637:RESET_B *1094:44 0
32 *5637:D *1094:44 0.00011226
33 *261:25 *5025:A 0.000112651
34 *279:12 *1094:24 0
35 *286:67 *1094:48 0
36 *286:67 *1094:54 0
37 *288:10 *1094:24 0
38 *384:6 *1094:24 0.000274414
39 *393:12 *1094:18 0.000159096
40 *393:12 *1094:24 0.000181192
41 *393:32 *1094:16 0.000797125
42 *393:32 *1094:18 0.000179273
43 *632:43 *1094:44 0
44 *632:58 *5221:C 0
45 *639:40 *1094:8 0
46 *639:40 *1094:16 0
47 *639:53 *5025:A 0
48 *639:53 *1094:16 0
49 *657:14 *5025:A 0
50 *657:14 *1094:16 0
51 *657:14 *1094:24 0
52 *708:68 *1094:44 0
53 *1003:31 *1094:44 0.000401632
54 *1005:31 *1094:18 0
55 *1005:96 *1094:54 0
56 *1012:44 *1094:44 0.000110788
57 *1015:10 *1094:44 0.000691613
58 *1015:18 *1094:44 0.00050593
*RES
1 *5635:Q *1094:8 41.5862 
2 *1094:8 *1094:10 20 
3 *1094:10 *1094:16 32.5351 
4 *1094:16 *1094:18 1.5862 
5 *1094:18 *1094:24 31.33 
6 *1094:24 *5041:A 20 
7 *1094:18 *5215:A 40 
8 *1094:16 *1094:44 49.7541 
9 *1094:44 *1094:48 20.7519 
10 *1094:48 *1094:54 30.4339 
11 *1094:54 *5221:C 40.6639 
12 *1094:48 *5222:C 20 
13 *1094:10 *5025:A 21.6171 
*END

*D_NET *1095 0.00740037
*CONN
*I *5221:B I *D sg13g2_and4_1
*I *5218:A I *D sg13g2_nand4_1
*I *5219:A I *D sg13g2_and4_1
*I *5039:D I *D sg13g2_nor4_1
*I *5024:A I *D sg13g2_inv_1
*I *5222:B I *D sg13g2_nand4_1
*I *5637:Q O *D sg13g2_dfrbpq_1
*CAP
1 *5221:B 0.000410212
2 *5218:A 0
3 *5219:A 0
4 *5039:D 0.000319603
5 *5024:A 0
6 *5222:B 8.27561e-05
7 *5637:Q 0.000352489
8 *1095:55 0.000453244
9 *1095:29 0.000884218
10 *1095:18 0.000789784
11 *1095:12 0.000688364
12 *1095:10 0.000855408
13 *5039:D *5222:A 0.000360737
14 *5222:B *5222:A 0
15 *1095:29 *5222:A 0
16 *5218:D *1095:18 0.000698954
17 *5220:A1 *1095:18 0.000129089
18 *5220:A1 *1095:29 0
19 *5220:A1 *1095:55 0
20 *5221:C *5221:B 1.54008e-05
21 *5221:D *5221:B 0
22 *5224:B2 *5221:B 0.000207881
23 *5224:B1 *5221:B 0.000143934
24 *5637:CLK *5221:B 0
25 *269:10 *5039:D 0.000505929
26 *269:10 *1095:55 9.71568e-05
27 *283:12 *1095:55 0
28 *286:61 *1095:55 0.000176526
29 *286:67 *5222:B 0
30 *358:36 *5039:D 0
31 *358:36 *1095:55 0
32 *390:18 *1095:10 0
33 *390:28 *5221:B 0
34 *605:231 *1095:10 0
35 *605:231 *1095:18 0
36 *605:231 *1095:55 0
37 *632:43 *1095:18 0
38 *632:54 *1095:10 0
39 *632:58 *5221:B 0
40 *1012:44 *1095:18 7.50571e-05
41 *1015:18 *1095:18 7.3287e-05
42 *1094:44 *1095:18 0
43 *1094:48 *5222:B 8.03443e-05
*RES
1 *5637:Q *1095:10 43.3887 
2 *1095:10 *1095:12 0.8446 
3 *1095:12 *1095:18 27.0967 
4 *1095:18 *5222:B 20.9682 
5 *1095:18 *1095:29 1.3493 
6 *1095:29 *5024:A 20 
7 *1095:29 *5039:D 24.017 
8 *1095:29 *1095:55 44.2024 
9 *1095:55 *5219:A 20 
10 *1095:12 *5218:A 40 
11 *1095:10 *5221:B 44.3672 
*END

*D_NET *1096 0.00487386
*CONN
*I *5023:A I *D sg13g2_inv_1
*I *5221:A I *D sg13g2_and4_1
*I *5222:A I *D sg13g2_nand4_1
*I *5039:C I *D sg13g2_nor4_1
*I *5639:Q O *D sg13g2_dfrbpq_1
*CAP
1 *5023:A 0
2 *5221:A 0
3 *5222:A 0.000257826
4 *5039:C 0
5 *5639:Q 0.000641344
6 *1096:18 0.0012645
7 *1096:12 0.0011009
8 *1096:10 0.000735565
9 *1096:18 *5039:B 1.54008e-05
10 *5039:D *5222:A 0.000360737
11 *5221:D *1096:18 0
12 *5222:B *5222:A 0
13 *5639:CLK *1096:10 0
14 *5733:CLK *1096:10 0
15 *259:24 *1096:12 0
16 *288:27 *1096:18 0.000497581
17 *358:36 *5222:A 0
18 *358:36 *1096:18 0
19 *632:54 *1096:10 0
20 *632:54 *1096:12 0
21 *1005:96 *1096:18 0
22 *1094:54 *5222:A 0
23 *1094:54 *1096:18 0
24 *1095:29 *5222:A 0
*RES
1 *5639:Q *1096:10 47.9001 
2 *1096:10 *1096:12 1.0918 
3 *1096:12 *1096:18 29.0743 
4 *1096:18 *5039:C 20 
5 *1096:18 *5222:A 22.8325 
6 *1096:12 *5221:A 40 
7 *1096:10 *5023:A 40 
*END

*D_NET *1097 0.00912101
*CONN
*I *5078:A I *D sg13g2_nor2b_1
*I *5159:B1 I *D sg13g2_a21o_1
*I *5054:C I *D sg13g2_and4_1
*I *5052:D I *D sg13g2_nand4_1
*I *5055:C I *D sg13g2_nand4_1
*I *5163:C I *D sg13g2_and4_1
*I *5160:C I *D sg13g2_nand3_1
*I *5603:Q O *D sg13g2_dfrbpq_1
*CAP
1 *5078:A 0.000522314
2 *5159:B1 0.000183596
3 *5054:C 0
4 *5052:D 0
5 *5055:C 0.000179834
6 *5163:C 0.000161478
7 *5160:C 2.60565e-05
8 *5603:Q 0.00110666
9 *1097:61 0.00014411
10 *1097:42 0.000366299
11 *1097:40 0.000578967
12 *1097:25 0.000835565
13 *1097:14 0.000579521
14 *1097:8 0.00118393
15 *5055:C *5055:B 7.09294e-05
16 *5055:C *5055:A 0
17 *5160:C *5084:A 4.77425e-05
18 *5163:C *1108:23 4.78853e-05
19 *5163:C *1108:27 1.54285e-05
20 *1097:14 *5084:A 0.000209374
21 *1097:40 *1108:33 0.000208823
22 *1097:40 *1108:35 3.23417e-05
23 *1097:42 *5055:B 6.48533e-05
24 *1097:42 *1108:35 1.54008e-05
25 *1097:61 *1108:63 1.54008e-05
26 *5155:A1 *1097:8 0
27 *5158:B1 *5078:A 0
28 *5160:B *5160:C 4.77425e-05
29 *5160:B *1097:14 6.46834e-05
30 *5163:A *5163:C 0.000182023
31 *5163:A *1097:25 0.000159598
32 *5163:B *5163:C 4.77425e-05
33 *5601:D *5078:A 0.000177388
34 *282:8 *1097:61 0.00012816
35 *284:8 *1097:61 0.000129078
36 *358:78 *1097:61 0.000181608
37 *646:20 *5078:A 0
38 *646:20 *1097:8 0
39 *692:12 *1097:14 0
40 *692:14 *1097:25 0
41 *692:29 *1097:40 0.000871677
42 *692:35 *5055:C 0.000242088
43 *692:35 *1097:40 1.54008e-05
44 *692:35 *1097:42 8.0216e-05
45 *707:29 *5159:B1 0
46 *708:14 *5078:A 0
47 *1013:31 *5159:B1 1.54008e-05
48 *1013:35 *1097:25 0.000181694
49 *1015:131 *5163:C 0
*RES
1 *5603:Q *1097:8 46.0358 
2 *1097:8 *1097:14 24.7174 
3 *1097:14 *5160:C 20.3193 
4 *1097:14 *1097:25 21.5862 
5 *1097:25 *5163:C 41.6583 
6 *1097:25 *1097:40 25.9431 
7 *1097:40 *1097:42 0.5356 
8 *1097:42 *5055:C 21.8334 
9 *1097:42 *1097:61 42.0806 
10 *1097:61 *5052:D 20 
11 *1097:40 *5054:C 20 
12 *1097:8 *5159:B1 41.6171 
13 *5603:Q *5078:A 45.6444 
*END

*D_NET *1098 0.00752163
*CONN
*I *5225:A I *D sg13g2_nand4_1
*I *5039:B I *D sg13g2_nor4_1
*I *5231:C I *D sg13g2_nand3_1
*I *5240:D I *D sg13g2_nand4_1
*I *5022:A I *D sg13g2_inv_1
*I *5641:Q O *D sg13g2_dfrbpq_1
*CAP
1 *5225:A 0.000209955
2 *5039:B 0.000212212
3 *5231:C 7.77423e-05
4 *5240:D 0.000174213
5 *5022:A 0.000267021
6 *5641:Q 0.000259986
7 *1098:35 0.000533725
8 *1098:31 0.000803819
9 *1098:29 0.00133235
10 *1098:8 0.00133957
11 *5039:B *5039:A 0.000338508
12 *5231:C *5231:B 0
13 *5240:D *5231:B 0.000177512
14 *5240:D *1099:16 1.54556e-05
15 *1098:29 *5021:A 0
16 *1098:31 *1099:10 0
17 *1098:35 *1099:16 0
18 *5134:A2 *1098:29 0
19 *5225:B *1098:31 0
20 *5226:A *1098:29 0
21 *5227:A1 *1098:29 0
22 *5227:A2 *1098:29 0
23 *5227:B1 *1098:29 0.000240202
24 *137:10 *5022:A 0
25 *137:10 *1098:29 0
26 *257:8 *1098:29 7.93167e-05
27 *258:23 *5022:A 0
28 *358:36 *5039:B 0
29 *358:36 *5231:C 0
30 *358:36 *5240:D 0
31 *367:46 *1098:31 0
32 *367:46 *1098:35 0
33 *400:10 *1098:29 0.000175623
34 *631:66 *5022:A 0.000288201
35 *631:66 *1098:8 0.000289769
36 *631:79 *1098:8 0.000643568
37 *700:86 *5022:A 0
38 *708:68 *5225:A 0
39 *1002:84 *5225:A 0
40 *1002:84 *1098:29 0
41 *1002:84 *1098:31 0
42 *1002:90 *5225:A 0
43 *1002:90 *1098:31 0
44 *1015:26 *1098:29 4.74857e-05
45 *1096:18 *5039:B 1.54008e-05
*RES
1 *5641:Q *1098:8 44.3054 
2 *1098:8 *5022:A 43.1415 
3 *1098:8 *1098:29 47.4843 
4 *1098:29 *1098:31 2.8222 
5 *1098:31 *1098:35 23.0694 
6 *1098:35 *5240:D 21.8334 
7 *1098:35 *5231:C 20.8858 
8 *1098:31 *5039:B 42.266 
9 *1098:29 *5225:A 41.972 
*END

*D_NET *1099 0.00594568
*CONN
*I *5021:A I *D sg13g2_inv_1
*I *5039:A I *D sg13g2_nor4_1
*I *5231:B I *D sg13g2_nand3_1
*I *5240:C I *D sg13g2_nand4_1
*I *5643:Q O *D sg13g2_dfrbpq_1
*CAP
1 *5021:A 5.24648e-05
2 *5039:A 0.000416988
3 *5231:B 0.000252462
4 *5240:C 0
5 *5643:Q 0.000837359
6 *1099:16 0.000694881
7 *1099:10 0.00123544
8 *1099:8 0.00126585
9 *5231:B *1100:34 6.48204e-05
10 *1099:16 *1100:23 4.79124e-05
11 *1099:16 *1100:34 4.79124e-05
12 *5039:B *5039:A 0.000338508
13 *5226:A *5021:A 7.99242e-05
14 *5228:A *1099:10 0
15 *5229:B1 *1099:10 0
16 *5230:D *1099:10 0
17 *5231:C *5231:B 0
18 *5240:D *5231:B 0.000177512
19 *5240:D *1099:16 1.54556e-05
20 *5242:A *1099:16 0
21 *257:8 *5021:A 1.54008e-05
22 *268:24 *5231:B 0.000177555
23 *286:67 *5039:A 0
24 *286:67 *1099:10 0
25 *286:67 *1099:16 0
26 *358:36 *5039:A 0
27 *358:36 *1099:16 0
28 *1002:84 *5039:A 0.000112558
29 *1002:84 *1099:10 0
30 *1094:54 *5039:A 0.000112676
31 *1098:29 *5021:A 0
32 *1098:31 *1099:10 0
33 *1098:35 *1099:16 0
*RES
1 *5643:Q *1099:8 49.7438 
2 *1099:8 *1099:10 3.0694 
3 *1099:10 *1099:16 24.0994 
4 *1099:16 *5240:C 20 
5 *1099:16 *5231:B 22.7192 
6 *1099:10 *5039:A 44.429 
7 *1099:8 *5021:A 40.5356 
*END

*D_NET *1100 0.00628124
*CONN
*I *5231:A I *D sg13g2_nand3_1
*I *5038:D I *D sg13g2_nor4_1
*I *5240:B I *D sg13g2_nand4_1
*I *5020:A I *D sg13g2_inv_1
*I *5645:Q O *D sg13g2_dfrbpq_1
*CAP
1 *5231:A 0.000169661
2 *5038:D 6.30735e-05
3 *5240:B 0
4 *5020:A 0.000232087
5 *5645:Q 0.000280197
6 *1100:34 0.000332556
7 *1100:23 0.00120951
8 *1100:8 0.00162197
9 *5038:D *1101:54 0
10 *1100:23 *1101:10 0
11 *1100:23 *1101:48 0
12 *1100:34 *1101:54 0
13 *5136:A2 *5020:A 0
14 *5231:B *1100:34 6.48204e-05
15 *5232:A *5231:A 0
16 *5234:C *1100:23 8.00842e-05
17 *5235:A1 *5020:A 0
18 *5235:B1 *1100:23 0
19 *5241:A *5231:A 0.000144718
20 *5241:A *1100:23 0
21 *5241:A *1100:34 0
22 *5241:B *1100:23 0
23 *5645:RESET_B *5020:A 0.000274676
24 *5645:D *5020:A 0
25 *5645:D *1100:23 0
26 *256:8 *5020:A 4.78556e-05
27 *268:8 *5038:D 0.000128247
28 *268:8 *1100:34 7.51285e-05
29 *268:24 *5231:A 0.000242203
30 *367:46 *5038:D 0
31 *631:42 *5020:A 0.000181695
32 *631:42 *1100:8 0.000374128
33 *631:53 *1100:8 0.000662803
34 *709:70 *1100:23 0
35 *1099:16 *1100:23 4.79124e-05
36 *1099:16 *1100:34 4.79124e-05
*RES
1 *5645:Q *1100:8 44.7998 
2 *1100:8 *5020:A 42.8943 
3 *1100:8 *1100:23 31.3506 
4 *1100:23 *5240:B 20 
5 *1100:23 *1100:34 21.3493 
6 *1100:34 *5038:D 40.8446 
7 *1100:34 *5231:A 41.8334 
*END

*D_NET *1101 0.00621929
*CONN
*I *5038:C I *D sg13g2_nor4_1
*I *5240:A I *D sg13g2_nand4_1
*I *5019:A I *D sg13g2_inv_1
*I *5236:B I *D sg13g2_nand3_1
*I *5647:Q O *D sg13g2_dfrbpq_1
*CAP
1 *5038:C 7.01647e-05
2 *5240:A 0
3 *5019:A 0
4 *5236:B 2.89599e-05
5 *5647:Q 0.000416318
6 *1101:54 0.000153568
7 *1101:48 0.000623667
8 *1101:39 0.000417399
9 *1101:23 0.00110838
10 *1101:12 0.000320004
11 *1101:10 0.000416318
12 *5038:C *5038:B 4.79124e-05
13 *5038:C *1103:68 0
14 *1101:23 *1103:68 0.000339111
15 *1101:39 *1103:68 0
16 *1101:48 *5038:B 0
17 *1101:48 *1103:68 0.00061421
18 *5038:D *1101:54 0
19 *5132:A2 *1101:10 0
20 *5234:C *1101:10 0.00039332
21 *5236:C *5236:B 4.77425e-05
22 *5236:A *1101:23 0.000371866
23 *5238:A1 *1101:23 0
24 *5238:A1 *1101:39 0
25 *5238:A2 *1101:39 0
26 *5241:A *5038:C 4.77537e-05
27 *5241:A *1101:48 0.000112535
28 *5242:A *1101:54 0
29 *140:10 *1101:39 0
30 *255:14 *1101:39 0
31 *398:16 *1101:48 0
32 *403:10 *1101:39 0.00023464
33 *406:22 *1101:23 9.71236e-05
34 *406:22 *1101:48 0.000177109
35 *629:80 *1101:10 0.000181192
36 *631:16 *1101:39 0
37 *709:78 *1101:10 0
38 *1100:23 *1101:10 0
39 *1100:23 *1101:48 0
40 *1100:34 *1101:54 0
*RES
1 *5647:Q *1101:10 45.2118 
2 *1101:10 *1101:12 20 
3 *1101:12 *5236:B 20.3193 
4 *1101:12 *1101:23 3.4814 
5 *1101:23 *1101:39 44.7148 
6 *1101:39 *5019:A 20 
7 *1101:23 *1101:48 4.5629 
8 *1101:48 *1101:54 41.339 
9 *1101:54 *5240:A 20 
10 *1101:48 *5038:C 20.7519 
*END

*D_NET *1102 0.020872
*CONN
*I *5038:B I *D sg13g2_nor4_1
*I *5244:A I *D sg13g2_nand4_1
*I *5250:C I *D sg13g2_and3_1
*I *5139:A1 I *D sg13g2_mux2_1
*I *5253:D I *D sg13g2_and4_1
*I *5247:B I *D sg13g2_and2_1
*I *5243:A I *D sg13g2_nor2_1
*I *5649:Q O *D sg13g2_dfrbpq_1
*CAP
1 *5038:B 0.000559616
2 *5244:A 4.16142e-05
3 *5250:C 0.000134565
4 *5139:A1 0
5 *5253:D 0.000192117
6 *5247:B 0
7 *5243:A 3.42162e-05
8 *5649:Q 0.000569759
9 *1102:69 0.00169607
10 *1102:59 0.00217243
11 *1102:40 0.0011069
12 *1102:38 0.0006874
13 *1102:36 0.000926608
14 *1102:27 0.000399924
15 *1102:21 0.00107904
16 *1102:12 0.000419141
17 *1102:10 0.000569759
18 *5038:B *1103:68 0.000191632
19 *5250:C *5250:A 0.000161163
20 *5250:C *5250:B 4.77699e-05
21 *5250:C *5253:C 0.000209676
22 *5253:D *5253:C 0.000177428
23 *1102:10 *1103:68 0
24 *1102:21 *1103:10 0
25 *1102:59 *5253:C 0
26 *1102:69 *5250:A 0
27 *5038:C *5038:B 4.79124e-05
28 *5139:S *1102:69 0
29 *5140:A *1102:69 0
30 *5241:A *5038:B 0
31 *5242:A *5038:B 0.000713368
32 *5242:B *5038:B 0.000765375
33 *5242:D *1102:36 0
34 *5243:B *1102:21 0
35 *5248:B *1102:38 0.000106064
36 *5248:B *1102:40 0.000394981
37 *5248:C *1102:40 0
38 *5251:B2 *5250:C 0
39 *5251:B2 *1102:59 4.77425e-05
40 *5589:RESET_B *1102:69 0
41 *5589:D *1102:69 0
42 *5653:RESET_B *1102:69 0
43 *143:14 *1102:59 0.000318607
44 *143:14 *1102:69 0.000608768
45 *252:12 *1102:69 0
46 *255:14 *1102:10 0.000533908
47 *398:16 *5038:B 0
48 *406:18 *5038:B 0.00024109
49 *412:31 *1102:36 8.02105e-05
50 *412:38 *1102:36 0.000111988
51 *413:10 *1102:21 0
52 *413:10 *1102:36 0
53 *413:14 *1102:27 0
54 *415:6 *1102:36 0
55 *417:8 *1102:27 0
56 *418:10 *1102:27 0.000289504
57 *419:10 *1102:59 4.77425e-05
58 *419:27 *5253:D 0.00023547
59 *419:27 *1102:59 0.000404082
60 *620:25 *1102:59 0
61 *629:10 *1102:59 0.000341119
62 *629:10 *1102:69 0.000608768
63 *629:80 *1102:10 0.00103427
64 *631:16 *1102:10 0.000533908
65 *704:23 *1102:21 0
66 *704:23 *1102:27 0
67 *704:27 *5243:A 0
68 *704:27 *1102:21 0
69 *709:62 *1102:27 0
70 *709:62 *1102:40 0
71 *753:12 *1102:69 0.000177526
72 *1002:34 *5038:B 0.000159096
73 *1002:34 *1102:38 0.00012816
74 *1002:58 *5038:B 0.000449257
75 *1005:59 *1102:40 0.000768694
76 *1015:56 *1102:10 0.000235141
77 *1015:88 *1102:21 0.000112453
78 *1025:37 *1102:69 0
79 *1101:48 *5038:B 0
*RES
1 *5649:Q *1102:10 48.3636 
2 *1102:10 *1102:12 20 
3 *1102:12 *5243:A 20.3193 
4 *1102:12 *1102:21 3.7801 
5 *1102:21 *1102:27 44.3054 
6 *1102:27 *5247:B 20 
7 *1102:21 *1102:36 21.9909 
8 *1102:36 *1102:38 1.0918 
9 *1102:38 *1102:40 8.2606 
10 *1102:40 *5253:D 42.5235 
11 *1102:40 *1102:59 44.7174 
12 *1102:59 *1102:69 40.2498 
13 *1102:69 *5139:A1 20 
14 *1102:59 *5250:C 41.6171 
15 *1102:38 *5244:A 40.3193 
16 *1102:36 *5038:B 49.2803 
*END

*D_NET *1103 0.00965844
*CONN
*I *5038:A I *D sg13g2_nor4_1
*I *5247:A I *D sg13g2_and2_1
*I *5253:C I *D sg13g2_and4_1
*I *5250:B I *D sg13g2_and3_1
*I *5018:A I *D sg13g2_inv_1
*I *5651:Q O *D sg13g2_dfrbpq_1
*CAP
1 *5038:A 0
2 *5247:A 0.000226052
3 *5253:C 0.000564419
4 *5250:B 8.70937e-05
5 *5018:A 0
6 *5651:Q 5.61216e-05
7 *1103:68 0.00136473
8 *1103:29 0.000898956
9 *1103:18 0.000713909
10 *1103:12 0.00104507
11 *1103:10 0.0017734
12 *5253:C *1104:6 0
13 *5253:C *1104:15 0.000145025
14 *5253:C *1104:24 0.000274638
15 *5253:C *1104:35 1.54556e-05
16 *5038:B *1103:68 0.000191632
17 *5038:C *1103:68 0
18 *5142:A2 *1103:18 0
19 *5142:A2 *1103:29 0
20 *5234:C *1103:68 0
21 *5238:A1 *1103:68 4.72956e-05
22 *5238:A2 *1103:68 0
23 *5249:A1 *1103:18 0
24 *5250:C *5250:B 4.77699e-05
25 *5250:C *5253:C 0.000209676
26 *5251:B2 *1103:29 0.000288502
27 *5251:A1 *5253:C 0
28 *5253:D *5253:C 0.000177428
29 *5591:CLK *1103:18 0
30 *5651:D *1103:18 0
31 *140:10 *1103:68 0
32 *143:14 *1103:29 0
33 *406:18 *1103:68 0
34 *413:10 *1103:68 0
35 *415:12 *1103:12 0
36 *415:12 *1103:18 0
37 *416:8 *1103:12 0
38 *416:8 *1103:68 0
39 *419:10 *5253:C 0.000168094
40 *419:27 *5253:C 0
41 *629:52 *5247:A 0.000361949
42 *629:67 *1103:12 0
43 *629:67 *1103:18 0
44 *629:80 *1103:12 0
45 *629:80 *1103:68 0
46 *704:27 *1103:10 4.79124e-05
47 *1005:78 *1103:29 0
48 *1015:56 *1103:68 0
49 *1015:88 *1103:68 0
50 *1101:23 *1103:68 0.000339111
51 *1101:39 *1103:68 0
52 *1101:48 *1103:68 0.00061421
53 *1102:10 *1103:68 0
54 *1102:21 *1103:10 0
55 *1102:59 *5253:C 0
*RES
1 *5651:Q *1103:10 40.6386 
2 *1103:10 *1103:12 4.0582 
3 *1103:12 *1103:18 24.5011 
4 *1103:18 *5018:A 20 
5 *1103:18 *1103:29 23.1415 
6 *1103:29 *5250:B 40.9167 
7 *1103:29 *5253:C 45.9637 
8 *1103:12 *5247:A 42.4823 
9 *1103:10 *1103:68 34.0801 
10 *1103:68 *5038:A 20 
*END

*D_NET *1104 0.0063509
*CONN
*I *5048:B I *D sg13g2_nor2_1
*I *5049:D I *D sg13g2_nor4_1
*I *5253:B I *D sg13g2_and4_1
*I *5017:A I *D sg13g2_inv_1
*I *5250:A I *D sg13g2_and3_1
*I *5653:Q O *D sg13g2_dfrbpq_1
*CAP
1 *5048:B 0
2 *5049:D 0
3 *5253:B 0
4 *5017:A 4.32204e-05
5 *5250:A 0.000196724
6 *5653:Q 2.88561e-05
7 *1104:48 0.000116767
8 *1104:35 0.00148565
9 *1104:24 0.00154707
10 *1104:15 0.000383938
11 *1104:6 0.000388108
12 *1104:35 *5047:A 0
13 *1104:35 *5049:B 0
14 *1104:35 *1107:38 0
15 *1104:48 *5047:A 0
16 *1104:48 *5049:C 0.000234726
17 *5250:C *5250:A 0.000161163
18 *5252:C *1104:35 0
19 *5252:D *1104:35 0.000533952
20 *5253:C *1104:6 0
21 *5253:C *1104:15 0.000145025
22 *5253:C *1104:24 0.000274638
23 *5253:C *1104:35 1.54556e-05
24 *5254:C *1104:35 0
25 *5254:D *1104:35 4.7803e-05
26 *278:8 *1104:48 0.000287757
27 *388:22 *1104:35 0
28 *419:27 *5017:A 0
29 *419:27 *1104:24 0
30 *419:27 *1104:35 0
31 *421:10 *1104:35 0
32 *421:21 *1104:35 0
33 *620:8 *1104:35 0
34 *1031:12 *1104:35 0.000435402
35 *1031:32 *1104:35 2.46413e-05
36 *1102:69 *5250:A 0
*RES
1 *5653:Q *1104:6 20.3502 
2 *1104:6 *5250:A 21.9415 
3 *1104:6 *1104:15 1.6171 
4 *1104:15 *5017:A 20.5974 
5 *1104:15 *1104:24 1.8334 
6 *1104:24 *5253:B 20 
7 *1104:24 *1104:35 13.9668 
8 *1104:35 *5049:D 20 
9 *1104:35 *1104:48 41.8746 
10 *1104:48 *5048:B 20 
*END

*D_NET *1105 0.00451524
*CONN
*I *5048:A I *D sg13g2_nor2_1
*I *5049:C I *D sg13g2_nor4_1
*I *5016:A I *D sg13g2_inv_1
*I *5253:A I *D sg13g2_and4_1
*I *5655:Q O *D sg13g2_dfrbpq_1
*CAP
1 *5048:A 0
2 *5049:C 0.000182656
3 *5016:A 0
4 *5253:A 0
5 *5655:Q 0.00143813
6 *1105:41 0.000409097
7 *1105:37 0.00151278
8 *1105:12 0.000252995
9 *1105:6 0.000404786
10 *5049:C *1107:19 0
11 *1105:12 *1106:14 0
12 *1105:37 *5014:A 0
13 *1105:41 *5014:A 0
14 *1105:41 *1107:19 0
15 *5251:A1 *1105:12 0
16 *5255:A *1105:37 0
17 *5255:B *1105:37 0
18 *5257:A1 *1105:6 0
19 *5257:B1 *1105:37 0
20 *5266:A1 *1105:37 8.00842e-05
21 *5266:A2 *1105:37 0
22 *5599:D *1105:37 0
23 *5659:CLK *1105:37 0
24 *253:14 *1105:12 0
25 *278:8 *5049:C 0
26 *348:38 *1105:37 0
27 *620:14 *1105:37 0
28 *1104:48 *5049:C 0.000234726
*RES
1 *5655:Q *1105:6 21.6171 
2 *1105:6 *1105:12 43.0694 
3 *1105:12 *5253:A 20 
4 *1105:6 *5016:A 20 
5 *5655:Q *1105:37 33.2458 
6 *1105:37 *1105:41 22.3278 
7 *1105:41 *5049:C 41.9055 
8 *1105:41 *5048:A 40 
*END

*D_NET *1106 0.0137403
*CONN
*I *5015:A I *D sg13g2_inv_1
*I *5263:C I *D sg13g2_nand3_1
*I *5047:B I *D sg13g2_nor2_1
*I *5049:B I *D sg13g2_nor4_1
*I *5147:B I *D sg13g2_and2_1
*I *5262:C I *D sg13g2_and3_1
*I *5148:A1 I *D sg13g2_mux2_1
*I *5657:Q O *D sg13g2_dfrbpq_1
*CAP
1 *5015:A 0.000381758
2 *5263:C 0.000196539
3 *5047:B 0.000305717
4 *5049:B 0.000321835
5 *5147:B 0.000373692
6 *5262:C 0
7 *5148:A1 0
8 *5657:Q 0.000194683
9 *1106:42 0.000812185
10 *1106:40 0.000566849
11 *1106:38 0.000449633
12 *1106:29 0.000909176
13 *1106:21 0.00137915
14 *1106:14 0.00155113
15 *1106:8 0.00194264
16 *5047:B *5047:A 0.000112552
17 *5047:B *1107:38 0.000241979
18 *5049:B *5049:A 0.000112426
19 *1106:29 *5262:B 3.58069e-05
20 *1106:38 *5262:B 0
21 *5050:A *5047:B 0
22 *5050:B *5047:B 0
23 *5145:B1 *1106:14 0
24 *5146:A1 *1106:14 1.54008e-05
25 *5147:A *5147:B 4.77425e-05
26 *5148:A0 *1106:14 4.77425e-05
27 *5149:A *1106:14 0
28 *5255:B *5147:B 0.000177071
29 *5262:A *1106:38 4.77425e-05
30 *5266:A2 *5147:B 0
31 *5657:D *5015:A 4.79124e-05
32 *5657:CLK *1106:29 0
33 *144:8 *1106:14 0
34 *348:63 *5147:B 0
35 *348:63 *5263:C 0
36 *385:26 *1106:29 0
37 *388:22 *5049:B 0
38 *388:36 *1106:14 0
39 *410:20 *1106:29 0
40 *421:10 *1106:8 0
41 *430:12 *1106:29 4.77425e-05
42 *430:12 *1106:38 0.000177203
43 *430:20 *5147:B 0.000288173
44 *430:20 *5263:C 7.30101e-05
45 *430:20 *1106:40 0.000446207
46 *430:20 *1106:42 0.000394566
47 *430:35 *5047:B 0
48 *620:25 *1106:29 0.000760679
49 *630:16 *1106:14 0
50 *656:18 *5263:C 0
51 *656:18 *1106:40 0
52 *656:22 *1106:40 0
53 *656:22 *1106:42 0
54 *809:8 *1106:14 0.00093318
55 *809:12 *1106:14 0.000194368
56 *856:10 *5015:A 0
57 *856:10 *1106:8 0
58 *1005:59 *5015:A 8.03091e-05
59 *1012:67 *5147:B 7.35518e-05
60 *1031:32 *5147:B 0
61 *1104:35 *5049:B 0
62 *1105:12 *1106:14 0
*RES
1 *5657:Q *1106:8 41.8334 
2 *1106:8 *1106:14 38.9932 
3 *1106:14 *5148:A1 20 
4 *1106:8 *1106:21 2.3278 
5 *1106:21 *1106:29 28.7756 
6 *1106:29 *5262:C 20 
7 *1106:29 *1106:38 21.1845 
8 *1106:38 *1106:40 2.0806 
9 *1106:40 *1106:42 1.8334 
10 *1106:42 *5147:B 43.7595 
11 *1106:42 *5049:B 42.9149 
12 *1106:40 *5047:B 43.2651 
13 *1106:38 *5263:C 41.5965 
14 *1106:21 *5015:A 44.5938 
*END

*D_NET *1107 0.00458307
*CONN
*I *5047:A I *D sg13g2_nor2_1
*I *5263:B I *D sg13g2_nand3_1
*I *5262:B I *D sg13g2_and3_1
*I *5049:A I *D sg13g2_nor4_1
*I *5014:A I *D sg13g2_inv_1
*I *5659:Q O *D sg13g2_dfrbpq_1
*CAP
1 *5047:A 6.65399e-05
2 *5263:B 0.000102276
3 *5262:B 0.000257181
4 *5049:A 6.76918e-05
5 *5014:A 0.000295045
6 *5659:Q 0
7 *1107:38 0.000614733
8 *1107:32 0.000472794
9 *1107:19 0.000505701
10 *1107:6 0.000582075
11 *5047:B *5047:A 0.000112552
12 *5047:B *1107:38 0.000241979
13 *5049:B *5049:A 0.000112426
14 *5049:C *1107:19 0
15 *5262:A *5262:B 4.77425e-05
16 *146:8 *5014:A 0
17 *279:12 *1107:32 0.000182023
18 *279:12 *1107:38 0
19 *280:16 *5263:B 0
20 *280:16 *1107:38 0
21 *348:63 *5263:B 0.000313453
22 *348:63 *1107:19 0
23 *348:63 *1107:32 0
24 *348:63 *1107:38 0.000395067
25 *388:22 *5049:A 0
26 *430:35 *5263:B 0.000177981
27 *431:8 *1107:19 0
28 *1104:35 *5047:A 0
29 *1104:35 *1107:38 0
30 *1104:48 *5047:A 0
31 *1105:37 *5014:A 0
32 *1105:41 *5014:A 0
33 *1105:41 *1107:19 0
34 *1106:29 *5262:B 3.58069e-05
35 *1106:38 *5262:B 0
*RES
1 *5659:Q *1107:6 40 
2 *1107:6 *5014:A 42.9561 
3 *1107:6 *1107:19 2.8222 
4 *1107:19 *5049:A 40.7519 
5 *1107:19 *1107:32 21.8334 
6 *1107:32 *1107:38 23.4505 
7 *1107:38 *5262:B 42.6394 
8 *1107:38 *5263:B 41.5862 
9 *1107:32 *5047:A 20.7519 
*END

*D_NET *1108 0.00703699
*CONN
*I *5163:D I *D sg13g2_and4_1
*I *5162:A I *D sg13g2_nor2b_1
*I *5052:C I *D sg13g2_nand4_1
*I *5054:B I *D sg13g2_and4_1
*I *5055:B I *D sg13g2_nand4_1
*I *5081:A I *D sg13g2_nor2b_1
*I *5605:Q O *D sg13g2_dfrbpq_1
*CAP
1 *5163:D 0
2 *5162:A 0
3 *5052:C 0
4 *5054:B 0
5 *5055:B 0.000352554
6 *5081:A 0.000426318
7 *5605:Q 0.00023687
8 *1108:63 0.000181502
9 *1108:35 0.00037421
10 *1108:33 0.0006405
11 *1108:27 0.000637258
12 *1108:23 0.000751459
13 *1108:8 0.00121473
14 *5055:B *5054:A 1.54008e-05
15 *5055:B *5055:A 4.79124e-05
16 *1108:33 *5054:A 6.46339e-05
17 *1108:35 *5054:A 3.23858e-05
18 *1108:63 *5052:B 1.54008e-05
19 *1108:63 *1111:31 0
20 *5055:C *5055:B 7.09294e-05
21 *5163:B *1108:23 0
22 *5163:C *1108:23 4.78853e-05
23 *5163:C *1108:27 1.54285e-05
24 *5605:CLK *1108:23 0.000907769
25 *5605:CLK *1108:27 0.000273287
26 *5988:A *5081:A 0
27 *282:12 *5055:B 0
28 *358:78 *1108:63 0.000393736
29 *707:21 *5081:A 0
30 *707:21 *1108:8 0
31 *1097:40 *1108:33 0.000208823
32 *1097:40 *1108:35 3.23417e-05
33 *1097:42 *5055:B 6.48533e-05
34 *1097:42 *1108:35 1.54008e-05
35 *1097:61 *1108:63 1.54008e-05
*RES
1 *5605:Q *1108:8 42.8222 
2 *1108:8 *5081:A 44.7174 
3 *1108:8 *1108:23 26.592 
4 *1108:23 *1108:27 2.1836 
5 *1108:27 *1108:33 4.9749 
6 *1108:33 *1108:35 0.3193 
7 *1108:35 *5055:B 24.3157 
8 *1108:35 *5054:B 20 
9 *1108:33 *1108:63 42.1527 
10 *1108:63 *5052:C 20 
11 *1108:27 *5162:A 20 
12 *1108:23 *5163:D 20 
*END

*D_NET *1109 0.000825996
*CONN
*I *5045:B I *D sg13g2_nor3_1
*I *5013:A I *D sg13g2_inv_1
*I *5661:Q O *D sg13g2_dfrbpq_1
*CAP
1 *5045:B 0
2 *5013:A 0.000225039
3 *5661:Q 0
4 *1109:21 0.000180231
5 *1109:4 0.00040527
6 *5013:A *1110:27 0
7 *1109:21 *5045:A 0
8 *5045:C *1109:21 1.54556e-05
9 *5272:A *5013:A 0
10 *249:46 *5013:A 0
11 *280:16 *5013:A 0
12 *280:16 *1109:21 0
*RES
1 *5661:Q *1109:4 20 
2 *1109:4 *5013:A 22.1836 
3 *1109:4 *1109:21 41.8746 
4 *1109:21 *5045:B 20 
*END

*D_NET *1110 0.00472878
*CONN
*I *5045:A I *D sg13g2_nor3_1
*I *5012:A I *D sg13g2_inv_1
*I *5271:B I *D sg13g2_nand2_1
*I *5663:Q O *D sg13g2_dfrbpq_1
*CAP
1 *5045:A 0.000347574
2 *5012:A 0
3 *5271:B 0.000121902
4 *5663:Q 0.000556496
5 *1110:27 0.000290883
6 *1110:19 0.000890143
7 *1110:10 0.000373588
8 *1110:8 0.000556496
9 *5013:A *1110:27 0
10 *5272:A *1110:27 0
11 *5275:A2 *5271:B 5.70106e-05
12 *5275:A2 *1110:19 0
13 *5663:D *1110:19 8.01116e-05
14 *249:10 *1110:19 0
15 *249:10 *1110:27 0
16 *279:12 *1110:8 0
17 *279:12 *1110:27 0
18 *280:16 *5045:A 0
19 *280:16 *1110:19 0
20 *280:16 *1110:27 0.000242236
21 *387:14 *5045:A 0.00056637
22 *387:14 *5271:B 0.000209676
23 *387:14 *1110:19 0.000436292
24 *389:35 *1110:8 0
25 *410:12 *1110:8 0
26 *657:33 *1110:8 0
27 *1015:35 *1110:8 0
28 *1109:21 *5045:A 0
*RES
1 *5663:Q *1110:8 46.0358 
2 *1110:8 *1110:10 20 
3 *1110:10 *5271:B 21.4008 
4 *1110:10 *1110:19 2.9149 
5 *1110:19 *1110:27 43.2033 
6 *1110:27 *5012:A 20 
7 *1110:19 *5045:A 24.1303 
*END

*D_NET *1111 0.00700376
*CONN
*I *5084:A I *D sg13g2_nor2b_1
*I *5052:B I *D sg13g2_nand4_1
*I *5055:A I *D sg13g2_nand4_1
*I *5054:A I *D sg13g2_and4_1
*I *5165:A I *D sg13g2_nor2_1
*I *5607:Q O *D sg13g2_dfrbpq_1
*CAP
1 *5084:A 0.000899393
2 *5052:B 4.37496e-05
3 *5055:A 0.000301574
4 *5054:A 0.0001902
5 *5165:A 3.34444e-05
6 *5607:Q 7.9714e-05
7 *1111:31 0.000616356
8 *1111:25 0.000516158
9 *1111:23 0.00162008
10 *1111:10 0.000486017
11 *5052:B *5052:A 0
12 *5055:B *5054:A 1.54008e-05
13 *5055:B *5055:A 4.79124e-05
14 *5055:C *5055:A 0
15 *5086:B *5084:A 0
16 *5160:C *5084:A 4.77425e-05
17 *5161:A *5084:A 0
18 *5161:B *5084:A 0
19 *5164:C *1111:10 1.54008e-05
20 *5603:D *5084:A 0.000241973
21 *5605:CLK *5165:A 4.77425e-05
22 *285:6 *5055:A 1.54556e-05
23 *349:25 *1111:23 0
24 *354:12 *1111:23 0.000287757
25 *355:8 *1111:10 0.000234224
26 *355:8 *1111:23 0.000234726
27 *358:78 *5055:A 0
28 *636:38 *1111:10 0.000234726
29 *636:38 *1111:23 5.30319e-05
30 *692:29 *5055:A 0.000112289
31 *692:29 *1111:25 0
32 *692:35 *5055:A 0.000306903
33 *719:25 *1111:31 0
34 *1005:19 *1111:10 0
35 *1005:19 *1111:23 0
36 *1015:125 *5052:B 0
37 *1015:125 *1111:25 0
38 *1097:14 *5084:A 0.000209374
39 *1108:33 *5054:A 6.46339e-05
40 *1108:35 *5054:A 3.23858e-05
41 *1108:63 *5052:B 1.54008e-05
42 *1108:63 *1111:31 0
*RES
1 *5607:Q *1111:10 41.4111 
2 *1111:10 *5165:A 40.3193 
3 *1111:10 *1111:23 23.811 
4 *1111:23 *1111:25 3.291 
5 *1111:25 *1111:31 21.442 
6 *1111:31 *5054:A 41.8437 
7 *1111:31 *5055:A 43.2507 
8 *1111:25 *5052:B 20.5356 
9 *1111:23 *5084:A 29.7541 
*END

*D_NET *1112 0.0103251
*CONN
*I *5087:A I *D sg13g2_nor2b_1
*I *5168:B1 I *D sg13g2_a21oi_1
*I *5169:B1 I *D sg13g2_o21ai_1
*I *5056:D I *D sg13g2_and4_1
*I *5057:D I *D sg13g2_nand4_1
*I *5052:A I *D sg13g2_nand4_1
*I *5609:Q O *D sg13g2_dfrbpq_1
*CAP
1 *5087:A 5.17022e-05
2 *5168:B1 2.50478e-05
3 *5169:B1 0.000143938
4 *5056:D 0
5 *5057:D 9.59796e-05
6 *5052:A 0.000329153
7 *5609:Q 2.57851e-05
8 *1112:35 0.000245932
9 *1112:33 0.000844847
10 *1112:14 0.00107004
11 *1112:12 0.00135183
12 *1112:8 0.00121434
13 *5052:A *1114:29 0
14 *5057:D *5057:C 0.000182023
15 *5057:D *1113:18 7.51285e-05
16 *5169:B1 *1113:16 0.000421148
17 *1112:12 *1113:81 0
18 *1112:12 *1114:29 0
19 *1112:12 *1115:10 0
20 *1112:14 *1114:29 0
21 *1112:35 *1113:16 0.000284991
22 *1112:35 *1113:18 5.30319e-05
23 *5052:B *5052:A 0
24 *5168:A1 *5052:A 2.14736e-05
25 *5168:A1 *1112:14 0.000264702
26 *5609:CLK *5087:A 0
27 *5609:CLK *1112:12 0
28 *5922:A *1112:8 4.7803e-05
29 *121:8 *1112:12 0.00167099
30 *123:10 *1112:12 0
31 *284:8 *5052:A 0.00055162
32 *348:14 *1112:33 7.99179e-05
33 *348:18 *5057:D 0
34 *348:18 *5169:B1 0
35 *348:18 *1112:35 0
36 *358:78 *5052:A 4.78521e-05
37 *361:8 *5169:B1 0.000232778
38 *361:42 *1112:12 0.000287017
39 *612:19 *5087:A 0
40 *666:28 *1112:8 4.77425e-05
41 *732:8 *1112:12 0
42 *1005:27 *1112:33 0
43 *1013:12 *1112:14 0
44 *1013:16 *1112:33 0
45 *1015:117 *1112:33 0.00065833
46 *1015:125 *5052:A 0
*RES
1 *5609:Q *1112:8 40.3193 
2 *1112:8 *1112:12 15.2543 
3 *1112:12 *1112:14 1.8334 
4 *1112:14 *5052:A 43.6771 
5 *1112:14 *1112:33 45.9431 
6 *1112:33 *1112:35 1.5862 
7 *1112:35 *5057:D 41.0918 
8 *1112:35 *5056:D 40 
9 *1112:33 *5169:B1 42.0806 
10 *1112:12 *5168:B1 40.3193 
11 *1112:8 *5087:A 40.5974 
*END

*D_NET *1113 0.0124424
*CONN
*I *5090:A I *D sg13g2_nor2b_1
*I *5174:A1 I *D sg13g2_a21oi_1
*I *5175:B I *D sg13g2_and3_1
*I *5173:A1 I *D sg13g2_a21oi_1
*I *5172:A1 I *D sg13g2_o21ai_1
*I *5056:C I *D sg13g2_and4_1
*I *5051:C I *D sg13g2_nand4_1
*I *5057:C I *D sg13g2_nand4_1
*I *5611:Q O *D sg13g2_dfrbpq_1
*CAP
1 *5090:A 0.000566921
2 *5174:A1 7.30302e-05
3 *5175:B 0
4 *5173:A1 3.17494e-05
5 *5172:A1 2.30908e-05
6 *5056:C 2.8241e-05
7 *5051:C 0.000390275
8 *5057:C 7.26058e-05
9 *5611:Q 0.000490239
10 *1113:102 0.00105716
11 *1113:81 0.000273011
12 *1113:73 0.00107552
13 *1113:18 0.000484723
14 *1113:16 0.000383808
15 *1113:14 0.000478011
16 *1113:12 0.000313065
17 *1113:8 0.00190992
18 *1113:6 0.00102032
19 *5051:C *5056:B 0
20 *5051:C *5057:B 0.000242203
21 *5051:C *1114:31 4.77425e-05
22 *5056:C *5056:B 1.54008e-05
23 *5057:C *5057:B 4.78688e-05
24 *5057:C *1115:37 0.000235228
25 *1113:16 *1115:37 0.000106242
26 *1113:18 *1115:37 0.000106894
27 *5057:D *5057:C 0.000182023
28 *5057:D *1113:18 7.51285e-05
29 *5062:A1 *1113:102 0
30 *5169:B1 *1113:16 0.000421148
31 *5172:A2 *5172:A1 1.54008e-05
32 *5173:A2 *1113:14 0.000342059
33 *5176:B *1113:73 0
34 *5176:C *1113:73 0.000186468
35 *5179:A *1113:16 0
36 *5179:C *1113:73 0
37 *5615:D *1113:73 4.77288e-05
38 *5871:RESET_B *5090:A 0
39 *5921:A *5090:A 0
40 *6010:A *5172:A1 4.77425e-05
41 *122:12 *1113:8 0.000984313
42 *122:12 *1113:12 0
43 *123:10 *1113:81 0
44 *291:29 *1113:102 0
45 *349:25 *1113:81 0
46 *349:29 *1113:81 0
47 *349:48 *1113:14 0
48 *349:48 *1113:81 0
49 *360:8 *1113:16 0.000126445
50 *361:42 *1113:81 0.000155049
51 *363:10 *1113:73 4.76034e-05
52 *364:6 *1113:73 0
53 *646:54 *1113:8 0
54 *661:59 *5174:A1 0
55 *661:59 *1113:73 0
56 *665:40 *5090:A 0
57 *718:20 *5090:A 0
58 *725:8 *1113:8 0
59 *997:28 *5090:A 0
60 *1112:12 *1113:81 0
61 *1112:35 *1113:16 0.000284991
62 *1112:35 *1113:18 5.30319e-05
*RES
1 *5611:Q *1113:6 40 
2 *1113:6 *1113:8 12.7102 
3 *1113:8 *1113:12 1.4111 
4 *1113:12 *1113:14 1.8334 
5 *1113:14 *1113:16 4.3054 
6 *1113:16 *1113:18 0.5974 
7 *1113:18 *5057:C 41.4111 
8 *1113:18 *5051:C 44.2127 
9 *1113:16 *5056:C 40.3193 
10 *1113:14 *5172:A1 40.3193 
11 *1113:12 *5173:A1 40.3193 
12 *1113:8 *1113:73 26.3963 
13 *1113:73 *1113:81 42.3381 
14 *1113:81 *5175:B 20 
15 *1113:73 *5174:A1 20.7519 
16 *5611:Q *1113:102 45.2942 
17 *1113:102 *5090:A 45.5105 
*END

*D_NET *1114 0.010152
*CONN
*I *5093:A I *D sg13g2_nor2b_1
*I *5175:A I *D sg13g2_and3_1
*I *5056:B I *D sg13g2_and4_1
*I *5051:B I *D sg13g2_nand4_1
*I *5057:B I *D sg13g2_nand4_1
*I *5174:B1 I *D sg13g2_a21oi_1
*I *5613:Q O *D sg13g2_dfrbpq_1
*CAP
1 *5093:A 0.000844628
2 *5175:A 6.63196e-05
3 *5056:B 0.000482766
4 *5051:B 0
5 *5057:B 0.000431359
6 *5174:B1 2.85434e-05
7 *5613:Q 0
8 *1114:31 0.000494414
9 *1114:29 0.00136321
10 *1114:23 0.0010527
11 *1114:12 0.000970702
12 *1114:6 0.0016178
13 *5056:B *1115:29 0.000550838
14 *5056:B *1115:37 1.54008e-05
15 *5057:B *5051:A 4.78028e-05
16 *5051:C *5056:B 0
17 *5051:C *5057:B 0.000242203
18 *5051:C *1114:31 4.77425e-05
19 *5052:A *1114:29 0
20 *5056:C *5056:B 1.54008e-05
21 *5057:C *5057:B 4.78688e-05
22 *5549:RESET_B *5093:A 0
23 *5609:CLK *5093:A 0
24 *121:8 *1114:12 0
25 *121:8 *1114:23 0.000529536
26 *121:8 *1114:29 0.000180684
27 *281:12 *5057:B 0.000339492
28 *349:25 *5175:A 0
29 *358:78 *5057:B 0
30 *358:78 *1114:29 0
31 *358:78 *1114:31 0
32 *661:59 *5174:B1 4.77425e-05
33 *661:59 *1114:12 0.000339398
34 *665:68 *5093:A 0
35 *665:79 *5093:A 0
36 *666:28 *5093:A 0
37 *719:25 *5093:A 0
38 *719:25 *1114:12 0
39 *732:8 *5093:A 0.000106894
40 *732:8 *1114:12 0.000288588
41 *1005:27 *5056:B 0
42 *1005:27 *1114:29 0
43 *1015:125 *1114:29 0
44 *1112:12 *1114:29 0
45 *1112:14 *1114:29 0
*RES
1 *5613:Q *1114:6 40 
2 *1114:6 *1114:12 29.0434 
3 *1114:12 *5174:B1 20.3193 
4 *1114:12 *1114:23 22.575 
5 *1114:23 *1114:29 27.5911 
6 *1114:29 *1114:31 0.7519 
7 *1114:31 *5057:B 25.1912 
8 *1114:31 *5051:B 20 
9 *1114:29 *5056:B 25.5208 
10 *1114:23 *5175:A 40.7776 
11 *1114:6 *5093:A 48.6417 
*END

*D_NET *1115 0.00844841
*CONN
*I *5096:A I *D sg13g2_nor2b_1
*I *5177:A I *D sg13g2_nor2_1
*I *5056:A I *D sg13g2_and4_1
*I *5057:A I *D sg13g2_nand4_1
*I *5051:A I *D sg13g2_nand4_1
*I *5615:Q O *D sg13g2_dfrbpq_1
*CAP
1 *5096:A 0.000789506
2 *5177:A 0
3 *5056:A 0
4 *5057:A 0
5 *5051:A 0.000157194
6 *5615:Q 0.000304659
7 *1115:37 0.00024539
8 *1115:29 0.000541482
9 *1115:14 0.000900798
10 *1115:10 0.00117604
11 *1115:6 0.00182269
12 *5051:D *5051:A 0.00018128
13 *5056:B *1115:29 0.000550838
14 *5056:B *1115:37 1.54008e-05
15 *5057:B *5051:A 4.78028e-05
16 *5057:C *1115:37 0.000235228
17 *5168:A1 *1115:14 0
18 *5179:A *1115:37 0
19 *5609:RESET_B *5096:A 0.000339524
20 *5609:CLK *5096:A 0
21 *5613:CLK *5096:A 0
22 *5944:A *5096:A 0
23 *123:10 *1115:10 0
24 *261:31 *5096:A 0
25 *281:12 *5051:A 0
26 *281:12 *1115:37 0
27 *284:8 *5051:A 0
28 *348:18 *1115:37 0
29 *349:29 *1115:10 0.000234185
30 *349:48 *1115:10 5.15366e-05
31 *358:78 *5051:A 0
32 *363:10 *1115:10 0
33 *365:10 *1115:10 0
34 *367:101 *1115:37 0
35 *660:18 *5096:A 0
36 *662:36 *5096:A 0
37 *662:36 *1115:6 0
38 *1005:27 *1115:29 0.000561638
39 *1005:27 *1115:37 8.00842e-05
40 *1013:12 *1115:14 0
41 *1015:117 *5051:A 0
42 *1015:117 *1115:14 0
43 *1112:12 *1115:10 0
44 *1113:16 *1115:37 0.000106242
45 *1113:18 *1115:37 0.000106894
*RES
1 *5615:Q *1115:6 23.3475 
2 *1115:6 *1115:10 28.2606 
3 *1115:10 *1115:14 4.6247 
4 *1115:14 *5051:A 41.9055 
5 *1115:14 *1115:29 23.7801 
6 *1115:29 *1115:37 43.1106 
7 *1115:37 *5057:A 20 
8 *1115:29 *5056:A 20 
9 *1115:10 *5177:A 40 
10 *1115:6 *5096:A 28.7344 
*END

*D_NET *1116 0.0147095
*CONN
*I *5183:A1 I *D sg13g2_a21oi_1
*I *5181:A1 I *D sg13g2_o21ai_1
*I *5182:A1 I *D sg13g2_a21oi_1
*I *5203:D I *D sg13g2_nand4_1
*I *5044:B I *D sg13g2_nand2_1
*I *5189:D I *D sg13g2_nand4_1
*I *5046:D I *D sg13g2_nand4_1
*I *5099:A I *D sg13g2_nor2b_1
*I *5617:Q O *D sg13g2_dfrbpq_1
*CAP
1 *5183:A1 0
2 *5181:A1 4.24087e-05
3 *5182:A1 0
4 *5203:D 0.00034407
5 *5044:B 0
6 *5189:D 0.000179818
7 *5046:D 0.000460241
8 *5099:A 0
9 *5617:Q 0.000522219
10 *1116:91 0.000277338
11 *1116:83 0.000670618
12 *1116:74 0.000921214
13 *1116:63 0.00049281
14 *1116:46 0.000446355
15 *1116:37 0.000922462
16 *1116:27 0.000788524
17 *1116:18 0.00114448
18 *1116:10 0.00199301
19 *5046:D *5046:C 0.000823887
20 *5046:D *1117:29 3.23417e-05
21 *5181:A1 *1117:8 0
22 *5189:D *1117:44 0.000447182
23 *5203:D *5203:C 0.000598614
24 *1116:18 *1117:78 0
25 *1116:27 *1117:78 0.000273703
26 *1116:37 *5183:B1 0.000128576
27 *1116:37 *1117:29 0.000177048
28 *1116:37 *1117:53 0.00012816
29 *1116:37 *1117:78 0
30 *1116:63 *1117:44 5.30319e-05
31 *1116:74 *5203:C 0.000266733
32 *1116:74 *1117:12 0.00034245
33 *1116:83 *5203:C 4.77425e-05
34 *1116:83 *1117:8 0
35 *5100:B1 *1116:18 0
36 *5100:B1 *1116:27 0
37 *5181:A2 *5181:A1 8.00842e-05
38 *5181:A2 *1116:83 1.54008e-05
39 *5182:A2 *1116:83 0
40 *5182:A2 *1116:91 8.02105e-05
41 *5183:A2 *1116:27 1.54008e-05
42 *5183:A2 *1116:37 0.000144994
43 *5184:D *1116:37 0
44 *5185:C *1116:27 0
45 *5661:CLK *5046:D 0.000856228
46 *5661:CLK *1116:37 0.000226315
47 *5913:A *1116:18 0.000468492
48 *126:14 *1116:18 0
49 *287:24 *1116:37 0.000281967
50 *348:18 *1116:91 0
51 *367:101 *1116:91 0
52 *373:10 *5189:D 0
53 *378:8 *1116:63 0
54 *658:10 *1116:18 1.54008e-05
55 *658:77 *1116:18 0
56 *1004:42 *1116:10 0
57 *1004:42 *1116:18 0
58 *1004:44 *1116:18 0
59 *1014:52 *1116:63 0
60 *1014:52 *1116:74 0
61 *1014:58 *1116:63 0
62 *1016:35 *1116:74 0
63 *1016:41 *1116:63 0
64 *1087:10 *1116:18 0
*RES
1 *5617:Q *1116:10 44.841 
2 *1116:10 *1116:18 30.4442 
3 *1116:18 *5099:A 20 
4 *1116:10 *1116:27 23.1312 
5 *1116:27 *1116:37 45.1912 
6 *1116:37 *5046:D 25.7268 
7 *1116:37 *1116:46 20 
8 *1116:46 *5189:D 42.0806 
9 *1116:46 *1116:63 3.0694 
10 *1116:63 *5044:B 40 
11 *1116:63 *1116:74 23.3166 
12 *1116:74 *5203:D 23.9964 
13 *1116:74 *1116:83 3.5638 
14 *1116:83 *1116:91 42.369 
15 *1116:91 *5182:A1 20 
16 *1116:83 *5181:A1 20.5356 
17 *1116:27 *5183:A1 20 
*END

*D_NET *1117 0.0166843
*CONN
*I *5203:C I *D sg13g2_nand4_1
*I *5102:A I *D sg13g2_nor2b_1
*I *5183:B1 I *D sg13g2_a21oi_1
*I *5189:C I *D sg13g2_nand4_1
*I *5046:C I *D sg13g2_nand4_1
*I *5044:A I *D sg13g2_nand2_1
*I *5619:Q O *D sg13g2_dfrbpq_1
*CAP
1 *5203:C 0.00045792
2 *5102:A 0
3 *5183:B1 0.000377071
4 *5189:C 0
5 *5046:C 0.000498278
6 *5044:A 2.75384e-05
7 *5619:Q 0.000684623
8 *1117:84 8.50134e-05
9 *1117:78 0.00248619
10 *1117:53 0.002865
11 *1117:44 0.000210304
12 *1117:29 0.00083278
13 *1117:25 0.000554485
14 *1117:12 0.00043252
15 *1117:8 0.001204
16 *5046:B *5046:C 3.39354e-05
17 *5046:A *5046:C 0
18 *5046:D *5046:C 0.000823887
19 *5046:D *1117:29 3.23417e-05
20 *5100:B1 *5183:B1 0
21 *5181:A1 *1117:8 0
22 *5183:A2 *1117:78 0.00014434
23 *5184:A *5044:A 4.77425e-05
24 *5184:A *1117:25 1.61708e-05
25 *5184:D *1117:29 0.000111966
26 *5185:C *1117:78 0
27 *5189:B *1117:44 4.79124e-05
28 *5189:D *1117:44 0.000447182
29 *5203:D *5203:C 0.000598614
30 *5557:CLK *1117:78 0.000273065
31 *5559:CLK *1117:78 0
32 *5619:RESET_B *1117:78 0
33 *5661:CLK *1117:78 0.000597795
34 *287:14 *1117:25 0
35 *287:24 *5183:B1 4.79017e-05
36 *287:28 *1117:44 0
37 *374:10 *5183:B1 0
38 *378:8 *1117:44 0
39 *383:10 *5203:C 0
40 *384:6 *5203:C 0
41 *636:32 *1117:8 0
42 *658:10 *1117:78 8.00842e-05
43 *658:77 *1117:78 0.000274709
44 *658:92 *1117:78 0
45 *658:107 *1117:84 0
46 *662:42 *1117:78 0.00014514
47 *706:98 *1117:78 0
48 *723:10 *1117:8 0
49 *1004:42 *1117:8 0.000144817
50 *1014:52 *5203:C 0.000341534
51 *1014:52 *1117:12 0.000341949
52 *1014:52 *1117:25 0
53 *1016:41 *5046:C 0
54 *1016:49 *5183:B1 0
55 *1016:65 *5046:C 0
56 *1087:10 *1117:78 0
57 *1116:18 *1117:78 0
58 *1116:27 *1117:78 0.000273703
59 *1116:37 *5183:B1 0.000128576
60 *1116:37 *1117:29 0.000177048
61 *1116:37 *1117:53 0.00012816
62 *1116:37 *1117:78 0
63 *1116:63 *1117:44 5.30319e-05
64 *1116:74 *5203:C 0.000266733
65 *1116:74 *1117:12 0.00034245
66 *1116:83 *5203:C 4.77425e-05
67 *1116:83 *1117:8 0
*RES
1 *5619:Q *1117:8 47.2409 
2 *1117:8 *1117:12 21.5862 
3 *1117:12 *5044:A 20.3193 
4 *1117:12 *1117:25 23.5432 
5 *1117:25 *1117:29 21.4008 
6 *1117:29 *5046:C 25.5105 
7 *1117:29 *1117:44 42.8943 
8 *1117:44 *5189:C 20 
9 *1117:25 *1117:53 1.1639 
10 *1117:53 *5183:B1 43.8934 
11 *1117:53 *1117:78 43.8136 
12 *1117:78 *1117:84 40.8446 
13 *1117:84 *5102:A 20 
14 *1117:8 *5203:C 45.7989 
*END

*D_NET *1118 0.00700086
*CONN
*I *5472:B I *D sg13g2_or4_1
*I *5481:B I *D sg13g2_or3_1
*I *5480:A1 I *D sg13g2_o21ai_1
*I *5460:A I *D sg13g2_nand3_1
*I *5475:C I *D sg13g2_nor4_1
*I *5473:C I *D sg13g2_nor3_1
*I *5478:B I *D sg13g2_nand2_1
*I *5817:Q O *D sg13g2_dfrbpq_1
*CAP
1 *5472:B 0.000175994
2 *5481:B 0.000149301
3 *5480:A1 0
4 *5460:A 0.000230837
5 *5475:C 0.000162334
6 *5473:C 0.000237856
7 *5478:B 0
8 *5817:Q 7.79881e-05
9 *1118:64 0.000245727
10 *1118:35 0.000566379
11 *1118:31 0.000728788
12 *1118:25 0.000800301
13 *1118:16 0.000630755
14 *1118:8 0.000512623
15 *5473:C *5473:B 1.54556e-05
16 *5473:C *5475:A 0
17 *5475:C *5459:C 0.000177295
18 *5475:C *1121:23 4.77425e-05
19 *5481:B *1119:27 0
20 *1118:31 *1119:27 0
21 *1118:64 *1119:27 0
22 *5472:A *5472:B 1.54008e-05
23 *5474:A *5475:C 0.000241979
24 *5476:B1 *5473:C 4.77425e-05
25 *551:18 *1118:8 0.0001448
26 *552:54 *1118:25 0
27 *552:54 *1118:64 0
28 *553:8 *5473:C 0.00023775
29 *553:8 *1118:35 0.000237686
30 *556:10 *1118:25 0.000209845
31 *557:12 *1118:31 0
32 *561:8 *1118:16 0
33 *566:8 *1118:16 0
34 *567:8 *5481:B 0.000234224
35 *680:42 *5472:B 9.6255e-05
36 *693:35 *5460:A 0
37 *693:35 *1118:16 4.20439e-05
38 *693:35 *1118:25 0.000588956
39 *693:35 *1118:31 0
40 *699:20 *5473:C 0
41 *714:26 *1118:8 0.0001448
42 *1001:111 *5460:A 0
43 *1001:111 *1118:31 0
44 *1008:10 *1118:16 0
45 *1009:14 *1118:16 0
*RES
1 *5817:Q *1118:8 40.9682 
2 *1118:8 *1118:16 22.8969 
3 *1118:16 *5478:B 20 
4 *1118:16 *1118:25 24.035 
5 *1118:25 *1118:31 23.1415 
6 *1118:31 *1118:35 21.8334 
7 *1118:35 *5473:C 42.3999 
8 *1118:35 *5475:C 41.8334 
9 *1118:31 *5460:A 22.0497 
10 *1118:25 *1118:64 0.5814 
11 *1118:64 *5480:A1 40 
12 *1118:64 *5481:B 41.8334 
13 *1118:8 *5472:B 41.5965 
*END

*D_NET *1119 0.00785812
*CONN
*I *5481:A I *D sg13g2_or3_1
*I *5475:B I *D sg13g2_nor4_1
*I *5483:A1 I *D sg13g2_o21ai_1
*I *5459:B I *D sg13g2_nor3_1
*I *5473:B I *D sg13g2_nor3_1
*I *5480:B1 I *D sg13g2_o21ai_1
*I *5819:Q O *D sg13g2_dfrbpq_1
*CAP
1 *5481:A 0.00011455
2 *5475:B 0.000368607
3 *5483:A1 0.000399295
4 *5459:B 5.99629e-05
5 *5473:B 0.000185006
6 *5480:B1 0
7 *5819:Q 0.000763455
8 *1119:31 0.000344998
9 *1119:29 0.000548563
10 *1119:27 0.000916907
11 *1119:16 0.000766758
12 *1119:10 0.0011457
13 *5459:B *5459:C 1.54008e-05
14 *5473:B *5473:A 0
15 *5473:B *5475:A 0.000106392
16 *5473:B *1120:8 0
17 *5473:B *1120:12 0.00018128
18 *5475:B *5475:A 0.000386746
19 *5475:B *1121:23 0
20 *5483:A1 *1120:47 0
21 *1119:29 *5475:A 7.51285e-05
22 *1119:31 *5475:A 0.000287672
23 *5460:C *5475:B 0.00027432
24 *5473:C *5473:B 1.54556e-05
25 *5476:B1 *5473:B 0
26 *5481:B *1119:27 0
27 *5482:B1 *5481:A 0
28 *5483:A2 *5483:A1 1.54556e-05
29 *5484:A1 *5483:A1 0
30 *5993:A *5481:A 0
31 *551:18 *1119:16 0
32 *551:18 *1119:27 0
33 *551:22 *1119:27 0
34 *552:38 *1119:10 0
35 *552:44 *1119:16 1.54008e-05
36 *552:44 *1119:27 9.70197e-05
37 *552:54 *1119:16 0.000144833
38 *554:6 *5475:B 0
39 *556:10 *1119:27 0
40 *556:25 *1119:10 0
41 *556:25 *1119:16 0
42 *557:12 *5483:A1 0
43 *562:10 *5473:B 1.54556e-05
44 *562:10 *1119:31 0
45 *563:8 *5483:A1 0.000273467
46 *568:10 *5481:A 0
47 *568:10 *1119:10 0.000340288
48 *605:35 *5481:A 0
49 *693:16 *5475:B 0
50 *698:33 *1119:10 0
51 *1001:111 *5475:B 0
52 *1001:111 *5483:A1 0
53 *1118:31 *1119:27 0
54 *1118:64 *1119:27 0
*RES
1 *5819:Q *1119:10 48.3018 
2 *1119:10 *1119:16 22.5544 
3 *1119:16 *5480:B1 20 
4 *1119:16 *1119:27 24.9646 
5 *1119:27 *1119:29 0.5974 
6 *1119:29 *1119:31 1.339 
7 *1119:31 *5473:B 41.8746 
8 *1119:31 *5459:B 40.5356 
9 *1119:29 *5483:A1 43.121 
10 *1119:27 *5475:B 44.2642 
11 *1119:10 *5481:A 40.9682 
*END

*D_NET *1120 0.0038015
*CONN
*I *5483:B1 I *D sg13g2_o21ai_1
*I *5473:A I *D sg13g2_nor3_1
*I *5475:A I *D sg13g2_nor4_1
*I *5459:A I *D sg13g2_nor3_1
*I *5821:Q O *D sg13g2_dfrbpq_1
*CAP
1 *5483:B1 0
2 *5473:A 3.2594e-05
3 *5475:A 0.000395579
4 *5459:A 3.34444e-05
5 *5821:Q 0
6 *1120:47 0.000232413
7 *1120:12 0.000547524
8 *1120:8 0.000511886
9 *1120:4 0.000593204
10 *5473:B *5473:A 0
11 *5473:B *5475:A 0.000106392
12 *5473:B *1120:8 0
13 *5473:B *1120:12 0.00018128
14 *5473:C *5475:A 0
15 *5474:A *5475:A 0.00027432
16 *5475:B *5475:A 0.000386746
17 *5476:B1 *5459:A 4.77425e-05
18 *5476:B1 *1120:8 0
19 *5483:A1 *1120:47 0
20 *5483:A2 *1120:47 1.54556e-05
21 *5484:A1 *1120:8 0
22 *5484:A1 *1120:47 0
23 *227:8 *1120:47 0
24 *557:18 *1120:47 0
25 *562:10 *1120:8 8.01211e-05
26 *562:10 *1120:47 0
27 *649:21 *1120:47 0
28 *699:20 *5473:A 0
29 *699:20 *1120:8 0
30 *1119:29 *5475:A 7.51285e-05
31 *1119:31 *5475:A 0.000287672
*RES
1 *5821:Q *1120:4 20 
2 *1120:4 *1120:8 3.4814 
3 *1120:8 *1120:12 21.339 
4 *1120:12 *5459:A 40.3193 
5 *1120:12 *5475:A 44.5629 
6 *1120:8 *5473:A 20.3193 
7 *1120:4 *1120:47 42.3381 
8 *1120:47 *5483:B1 20 
*END

*D_NET *1121 0.00201881
*CONN
*I *5475:D I *D sg13g2_nor4_1
*I *5459:C I *D sg13g2_nor3_1
*I *5476:B2 I *D sg13g2_a221oi_1
*I *5815:Q O *D sg13g2_dfrbpq_1
*CAP
1 *5475:D 0
2 *5459:C 0.000226259
3 *5476:B2 0.000106755
4 *5815:Q 9.6948e-05
5 *1121:23 0.000580577
6 *1121:8 0.000558021
7 *5459:B *5459:C 1.54008e-05
8 *5475:B *1121:23 0
9 *5475:C *5459:C 0.000177295
10 *5475:C *1121:23 4.77425e-05
11 *5476:C1 *5476:B2 0.000209807
12 *5476:B1 *5459:C 0
13 *5476:A2 *5459:C 0
14 *554:6 *1121:23 0
15 *563:8 *5459:C 0
*RES
1 *5815:Q *1121:8 40.8446 
2 *1121:8 *5476:B2 41.4008 
3 *1121:8 *1121:23 23.914 
4 *1121:23 *5459:C 22.5338 
5 *1121:23 *5475:D 20 
*END

*D_NET *1122 0.00307997
*CONN
*I *6056:A I *D sg13g2_dlygate4sd3_1
*I *5959:A I *D sg13g2_buf_1
*I *5857:Q O *D sg13g2_dfrbpq_1
*CAP
1 *6056:A 0
2 *5959:A 0.000186623
3 *5857:Q 0.000307941
4 *1122:27 0.000290004
5 *1122:12 0.000476627
6 *1122:10 0.000307941
7 *5462:A *1122:10 0
8 *5462:A *1122:27 0
9 *5468:B *1122:27 0.000287758
10 *548:8 *1122:27 0.000234726
11 *676:28 *5959:A 0
12 *676:28 *1122:10 0
13 *676:32 *1122:10 0.000341949
14 *1007:18 *5959:A 6.46834e-05
15 *1007:18 *1122:27 0.00033953
16 *1007:24 *5959:A 0.000242187
17 *1041:18 *1122:10 0
*RES
1 *5857:Q *1122:10 43.4814 
2 *1122:10 *1122:12 20 
3 *1122:12 *5959:A 22.0497 
4 *1122:12 *1122:27 44.0994 
5 *1122:27 *6056:A 20 
*END

*D_NET *1123 0.00881936
*CONN
*I *5465:B I *D sg13g2_nor2_1
*I *5455:D I *D sg13g2_and4_1
*I *5453:B I *D sg13g2_and2_1
*I *5467:A2 I *D sg13g2_a21oi_1
*I *5456:D I *D sg13g2_nand4_1
*I *5454:C I *D sg13g2_and3_1
*I *5807:Q O *D sg13g2_dfrbpq_1
*CAP
1 *5465:B 0.000263868
2 *5455:D 0.000138245
3 *5453:B 0.000217942
4 *5467:A2 0.000272849
5 *5456:D 0.000120112
6 *5454:C 0.000328355
7 *5807:Q 0.000743452
8 *1123:20 0.00047796
9 *1123:18 0.000364512
10 *1123:16 0.000340649
11 *1123:14 0.000459995
12 *1123:10 0.00126853
13 *5454:C *1124:28 0
14 *5454:C *1124:30 0
15 *5455:D *5455:B 0
16 *5456:D *1124:30 0.000208971
17 *5467:A2 *1124:28 0.000145206
18 *5467:A2 *1124:30 4.77425e-05
19 *1123:10 *6044:A 0
20 *1123:10 *1125:8 0
21 *1123:10 *1125:10 0
22 *1123:14 *1124:54 7.52149e-05
23 *1123:16 *1124:54 0.000181608
24 *1123:18 *1124:54 0.000288087
25 *1123:20 *1124:54 7.51285e-05
26 *5453:A *5453:B 8.01447e-05
27 *5453:A *5467:A2 0
28 *5454:A *5454:C 0.00037174
29 *5455:A *5455:D 0
30 *5466:D *5465:B 0.000112748
31 *5485:A *5453:B 0.000404142
32 *5485:A *5455:D 0.000144946
33 *559:8 *5454:C 0
34 *676:36 *5454:C 0.000345124
35 *676:36 *1123:18 5.30319e-05
36 *676:36 *1123:20 0.000106064
37 *676:49 *1123:18 0.000182121
38 *676:60 *5453:B 0.000339398
39 *676:60 *5467:A2 0
40 *676:68 *5465:B 0
41 *927:8 *1123:10 0.000661472
42 *927:8 *1123:14 0
43 *1006:28 *5465:B 0
44 *1032:20 *5454:C 0
45 *1032:20 *5456:D 0
46 *1049:16 *5465:B 0
*RES
1 *5807:Q *1123:10 49.3215 
2 *1123:10 *1123:14 2.6471 
3 *1123:14 *1123:16 0.8446 
4 *1123:16 *1123:18 1.339 
5 *1123:18 *1123:20 0.5974 
6 *1123:20 *5454:C 44.2848 
7 *1123:20 *5456:D 41.4008 
8 *1123:18 *5467:A2 42.6986 
9 *1123:16 *5453:B 42.6986 
10 *1123:14 *5455:D 41.5038 
11 *1123:10 *5465:B 42.4823 
*END

*D_NET *1124 0.00335148
*CONN
*I *5469:A1 I *D sg13g2_a21oi_1
*I *5456:C I *D sg13g2_nand4_1
*I *5455:C I *D sg13g2_and4_1
*I *5467:B1 I *D sg13g2_a21oi_1
*I *5454:B I *D sg13g2_and3_1
*I *5809:Q O *D sg13g2_dfrbpq_1
*CAP
1 *5469:A1 0
2 *5456:C 0
3 *5455:C 0
4 *5467:B1 0
5 *5454:B 6.94525e-05
6 *5809:Q 0.000132744
7 *1124:54 0.000195044
8 *1124:36 0.000266158
9 *1124:30 0.000419316
10 *1124:28 0.000644724
11 *1124:15 0.000324248
12 *1124:6 0.000229923
13 *1124:30 *5456:B 4.79124e-05
14 *1124:36 *5456:B 0
15 *5453:A *1124:6 0
16 *5454:A *5454:B 0
17 *5454:A *1124:6 0
18 *5454:C *1124:28 0
19 *5454:C *1124:30 0
20 *5455:A *1124:30 0
21 *5456:A *1124:30 0
22 *5456:D *1124:30 0.000208971
23 *5466:A *1124:54 0
24 *5467:A2 *1124:28 0.000145206
25 *5467:A2 *1124:30 4.77425e-05
26 *5485:A *1124:6 0
27 *676:68 *1124:54 0
28 *1007:24 *1124:36 0
29 *1032:20 *1124:6 0
30 *1123:14 *1124:54 7.52149e-05
31 *1123:16 *1124:54 0.000181608
32 *1123:18 *1124:54 0.000288087
33 *1123:20 *1124:54 7.51285e-05
*RES
1 *5809:Q *1124:6 21.4008 
2 *1124:6 *5454:B 20.8446 
3 *1124:6 *1124:15 0.3502 
4 *1124:15 *5467:B1 20 
5 *1124:15 *1124:28 3.2857 
6 *1124:28 *1124:30 1.6171 
7 *1124:30 *1124:36 42.0806 
8 *1124:36 *5455:C 20 
9 *1124:30 *5456:C 20 
10 *1124:28 *1124:54 42.8943 
11 *1124:54 *5469:A1 20 
*END

*D_NET *1125 0.00263574
*CONN
*I *6044:A I *D sg13g2_dlygate4sd3_1
*I *5455:B I *D sg13g2_and4_1
*I *5456:B I *D sg13g2_nand4_1
*I *5811:Q O *D sg13g2_dfrbpq_1
*CAP
1 *6044:A 0.000143719
2 *5455:B 6.60129e-05
3 *5456:B 0.000214432
4 *5811:Q 0.000177665
5 *1125:10 0.000964831
6 *1125:8 0.00100577
7 *5455:A *5455:B 0
8 *5455:A *5456:B 0
9 *5455:D *5455:B 0
10 *5456:A *5456:B 1.54008e-05
11 *5470:C *1125:10 0
12 *676:49 *5456:B 0
13 *1032:35 *1125:8 0
14 *1032:35 *1125:10 0
15 *1123:10 *6044:A 0
16 *1123:10 *1125:8 0
17 *1123:10 *1125:10 0
18 *1124:30 *5456:B 4.79124e-05
19 *1124:36 *5456:B 0
*RES
1 *5811:Q *1125:8 42.3278 
2 *1125:8 *1125:10 7.519 
3 *1125:10 *5456:B 41.9055 
4 *1125:10 *5455:B 40.5356 
5 *1125:8 *6044:A 41.4008 
*END

*D_NET *1126 0.000639717
*CONN
*I *5964:A I *D sg13g2_buf_1
*I *5813:Q O *D sg13g2_dfrbpq_1
*CAP
1 *5964:A 0.000279907
2 *5813:Q 0.000279907
3 *5513:A *5964:A 7.99033e-05
4 *678:91 *5964:A 0
5 *696:14 *5964:A 0
*RES
1 *5813:Q *5964:A 42.781 
*END

*D_NET *1127 0.000930356
*CONN
*I *5486:C I *D sg13g2_nand3_1
*I *5823:Q O *D sg13g2_dfrbpq_1
*CAP
1 *5486:C 0
2 *5823:Q 0.000267436
3 *1127:10 0.000267436
4 *556:72 *1127:10 0
5 *650:10 *1127:10 0
6 *1011:33 *1127:10 0.000395483
*RES
1 *5823:Q *1127:10 43.2342 
2 *1127:10 *5486:C 40 
*END

*D_NET *1128 0.00144575
*CONN
*I *5491:B I *D sg13g2_nor4_1
*I *6071:A I *D sg13g2_dlygate4sd3_1
*I *5825:Q O *D sg13g2_dfrbpq_1
*CAP
1 *5491:B 0.000255833
2 *6071:A 0
3 *5825:Q 0
4 *1128:12 0.000322718
5 *1128:4 0.000578551
6 *5488:C *5491:B 0
7 *5491:A *5491:B 1.54008e-05
8 *5825:CLK *1128:12 0
9 *680:14 *1128:12 0
10 *680:18 *5491:B 9.72497e-05
11 *680:22 *5491:B 4.77537e-05
12 *957:8 *1128:12 0.000128248
13 *1006:34 *5491:B 0
*RES
1 *5825:Q *1128:4 20 
2 *1128:4 *1128:12 42.8634 
3 *1128:12 *6071:A 20 
4 *1128:4 *5491:B 22.6368 
*END

*D_NET *1129 0.0028558
*CONN
*I *6065:A I *D sg13g2_dlygate4sd3_1
*I *5495:B I *D sg13g2_nor4_1
*I *5827:Q O *D sg13g2_dfrbpq_1
*CAP
1 *6065:A 7.56634e-05
2 *5495:B 0.000842084
3 *5827:Q 0.00038149
4 *1129:10 0.00129924
5 *5491:D *5495:B 0
6 *5493:A *5495:B 0
7 *5493:A *1129:10 0
8 *5495:A *5495:B 0.000112558
9 *650:59 *5495:B 0
10 *678:22 *5495:B 0
11 *678:22 *1129:10 0
12 *681:10 *1129:10 0
13 *694:20 *1129:10 0
14 *1001:67 *5495:B 0
15 *1008:63 *5495:B 0
16 *1024:10 *5495:B 0.000144767
*RES
1 *5827:Q *1129:10 43.6359 
2 *1129:10 *5495:B 48.1473 
3 *1129:10 *6065:A 40.7519 
*END

*D_NET *1130 0.00228361
*CONN
*I *5494:A I *D sg13g2_nor2_1
*I *5498:B I *D sg13g2_nor4_1
*I *5829:Q O *D sg13g2_dfrbpq_1
*CAP
1 *5494:A 2.4565e-05
2 *5498:B 0.000457594
3 *5829:Q 0.000604155
4 *1130:8 0.00108631
5 *1130:8 *1131:8 0
6 *5496:B *1130:8 0
7 *5498:C *5498:B 4.77425e-05
8 *5499:C *5498:B 0
9 *5499:D *5498:B 0
10 *605:66 *5498:B 0
11 *605:66 *1130:8 0
12 *1001:59 *5494:A 4.78356e-05
13 *1001:59 *5498:B 0
14 *1001:61 *5498:B 0
15 *1006:50 *5498:B 0
16 *1006:52 *5498:B 0
17 *1024:18 *5498:B 1.54008e-05
*RES
1 *5829:Q *1130:8 47.2718 
2 *1130:8 *5498:B 44.1303 
3 *1130:8 *5494:A 40.3193 
*END

*D_NET *1131 0.0024085
*CONN
*I *5497:A I *D sg13g2_nor2_1
*I *5501:B I *D sg13g2_nor4_1
*I *5831:Q O *D sg13g2_dfrbpq_1
*CAP
1 *5497:A 0
2 *5501:B 0
3 *5831:Q 0.000268109
4 *1131:18 0.000170841
5 *1131:12 0.000317898
6 *1131:8 0.000415166
7 *5497:B *1131:8 0
8 *5497:B *1131:18 0.00012816
9 *5831:CLK *1131:8 0
10 *5831:CLK *1131:18 0
11 *232:10 *1131:12 0
12 *693:73 *1131:18 0.000342449
13 *1001:42 *1131:18 0.000765875
14 *1001:59 *1131:8 0
15 *1130:8 *1131:8 0
*RES
1 *5831:Q *1131:8 43.3166 
2 *1131:8 *1131:12 21.4008 
3 *1131:12 *1131:18 43.5638 
4 *1131:18 *5501:B 20 
5 *1131:12 *5497:A 20 
*END

*D_NET *1132 0.0028353
*CONN
*I *5504:B I *D sg13g2_nor4_1
*I *5500:A I *D sg13g2_nor2_1
*I *5833:Q O *D sg13g2_dfrbpq_1
*CAP
1 *5504:B 0
2 *5500:A 0
3 *5833:Q 0.000172121
4 *1132:27 0.000622235
5 *1132:8 0.000794356
6 *5924:A *1132:8 0.000209593
7 *5924:A *1132:27 0.000492063
8 *69:22 *1132:27 0
9 *680:71 *1132:27 0.000232421
10 *1001:28 *1132:8 0
11 *1001:28 *1132:27 0
12 *1008:87 *1132:27 0.000232421
13 *1024:54 *1132:27 1.54008e-05
14 *1024:73 *1132:27 6.46834e-05
*RES
1 *5833:Q *1132:8 21.751 
2 *1132:8 *5500:A 20 
3 *1132:8 *1132:27 46.7568 
4 *1132:27 *5504:B 20 
*END

*D_NET *1133 0.000844566
*CONN
*I *5503:A I *D sg13g2_nor2_1
*I *5507:B I *D sg13g2_nor4_1
*I *5835:Q O *D sg13g2_dfrbpq_1
*CAP
1 *5503:A 0.000131101
2 *5507:B 0.000243455
3 *5835:Q 0.000374556
4 *5505:C *5503:A 0
5 *5505:C *5507:B 0
6 *5505:D *5507:B 8.00521e-05
7 *5507:A *5507:B 1.54008e-05
8 *5507:D *5507:B 0
9 *5817:CLK *5503:A 0
10 *693:35 *5503:A 0
11 *693:43 *5507:B 0
*RES
1 *5835:Q *5507:B 42.4205 
2 *5835:Q *5503:A 41.1192 
*END
